%%MatrixMarket matrix coordinate real general
255 255 639
1 1 48931684.538823962
2 1 1539826.4342816486
3 1 -29195686.416633047
1 2 1539826.4342816486
2 2 48456.99575947682
3 2 -918758.4164766944
1 3 -29195686.416633047
2 3 -918758.4164766944
3 3 17419976.263107792
4 4 15442669.283201415
5 4 1073.7222186426263
6 4 -1200114.2224983489
4 5 1073.7222186426263
5 5 0.075038007261335041
6 5 -83.585725724993466
4 6 -1200114.2224983489
5 6 -83.585725724993466
6 6 93319.050923764662
7 7 0.125
8 8 15439936.096326374
9 8 1077.0533182814306
10 8 -1201212.2421046789
8 9 1077.0533182814306
9 9 0.075516524227365447
10 9 -83.936177585059241
8 10 -1201212.2421046789
9 10 -83.936177585059241
10 10 93506.278088964114
11 11 0.125
12 12 15434868.486727484
13 12 1083.7695157957364
14 12 -1203440.4441426061
12 13 1083.7695157957364
13 13 0.076484011850479233
14 13 -84.643162942553118
12 14 -1203440.4441426061
13 14 -84.643162942553118
14 14 93883.99225552773
15 15 0.125
16 16 15428293.536111694
17 16 1093.9826172642383
18 16 -1206865.9941906205
16 17 1093.9826172642383
17 17 0.077961960530300078
18 17 -85.71922185866454
16 18 -1206865.9941906205
17 18 -85.71922185866454
18 18 94458.980935854968
19 19 0.125
20 20 15421472.245005745
21 20 1107.8660555301651
22 20 -1211592.534316103
20 21 1107.8660555301651
21 21 0.079983810887230306
22 21 -87.183812221856101
20 22 -1211592.534316103
21 22 -87.183812221856101
22 22 95241.765701535478
23 23 0.125
24 24 15416144.265440963
25 24 1125.6636907204497
26 24 -1217765.374465873
24 25 1125.6636907204497
25 25 0.082596620942066906
26 25 -89.064260268613808
24 26 -1217765.374465873
25 26 -89.064260268613808
26 26 96247.158981923916
27 27 0.125
28 28 15414557.280989632
29 28 1147.6999882851585
30 28 -1225576.1733575354
28 29 1147.6999882851585
29 29 0.085863310704364287
30 29 -91.396938451453508
28 30 -1225576.1733575354
29 30 -91.396938451453508
30 30 97494.847642434441
31 31 0.125
32 32 15419477.338194687
33 32 1174.3916792404289
34 32 -1235266.8669405435
32 33 1174.3916792404289
33 33 0.089865608498538307
34 33 -94.228705222435181
32 34 -1235266.8669405435
33 34 -94.228705222435181
34 34 99009.994398325725
35 35 0.125
36 36 15434174.844450038
37 36 1206.2609095219905
38 36 -1247132.451177405
36 37 1206.2609095219905
37 37 0.094707857348035135
38 37 -97.61864105805904
36 38 -1247132.451177405
37 38 -97.61864105805904
38 38 100823.83635286875
39 39 0.125
40 40 15462350.121952496
41 40 1243.9471421654234
42 40 -1261519.5825190996
40 41 1243.9471421654234
41 41 0.10052165143015518
42 41 -101.63989320978956
40 42 -1261519.5825190996
41 42 -101.63989320978956
42 42 102974.03662053174
43 43 0.125
44 44 15507979.001816055
45 44 1288.2157251159856
46 44 -1278819.0531023988
44 45 1288.2157251159856
45 45 0.10747132888556822
46 45 -106.38148487480211
44 46 -1278819.0531023988
45 46 -106.38148487480211
46 46 105504.61469887241
47 47 0.125
48 48 15575063.846752007
49 48 1339.9606463821619
50 48 -1299450.3274903854
48 49 1339.9606463821619
49 49 0.11576031112760651
50 49 -111.94989800485195
48 50 -1299450.3274903854
49 50 -111.94989800485195
50 50 108465.26935079845
51 51 0.125
52 52 15667277.99014901
53 52 1400.1979272876404
54 52 -1323836.1469941158
52 53 1400.1979272876404
53 53 0.12563813355606879
54 53 -118.47011798391705
52 54 -1323836.1469941158
53 54 -118.47011798391705
54 54 111909.85673857515
55 55 0.125
56 56 15787527.778180443
57 56 1470.0482159970925
58 56 -1352367.9941752804
56 57 1470.0482159970925
57 57 0.13740812977143502
58 57 -126.08597051942117
56 58 -1352367.9941752804
57 58 -126.08597051942117
58 58 115893.99087249278
59 59 0.125
60 60 15937473.136778597
61 60 1550.7078554003492
62 60 -1385364.5258826516
60 61 1550.7078554003492
61 61 0.15143570992024813
62 61 -134.95960280933733
60 62 -1385364.5258826516
61 62 -134.95960280933733
62 62 120471.82267103485
63 63 0.125
64 64 16117073.288628431
65 64 1643.4101963242915
66 64 -1423027.528373213
64 65 1643.4101963242915
65 65 0.16815734563032614
66 65 -145.27014817251208
64 66 -1423027.528373213
65 66 -145.27014817251208
66 66 125692.26527683309
67 67 0.125
68 68 16324225.381052814
69 68 1749.3801475139594
70 68 -1465400.6200948376
68 69 1749.3801475139594
69 69 0.18809048260263672
70 69 -157.21171135636627
68 70 -1465400.6200948376
69 70 -157.21171135636627
70 70 131595.02014030219
71 71 0.125
72 72 16554525.852893651
73 72 1869.7826053536942
74 72 -1512333.257795633
72 73 1869.7826053536942
73 73 0.21184436219621211
74 73 -170.99060191775035
72 74 -1512333.257795633
73 74 -170.99060191775035
74 74 138206.5619261651
75 75 0.125
76 76 16801111.674746957
77 76 2005.6581127092168
78 76 -1563446.4349485044
76 77 2005.6581127092168
77 77 0.24013081071993697
78 77 -186.82105030309515
76 78 -1563446.4349485044
77 78 -186.82105030309515
78 78 145535.70086182468
79 79 0.125
80 80 17054417.378769252
81 80 2157.821403335271
82 80 -1618084.5520447651
80 81 2157.821403335271
81 81 0.27377128912221471
82 81 -204.91683184391408
80 82 -1618084.5520447651
81 82 -204.91683184391408
82 82 153567.15773338079
83 83 0.125
84 84 17301594.165419366
85 84 2326.6752563445061
86 84 -1675226.8037020888
84 85 2326.6752563445061
85 85 0.31369145512510083
86 85 -225.47353119210129
84 86 -1675226.8037020888
85 86 -225.47353119210129
86 86 162250.25277289096
87 87 0.125
88 88 17525433.710565779
89 88 2511.8824761293517
90 88 -1733336.1483946396
88 89 2511.8824761293517
89 89 0.36088854737533516
90 89 -248.63425841410452
88 90 -1733336.1483946396
89 90 -248.63425841410452
90 90 171479.74963585599
91 91 0.125
92 92 17703191.340477973
93 92 2711.8961768481636
94 92 -1790175.25131738
92 93 2711.8961768481636
93 93 0.41635808684429371
94 93 -274.43600394100838
92 94 -1790175.25131738
93 94 -274.43600394100838
94 94 181070.48948446516
95 95 0.125
96 96 17806733.613176934
97 96 2923.5278539230949
98 96 -1842730.4137948169
96 97 2923.5278539230949
97 97 0.48098973681013535
98 97 -302.75166995138977
96 98 -1842730.4137948169
97 98 -302.75166995138977
98 98 190739.23850225646
99 99 0.125
100 100 17805993.561796375
101 100 3141.9546459167254
102 100 -1887471.7853451695
100 101 3141.9546459167254
101 101 0.55549086218588939
102 101 -333.26920503247254
100 102 -1887471.7853451695
101 102 -333.26920503247254
102 102 200119.07702349516
103 103 0.125
104 104 17676141.614143904
105 104 3361.5247375501144
106 104 -1921055.817835479
104 105 3361.5247375501144
105 105 0.6404291992249791
106 105 -365.55332840111294
104 106 -1921055.817835479
105 106 -365.55332840111294
106 106 208823.74700975913
107 107 0.125
108 108 17405645.685983974
109 108 3577.2494012232241
110 108 -1941240.491809197
108 109 3577.2494012232241
109 109 0.73644776768650133
110 109 -399.19299765943038
108 110 -1941240.491809197
109 110 -399.19299765943038
110 110 216545.97474210523
111 111 0.125
112 112 17001196.083590716
113 112 3786.4296758976061
114 112 -1947597.182042052
112 113 3786.4296758976061
113 113 0.84462959321319397
114 113 -433.98845151092979
112 114 -1947597.182042052
113 114 -433.98845151092979
114 114 223149.06472282956
115 115 0.125
116 116 16487375.9224679
117 116 3989.845007329508
118 116 -1941732.0243296621
116 117 3989.845007329508
117 117 0.96694725415983185
118 117 -470.11904102718148
116 118 -1941732.0243296621
117 118 -470.11904102718148
118 118 228717.00888665521
119 119 0.125
120 120 15901209.175058529
121 120 4192.0881199681535
122 120 -1926932.9216798679
120 121 4192.0881199681535
121 121 1.1067062236412857
122 121 -508.23831467490328
120 122 -1926932.9216798679
121 122 -508.23831467490328
122 122 233544.66570856341
123 123 0.125
124 124 15284459.545815036
125 124 4401.1633958706261
126 124 -1907475.7471212181
124 125 4401.1633958706261
125 125 1.26896116135201
126 125 -549.49563090622394
124 126 -1907475.7471212181
125 126 -549.49563090622394
126 126 238084.22618450486
127 127 0.125
128 128 14676762.373719603
129 128 4627.7579687261969
130 128 -1887905.608409968
128 129 4627.7579687261969
129 129 1.4609582489847801
130 129 -595.5198818627199
128 130 -1887905.608409968
129 130 -595.5198818627199
130 130 242878.3937373498
131 131 0.125
132 132 14108630.075097427
133 132 4883.6737360779607
134 132 -1872156.0795537778
132 133 4883.6737360779607
133 133 1.6923872427339544
134 133 -648.28749477154611
132 134 -1872156.0795537778
133 134 -648.28749477154611
134 134 248458.52819464088
135 135 0.125
136 136 13593638.724188283
137 136 5178.6912500858962
138 136 -1862374.9161029125
136 137 5178.6912500858962
137 137 1.9749728057464662
138 137 -709.74724205056486
136 138 -1862374.9161029125
137 138 -709.74724205056486
138 138 255181.57859147957
139 139 0.125
140 140 13124075.432933498
141 140 5516.8154920800425
142 140 -1857998.027678801
140 141 5516.8154920800425
141 141 2.3213020055793407
142 141 -781.27905245553973
140 142 -1857998.027678801
141 142 -781.27905245553973
142 142 263068.52367099933
143 143 0.125
144 144 12676114.509605452
145 144 5894.837575140562
146 144 -1856028.5247749309
144 145 5894.837575140562
145 145 2.7437785413134543
146 145 -863.37782287351865
144 146 -1856028.5247749309
145 146 -863.37782287351865
146 146 271785.7600423987
147 147 0.125
148 148 12227234.678532708
149 148 6307.0757086024532
150 148 -1853238.94143304
148 149 6307.0757086024532
149 149 3.2560345639606796
150 149 -956.2064111513514
148 150 -1853238.94143304
149 150 -956.2064111513514
150 150 280914.89755683095
151 151 0.125
152 152 11782565.61721823
153 152 6759.4923997321139
154 152 -1850267.3178350329
152 153 6759.4923997321139
153 153 3.8807920724789584
154 153 -1061.7430763931015
152 154 -1850267.3178350329
153 154 -1061.7430763931015
154 154 290580.21377773792
155 155 0.125
156 156 11398269.804029541
157 156 7292.0972103530248
158 156 -1856150.8101171544
156 157 7292.0972103530248
157 157 4.6684148840536022
158 157 -1187.7580664513841
156 158 -1856150.8101171544
157 158 -1187.7580664513841
158 158 302288.31281097856
159 159 0.125
160 160 11181975.132293988
161 160 7999.0464891860129
162 160 -1889998.646643104
160 161 7999.0464891860129
161 161 5.7257504226716707
162 161 -1352.2990417490209
160 162 -1889998.646643104
161 162 -1352.2990417490209
162 162 319473.6253128727
163 163 0.125
164 164 11261460.877671331
165 164 9032.2448303613601
166 164 -1977415.818051677
164 165 9032.2448303613601
165 165 7.248386265790467
166 165 -1586.2826264273751
164 166 -1977415.818051677
165 166 -1586.2826264273751
166 166 347239.00096382917
167 167 0.125
168 168 11743686.073062778
169 168 10589.540961865776
170 168 -2144197.4426435851
168 169 10589.540961865776
169 169 9.5535344979420778
170 169 -1933.7882509571507
168 170 -2144197.4426435851
169 170 -1933.7882509571507
170 170 391515.48683211405
171 171 0.125
172 172 12675507.615021322
173 172 12886.007658487935
174 172 -2408715.7785676345
172 173 12886.007658487935
173 173 13.105563857909591
174 173 -2449.0634095921682
172 174 -2408715.7785676345
173 174 -2449.0634095921682
174 174 457747.78100504552
175 175 0.125
176 176 13988288.735688146
177 176 16078.286227443197
178 176 -2769226.7699189279
176 177 16078.286227443197
177 177 18.487207854543371
178 177 -3183.3605104000699
176 178 -2769226.7699189279
177 178 -3183.3605104000699
178 178 548238.88802400639
179 179 0.125
180 180 15487306.316786043
181 180 20187.244175992411
182 180 -3197261.8228357579
180 181 20187.244175992411
181 181 26.321450497806367
182 181 -4167.9569463743792
180 182 -3197261.8228357579
181 182 -4167.9569463743792
182 182 660077.8238435745
183 183 0.125
184 184 16943443.180501498
185 184 25125.152102502638
186 184 -3651509.4053762117
184 185 25125.152102502638
185 185 37.267145369986821
186 185 -5415.2217645670507
184 186 -3651509.4053762117
185 186 -5415.2217645670507
186 186 786965.04321195954
187 187 0.125
188 188 18205665.333539162
189 188 30815.799122844524
190 188 -4100440.1223555389
188 189 30815.799122844524
189 189 52.171458704674478
190 189 -6941.098966397828
188 190 -4100440.1223555389
189 190 -6941.098966397828
190 190 923559.09091722174
191 191 0.125
192 192 19254467.288694479
193 192 37331.433217626196
194 192 -4537473.5710479748
192 193 37331.433217626196
193 193 72.392875415987874
194 193 -8797.9858991107685
192 194 -4537473.5710479748
193 194 -8797.9858991107685
194 194 1069314.2990913743
195 195 0.125
196 196 20141699.644938584
197 196 44894.0771912079
198 196 -4972352.6748758722
196 197 44894.0771912079
197 197 100.08013311488435
198 197 -11083.497227373859
196 198 -4972352.6748758722
197 198 -11083.497227373859
198 198 1227538.3022382897
199 199 0.125
200 200 20753922.967983477
201 200 53381.587636258264
202 200 -5374013.6135413926
200 201 53381.587636258264
201 201 137.32159077406925
202 201 -13823.204352530616
200 202 -5374013.6135413926
201 202 -13823.204352530616
202 202 1391565.1697599855
203 203 0.125
204 204 20729227.607074566
205 204 61773.285336521192
206 204 -5637550.2941441797
204 205 61773.285336521192
205 205 184.10545737662926
206 205 -16800.574514418317
204 206 -5637550.2941441797
205 206 -16800.574514418317
206 206 1533215.1880681007
207 207 0.125
208 208 19891438.016714633
209 208 68957.119215385697
210 208 -5689471.5332695646
208 209 68957.119215385697
209 209 239.07524786041324
210 209 -19724.184099999744
208 210 -5689471.5332695646
209 210 -19724.184099999744
210 210 1627355.3881149921
211 211 0.125
212 212 18470416.565841176
213 212 74796.560050264787
214 212 -5563905.7709819898
212 213 74796.560050264787
213 213 302.91768222301164
214 213 -22531.877839360266
212 214 -5563905.7709819898
213 214 -22531.877839360266
214 214 1676050.3887230847
215 215 0.125
216 216 16842832.176649764
217 216 80013.084625297139
218 216 -5350961.7784541268
216 217 80013.084625297139
217 217 380.13786801043977
218 217 -25420.796259783732
216 218 -5350961.7784541268
217 218 -25420.796259783732
218 218 1700013.535755625
219 219 0.125
220 220 15357561.885168694
221 220 85968.654727841509
222 220 -5153429.3251317833
220 221 85968.654727841509
221 221 481.26977217039871
222 221 -28848.575963752039
220 222 -5153429.3251317833
221 222 -28848.575963752039
222 222 1729313.6703266446
223 223 0.125
224 224 14257753.528479723
225 224 94488.48126164623
226 224 -5061296.5678949822
224 225 94488.48126164623
225 225 626.22957693810827
226 225 -33542.7396955074
224 226 -5061296.5678949822
225 226 -33542.7396955074
226 226 1796699.5628760657
227 227 0.125
228 228 13656131.6890448
229 228 107677.67307683159
230 228 -5136828.9038091078
228 229 107677.67307683159
229 229 849.07653363214308
230 229 -40504.269450611588
228 230 -5136828.9038091078
229 230 -40504.269450611588
230 230 1932257.8676877629
231 231 0.125
232 232 13585490.746170282
233 232 128125.2739117551
234 232 -5424543.8228207463
232 233 128125.2739117551
233 233 1208.4083914445116
234 233 -51159.840452660719
232 234 -5424543.8228207463
233 234 -51159.840452660719
234 234 2165974.1761230044
235 235 0.125
236 236 14127369.022869805
237 236 160255.6362692813
238 236 -5999015.8688818617
236 237 160255.6362692813
237 237 1817.9462818822376
238 237 -68051.432375321703
236 238 -5999015.8688818617
237 238 -68051.432375321703
238 238 2547419.5511520826
239 239 0.125
240 240 16556687.287996713
241 240 227235.5915592435
242 240 -7491620.5039532911
240 241 227235.5915592435
241 241 3118.825156137299
242 241 -102821.18387113311
240 242 -7491620.5039532911
241 242 -102821.18387113311
242 242 3389841.5617114129
243 243 0.125
244 244 34683927.185276121
245 244 578726.16690788628
246 244 -16749858.596184399
244 245 578726.16690788628
245 245 9656.6486597475232
246 245 -279485.2020193559
244 246 -16749858.596184399
245 246 -279485.2020193559
246 246 8089002.3995071603
247 247 0.125
248 248 26004725.125205841
249 248 531940.81706978346
250 248 -13440761.405494522
248 249 531940.81706978346
249 249 10881.233966255033
250 249 -274938.89420442673
248 250 -13440761.405494522
249 250 -274938.89420442673
250 250 6946977.5664943056
251 251 0.125
252 252 0.125
253 253 367878079.14354312
254 253 9297641.0638240837
255 253 -204030363.5210833
253 254 9297641.0638240837
254 254 234986.18932713062
255 254 -5156605.4280226585
253 255 -204030363.5210833
254 255 -5156605.4280226585
255 255 113158133.11899568
