%%MatrixMarket matrix coordinate real general
128 255 510
1 1 0
65 1 0
1 2 0
65 2 1
1 3 -1
65 3 0
64 4 0
128 4 0
64 5 0
128 5 1
64 6 -1
128 6 0
63 7 -1
64 7 1
63 8 0
127 8 0
63 9 0
127 9 1
63 10 -1
127 10 0
62 11 -1
63 11 1
62 12 0
126 12 0
62 13 0
126 13 1
62 14 -1
126 14 0
61 15 -1
62 15 1
61 16 0
125 16 0
61 17 0
125 17 1
61 18 -1
125 18 0
60 19 -1
61 19 1
60 20 0
124 20 0
60 21 0
124 21 1
60 22 -1
124 22 0
59 23 -1
60 23 1
59 24 0
123 24 0
59 25 0
123 25 1
59 26 -1
123 26 0
58 27 -1
59 27 1
58 28 0
122 28 0
58 29 0
122 29 1
58 30 -1
122 30 0
57 31 -1
58 31 1
57 32 0
121 32 0
57 33 0
121 33 1
57 34 -1
121 34 0
56 35 -1
57 35 1
56 36 0
120 36 0
56 37 0
120 37 1
56 38 -1
120 38 0
55 39 -1
56 39 1
55 40 0
119 40 0
55 41 0
119 41 1
55 42 -1
119 42 0
54 43 -1
55 43 1
54 44 0
118 44 0
54 45 0
118 45 1
54 46 -1
118 46 0
53 47 -1
54 47 1
53 48 0
117 48 0
53 49 0
117 49 1
53 50 -1
117 50 0
52 51 -1
53 51 1
52 52 0
116 52 0
52 53 0
116 53 1
52 54 -1
116 54 0
51 55 -1
52 55 1
51 56 0
115 56 0
51 57 0
115 57 1
51 58 -1
115 58 0
50 59 -1
51 59 1
50 60 0
114 60 0
50 61 0
114 61 1
50 62 -1
114 62 0
49 63 -1
50 63 1
49 64 0
113 64 0
49 65 0
113 65 1
49 66 -1
113 66 0
48 67 -1
49 67 1
48 68 0
112 68 0
48 69 0
112 69 1
48 70 -1
112 70 0
47 71 -1
48 71 1
47 72 0
111 72 0
47 73 0
111 73 1
47 74 -1
111 74 0
46 75 -1
47 75 1
46 76 0
110 76 0
46 77 0
110 77 1
46 78 -1
110 78 0
45 79 -1
46 79 1
45 80 0
109 80 0
45 81 0
109 81 1
45 82 -1
109 82 0
44 83 -1
45 83 1
44 84 0
108 84 0
44 85 0
108 85 1
44 86 -1
108 86 0
43 87 -1
44 87 1
43 88 0
107 88 0
43 89 0
107 89 1
43 90 -1
107 90 0
42 91 -1
43 91 1
42 92 0
106 92 0
42 93 0
106 93 1
42 94 -1
106 94 0
41 95 -1
42 95 1
41 96 0
105 96 0
41 97 0
105 97 1
41 98 -1
105 98 0
40 99 -1
41 99 1
40 100 0
104 100 0
40 101 0
104 101 1
40 102 -1
104 102 0
39 103 -1
40 103 1
39 104 0
103 104 0
39 105 0
103 105 1
39 106 -1
103 106 0
38 107 -1
39 107 1
38 108 0
102 108 0
38 109 0
102 109 1
38 110 -1
102 110 0
37 111 -1
38 111 1
37 112 0
101 112 0
37 113 0
101 113 1
37 114 -1
101 114 0
36 115 -1
37 115 1
36 116 0
100 116 0
36 117 0
100 117 1
36 118 -1
100 118 0
35 119 -1
36 119 1
35 120 0
99 120 0
35 121 0
99 121 1
35 122 -1
99 122 0
34 123 -1
35 123 1
34 124 0
98 124 0
34 125 0
98 125 1
34 126 -1
98 126 0
33 127 -1
34 127 1
33 128 0
97 128 0
33 129 0
97 129 1
33 130 -1
97 130 0
32 131 -1
33 131 1
32 132 0
96 132 0
32 133 0
96 133 1
32 134 -1
96 134 0
31 135 -1
32 135 1
31 136 0
95 136 0
31 137 0
95 137 1
31 138 -1
95 138 0
30 139 -1
31 139 1
30 140 0
94 140 0
30 141 0
94 141 1
30 142 -1
94 142 0
29 143 -1
30 143 1
29 144 0
93 144 0
29 145 0
93 145 1
29 146 -1
93 146 0
28 147 -1
29 147 1
28 148 0
92 148 0
28 149 0
92 149 1
28 150 -1
92 150 0
27 151 -1
28 151 1
27 152 0
91 152 0
27 153 0
91 153 1
27 154 -1
91 154 0
26 155 -1
27 155 1
26 156 0
90 156 0
26 157 0
90 157 1
26 158 -1
90 158 0
25 159 -1
26 159 1
25 160 0
89 160 0
25 161 0
89 161 1
25 162 -1
89 162 0
24 163 -1
25 163 1
24 164 0
88 164 0
24 165 0
88 165 1
24 166 -1
88 166 0
23 167 -1
24 167 1
23 168 0
87 168 0
23 169 0
87 169 1
23 170 -1
87 170 0
22 171 -1
23 171 1
22 172 0
86 172 0
22 173 0
86 173 1
22 174 -1
86 174 0
21 175 -1
22 175 1
21 176 0
85 176 0
21 177 0
85 177 1
21 178 -1
85 178 0
20 179 -1
21 179 1
20 180 0
84 180 0
20 181 0
84 181 1
20 182 -1
84 182 0
19 183 -1
20 183 1
19 184 0
83 184 0
19 185 0
83 185 1
19 186 -1
83 186 0
18 187 -1
19 187 1
18 188 0
82 188 0
18 189 0
82 189 1
18 190 -1
82 190 0
17 191 -1
18 191 1
17 192 0
81 192 0
17 193 0
81 193 1
17 194 -1
81 194 0
16 195 -1
17 195 1
16 196 0
80 196 0
16 197 0
80 197 1
16 198 -1
80 198 0
15 199 -1
16 199 1
15 200 0
79 200 0
15 201 0
79 201 1
15 202 -1
79 202 0
14 203 -1
15 203 1
14 204 0
78 204 0
14 205 0
78 205 1
14 206 -1
78 206 0
13 207 -1
14 207 1
13 208 0
77 208 0
13 209 0
77 209 1
13 210 -1
77 210 0
12 211 -1
13 211 1
12 212 0
76 212 0
12 213 0
76 213 1
12 214 -1
76 214 0
11 215 -1
12 215 1
11 216 0
75 216 0
11 217 0
75 217 1
11 218 -1
75 218 0
10 219 -1
11 219 1
10 220 0
74 220 0
10 221 0
74 221 1
10 222 -1
74 222 0
9 223 -1
10 223 1
9 224 0
73 224 0
9 225 0
73 225 1
9 226 -1
73 226 0
8 227 -1
9 227 1
8 228 0
72 228 0
8 229 0
72 229 1
8 230 -1
72 230 0
7 231 -1
8 231 1
7 232 0
71 232 0
7 233 0
71 233 1
7 234 -1
71 234 0
6 235 -1
7 235 1
6 236 0
70 236 0
6 237 0
70 237 1
6 238 -1
70 238 0
5 239 -1
6 239 1
5 240 0
69 240 0
5 241 0
69 241 1
5 242 -1
69 242 0
4 243 -1
5 243 1
4 244 0
68 244 0
4 245 0
68 245 1
4 246 -1
68 246 0
3 247 -1
4 247 1
3 248 0
67 248 0
3 249 0
67 249 1
3 250 -1
67 250 0
1 251 -1
2 251 1
2 252 -1
3 252 1
2 253 0
66 253 0
2 254 0
66 254 1
2 255 -1
66 255 0
