%%MatrixMarket matrix coordinate real general
50 50 50
1 1 0.19386856773982716
2 2 0.19386856773982716
3 3 0.19386856773982716
4 4 0.19386856773982716
5 5 0.19386856773982716
6 6 0.19386856773982716
7 7 0.19386856773982716
8 8 0.19386856773982716
9 9 0.19386856773982716
10 10 0.19386856773982716
11 11 0.19386856773982716
12 12 0.19386856773982716
13 13 0.19386856773982716
14 14 0.19386856773982716
15 15 0.19386856773982716
16 16 0.19386856773982716
17 17 0.19386856773982716
18 18 0.19386856773982716
19 19 0.19386856773982716
20 20 0.19386856773982716
21 21 0.19386856773982716
22 22 0.19386856773982716
23 23 0.19386856773982716
24 24 0.19386856773982716
25 25 0.19386856773982716
26 26 0.19386856773982716
27 27 0.19386856773982716
28 28 0.19386856773982716
29 29 0.19386856773982716
30 30 0.19386856773982716
31 31 0.19386856773982716
32 32 0.19386856773982716
33 33 0.19386856773982716
34 34 0.19386856773982716
35 35 0.19386856773982716
36 36 0.19386856773982716
37 37 0.19386856773982716
38 38 0.19386856773982716
39 39 0.19386856773982716
40 40 0.19386856773982716
41 41 0.19386856773982716
42 42 0.19386856773982716
43 43 0.19386856773982716
44 44 0.19386856773982716
45 45 0.19386856773982716
46 46 0.19386856773982716
47 47 0.19386856773982716
48 48 0.19386856773982716
49 49 0.19386856773982716
50 50 0.19386856773982716
