%%MatrixMarket matrix coordinate real general
50 50 50
1 1 1.9838252196896126e-11
2 2 1.9838251477094462e-11
3 3 3.1952344895818655e-08
4 4 1239862508.69787
5 5 3.0827972441440314e-08
6 6 537234880.7986443
7 7 1.5099614218379942e-07
8 8 1246475977.472928
9 9 4.2935857189407921e-08
10 10 321480407.30658072
11 11 3.4051534882444996e-08
12 12 440968661.08275276
13 13 4.7473045467105493e-08
14 14 544111689.89417017
15 15 6.8281595880797086e-08
16 16 786841927.67979622
17 17 2.4240842416087165e-08
18 18 538908049.27599514
19 19 4.076636625222157e-08
20 20 857107280.44175863
21 21 5.2436351456639349e-08
22 22 217000400.12998626
23 23 5.3111489293828325e-09
24 24 246237717.64847425
25 25 9.3914910389631498e-08
26 26 1746641277.2885733
27 27 2.7749054303557699e-08
28 28 717905200.12894011
29 29 3.5356203060629478e-08
30 30 1008409778.8090732
31 31 6.2897320974710479e-08
32 32 1862320677.6646388
33 33 1.2694695530413221e-07
34 34 4822781231.1009197
35 35 7.4598948427714132e-08
36 36 874317016.68818879
37 37 2.6226261415861751e-08
38 38 341038253.26707661
39 39 1.798987447315302e-07
40 40 264351891.86441803
41 41 1.5178412885287117e-07
42 42 712547437.43340313
43 43 5.2153988208124791e-08
44 44 1149472494.5432978
45 45 1.2724669807665369e-07
46 46 791109074.03365111
47 47 1.5829153439217078e-07
48 48 228958950.97032234
49 49 6.7991347697646674e-08
50 50 468420181.33049756
