%%MatrixMarket matrix coordinate real general
360 360 12960
1 1 618287780.71274781
2 1 6.6952063423364349e-06
3 1 5.4237966169612101e-07
4 1 8.9002802916534888e-08
5 1 -5.6103998943551367e-06
6 1 1.1176465428986783e-09
7 1 -8.6755287447279434e-08
8 1 -1.3143453449556205e-14
9 1 3.624993843060256e-20
10 1 4.1529977968358898e-21
11 1 6.8149392488039136e-22
12 1 -4.2958798137381984e-20
13 1 8.5578128349879009e-24
14 1 -6.6428471249402788e-22
15 1 -1.0063934375438322e-28
16 1 2.3789544820251794e-22
17 1 5.5207924225916929e-23
18 1 -3.4800986271760176e-21
19 1 6.9326969072616812e-25
20 1 -5.3813803370649123e-23
21 1 -8.1528082075172447e-30
22 1 6.4059966686288301e-24
23 1 -5.7107327969496752e-22
24 1 1.1376338386058168e-25
25 1 -8.8306765054743194e-24
26 1 -1.3378502797114655e-30
27 1 2.5454640991202061e-20
28 1 -7.1712132188852123e-24
29 1 5.5665243014715577e-22
30 1 8.4333018983627529e-29
31 1 1.0101556539039106e-27
32 1 -1.1089060955816696e-25
33 1 -1.6799962372395842e-32
34 1 6.0865507412937446e-24
35 1 1.3040666335714781e-30
36 1 1.3970061674315179e-37
1 2 6.6952063423364349e-06
2 2 959819451.95326877
3 2 206099657.49197057
4 2 3.4010969330857275e-05
5 2 -547631315.20797884
6 2 -1.0844805883541577e-06
7 2 -3.6179603512673017e-05
8 2 -3.9887570222921782e-08
9 2 1.0393524638005045e-05
10 2 2.1734742922210421e-06
11 2 9.769842661214485e-08
12 2 -1.0351748782501665e-05
13 2 1.2268412361245772e-09
14 2 -9.5231327622727991e-08
15 2 -1.4427576518635289e-14
16 2 1.8079649314324001e-07
17 2 2.0978541559308185e-08
18 2 -1.6621004131793224e-06
19 2 2.6343658492105415e-10
20 2 -2.0448787493910799e-08
21 2 -3.0979977887298084e-15
22 2 4.8958942660407494e-21
23 2 -5.5742481307860433e-08
24 2 -6.6914655028800641e-23
25 2 -7.0571606857408751e-21
26 2 -4.0606007099264053e-24
27 2 4.9692566614313196e-06
28 2 -6.9998235430726027e-10
29 2 5.4334861716937463e-08
30 2 8.2317489674515271e-15
31 2 -1.9603589432375771e-24
32 2 6.1355181532958841e-23
33 2 -5.0967991357887195e-26
34 2 5.0765549641822857e-21
35 2 3.9581071671535511e-24
36 2 8.4792298795962207e-31
1 3 5.4237966169612101e-07
2 3 206099657.49197057
3 3 206095929.56401873
4 3 6.0633389050091668e-07
5 3 206092197.98617563
6 3 2.6313406707882323e-07
7 3 -7.996949687717102e-08
8 3 -1.6457108206439625e-08
9 3 2.2317758445798737e-06
10 3 1.705917715385262e-06
11 3 2.0978541559291734e-08
12 3 2.5563884281502104e-07
13 3 2.6343658492374171e-10
14 3 -2.0448787493888975e-08
15 3 -3.0979978899997584e-15
16 3 1.8079322289859918e-07
17 3 2.0978162099697769e-08
18 3 -1.1945461546602826e-06
19 3 2.6343181988433288e-10
20 3 -2.044841761648343e-08
21 3 -3.09794173765235e-15
22 3 8.7282035067325542e-23
23 3 2.0977782268587445e-08
24 3 2.7558995295926088e-23
25 3 -6.8299173624086357e-23
26 3 -1.6751508036298689e-24
27 3 -1.8700994615745894e-06
28 3 2.6342705017963305e-10
29 3 -2.0448047376943125e-08
30 3 -3.0978855304422985e-15
31 3 4.7565371589665665e-25
32 3 -2.6209842252955227e-23
33 3 -2.1039431239773668e-26
34 3 1.1220950672186298e-23
35 3 1.6328418994866275e-24
36 3 3.4984232645888497e-31
1 4 8.9002802916534888e-08
2 4 3.4010969330857275e-05
3 4 6.0633389050091668e-07
4 4 959826909.70917559
5 4 -3.2798620194867352e-05
6 4 206092202.45852298
7 4 -547631322.9034344
8 4 -9.9284369929153674e-07
9 4 3.6829202321481337e-19
10 4 2.5739502770897277e-20
11 4 7.3493888559548054e-06
12 4 -4.6936517558442034e-19
13 4 1.5780467506446386e-06
14 4 -4.1932097350112607e-06
15 4 -7.6021987257981017e-21
16 4 5.3189338249496708e-22
17 4 5.9537508443316363e-07
18 4 -2.4235246085281358e-20
19 4 1.278378020021736e-07
20 4 -3.3969254436788839e-07
21 4 -6.158552172930174e-22
22 4 1.3816751348434202e-07
23 4 -6.1585869579987474e-06
24 4 2.2204633492460719e-08
25 4 -1.5097454965672518e-07
26 4 -1.4427688415923666e-14
27 4 2.9761768066021247e-19
28 4 -1.3223600394688567e-06
29 4 3.5137951321312612e-06
30 4 6.3704347827141375e-21
31 4 3.7254211514679152e-10
32 4 -2.1148030184831365e-08
33 4 -3.0978857045322673e-15
34 4 7.6841099429222135e-08
35 4 8.2317489257014187e-15
36 4 2.1105697623977708e-29
1 5 -5.6103998943551367e-06
2 5 -547631315.20797884
3 5 206092197.98617563
4 5 -3.2798620194867352e-05
5 5 959826893.0688231
6 5 1.6105911250559548e-06
7 5 3.6019667737170206e-05
8 5 6.9705841557051803e-09
9 5 -5.9300939937966115e-06
10 5 1.2383541768054607e-06
11 5 -5.5742481307893335e-08
12 5 1.0863183811294232e-05
13 5 -6.9998235430188628e-10
14 5 5.4334861716981118e-08
15 5 8.2317487648925713e-15
16 5 1.8078994945216979e-07
17 5 2.0977782268570994e-08
18 5 -7.2698493666145467e-07
19 5 2.6342705018232051e-10
20 5 -2.0448047376921298e-08
21 5 -3.0978856317130796e-15
22 5 -4.7213760671141214e-21
23 5 9.7699184030878599e-08
24 5 1.2201619672673276e-22
25 5 6.9205942828394595e-21
26 5 7.1001718894531086e-25
27 5 -8.7095570500598059e-06
28 5 1.2268507473565464e-09
29 5 -9.5232065914984643e-08
30 5 -1.4427688109459147e-14
31 5 2.9113814943374749e-24
32 5 -1.1375922542729012e-22
33 5 8.8855910750637493e-27
34 5 -5.0541135144081118e-21
35 5 -6.9214856877647802e-25
36 5 -1.4817945821460437e-31
1 6 1.1176465428986783e-09
2 6 -1.0844805883541577e-06
3 6 2.6313406707882323e-07
4 6 206092202.45852298
5 6 1.6105911250559548e-06
6 6 206095929.02887622
7 6 206099651.94936287
8 6 5.6336070610477464e-07
9 6 -1.1743433413111469e-20
10 6 1.3421189758675358e-21
11 6 1.5780467506446384e-06
12 6 1.9290695583416775e-20
13 6 1.5780752849713468e-06
14 6 1.5781037913510491e-06
15 6 4.3136495435727277e-21
16 6 2.3082870943731445e-22
17 6 1.2783780200217362e-07
18 6 -6.8932036831904278e-22
19 6 1.2784011357222467e-07
20 6 1.2784242287828461e-07
21 6 3.4944938589882713e-22
22 6 2.9667064836548106e-08
23 6 -1.3223600394688565e-06
24 6 2.1241589101124002e-08
25 6 5.3049317443344588e-10
26 6 -3.0978856459196646e-15
27 6 -1.4614651469741601e-20
28 6 -1.3223839504546223e-06
29 6 -1.3224078380215609e-06
30 6 -3.6147204099061829e-21
31 6 3.7254885147346997e-10
32 6 -2.0184980985550467e-08
33 6 -3.0979417186799909e-15
34 6 -2.8918951830229121e-08
35 6 -3.0979977365692824e-15
36 6 -1.1975823309109359e-29
1 7 -8.6755287447279434e-08
2 7 -3.6179603512673017e-05
3 7 -7.996949687717102e-08
4 7 -547631322.9034344
5 7 3.6019667737170206e-05
6 7 206099651.94936287
7 7 959819448.56335568
8 7 2.1197563295270509e-06
9 7 -3.9177534913608689e-19
10 7 -2.3054324927979648e-20
11 7 -4.1932097350112607e-06
12 7 5.07943437067629e-19
13 7 1.5781037913510489e-06
14 7 7.3493317260062835e-06
15 7 1.6230961968209627e-20
16 7 -7.0151522074422032e-23
17 7 -3.3969254436788839e-07
18 7 2.2855904146475641e-20
19 7 1.2784242287828463e-07
20 7 5.9537045632753581e-07
21 7 1.3148726005255185e-21
22 7 -7.883177417336062e-08
23 7 3.513795132131262e-06
24 7 2.0278558630963714e-08
25 7 1.5203328874706353e-07
26 7 8.2317490429599677e-15
27 7 -3.2684576111533497e-19
28 7 -1.3224078380215607e-06
29 7 -6.158539084663593e-06
30 7 -1.3601102524617338e-20
31 7 3.725555812024751e-10
32 7 -1.9221945712162238e-08
33 7 -3.09799767796431e-15
34 7 -1.3467743461080877e-07
35 7 -1.4427576372578645e-14
36 7 -4.5061409121531556e-29
1 8 -1.3143453449556205e-14
2 8 -3.9887570222921782e-08
3 8 -1.6457108206439625e-08
4 8 -9.9284369929153674e-07
5 8 6.9705841557051803e-09
6 8 5.6336070610477464e-07
7 8 2.1197563295270509e-06
8 8 618287780.71301806
9 8 -4.3192752649524892e-22
10 8 -1.5075400738326841e-22
11 8 -7.6062584993510139e-21
12 8 3.0930639423065351e-22
13 8 4.3135984228052676e-21
14 8 1.6234918942677417e-20
15 8 4.7342258061113426e-06
16 8 -1.4436644327608149e-23
17 8 -6.1753036569293855e-22
18 8 1.0991840603372492e-22
19 8 3.4942834464293898e-22
20 8 1.3165054363748954e-21
21 8 3.8352033676316026e-07
22 8 -1.4292029880271501e-22
23 8 6.3711439775425306e-21
24 8 5.6074495402136379e-23
25 8 3.1427440133852157e-22
26 8 6.2934485486919152e-08
27 8 -6.3251716567496129e-23
28 8 -3.6147113751938851e-21
29 8 -1.3601793552587189e-20
30 8 -3.9671518104685407e-06
31 8 1.0183577092791721e-24
32 8 -5.318602566948216e-23
33 8 7.9029544945370237e-10
34 8 -2.9743442279315672e-22
35 8 -6.1345252057786254e-08
36 8 -1.3143453449561951e-14
1 9 3.624993843060256e-20
2 9 1.0393524638005045e-05
3 9 2.2317758445798737e-06
4 9 3.6829202321481337e-19
5 9 -5.9300939937966115e-06
6 9 -1.1743433413111469e-20
7 9 -3.9177534913608689e-19
8 9 -4.3192752649524892e-22
9 9 1490007419.0142875
10 9 452471418.93040365
11 9 7.466772016800159e-05
12 9 -1202270402.8633862
13 9 -2.3808698985062693e-06
14 9 -7.9428742080060689e-05
15 9 -8.7569216349399646e-08
16 9 68701129.382406682
17 9 1.6033214914549038e-05
18 9 -258160550.65212569
19 9 -5.1123830592982778e-07
20 9 -1.7055537376747815e-05
21 9 -1.8803521286970385e-08
22 9 1.8708861324916431e-18
23 9 -4.260215993327763e-05
24 9 -8.4365547014148753e-20
25 9 -2.8145381981746324e-18
26 9 -3.1029939282077017e-21
27 9 485049303.49861169
28 9 1.3584210147072077e-06
29 9 4.5318592368699735e-05
30 9 4.9963193623094669e-08
31 9 1.9021856540027385e-21
32 9 8.9744929390542031e-20
33 9 9.8942686642834552e-23
34 9 2.1170784077687555e-18
35 9 3.3008494680841452e-21
36 9 2.573264922775002e-24
1 10 4.1529977968358898e-21
2 10 2.1734742922210421e-06
3 10 1.705917715385262e-06
4 10 2.5739502770897277e-20
5 10 1.2383541768054607e-06
6 10 1.3421189758675358e-21
7 10 -2.3054324927979648e-20
8 10 -1.5075400738326841e-22
9 10 452471418.93040365
10 10 388640950.82914388
11 10 1.2278457426070171e-05
12 10 137386952.60768625
13 10 4.6984784664286546e-08
14 10 -1.2184229424910431e-05
15 10 -3.8843832742231731e-08
16 10 97156311.52904819
17 10 1.1539104878556554e-05
18 10 -113845131.25634392
19 10 -2.7378059074114788e-07
20 10 -1.2086524974670417e-05
21 10 -1.8781658945955645e-08
22 10 4.7168839068811064e-20
23 10 1.0799741168148437e-05
24 10 1.3411048397969956e-20
25 10 -3.9879099392663831e-20
26 10 -9.4439419043118616e-22
27 10 -258151206.87083536
28 10 -5.9455071703646651e-07
29 10 -1.1988818865057905e-05
30 10 1.2808126195374236e-09
31 10 -6.527144019685921e-22
32 10 -1.5257233192754722e-20
33 10 1.1890313929871478e-23
34 10 6.6177826765260096e-21
35 10 9.6815990461022672e-22
36 10 1.5014657872190708e-24
1 11 6.8149392488039136e-22
2 11 9.769842661214485e-08
3 11 2.0978541559291734e-08
4 11 7.3493888559548054e-06
5 11 -5.5742481307893335e-08
6 11 1.5780467506446384e-06
7 11 -4.1932097350112607e-06
8 11 -7.6062584993510139e-21
9 11 7.466772016800159e-05
10 11 1.2278457426070171e-05
11 11 1490018996.3079209
12 11 -8.1040297251288901e-05
13 11 319934035.55145365
14 11 -850133566.63087702
15 11 -1.5412736998145435e-06
16 11 2.8583371844034204e-07
17 11 319948094.58242142
18 11 -1.1470114798037423e-05
19 11 68698644.326275751
20 11 -182547078.5661695
21 11 -3.309538903245995e-07
22 11 7.4668300332979498e-05
23 11 -850140160.18577993
24 11 9.6532425701600717e-06
25 11 -8.6289315147802453e-05
26 11 -6.1921267825759508e-08
27 11 4.1083570701551331e-05
28 11 -182540472.91111699
29 11 485049310.31464869
30 11 8.7938386913000551e-07
31 11 -5.1121981342616817e-07
32 11 -1.1099101173936437e-05
33 11 -1.3295616465981988e-08
34 11 4.5318593005528195e-05
35 11 3.532931351714135e-08
36 11 9.0582186605478252e-23
1 12 -4.2958798137381984e-20
2 12 -1.0351748782501665e-05
3 12 2.5563884281502104e-07
4 12 -4.6936517558442034e-19
5 12 1.0863183811294232e-05
6 12 1.9290695583416775e-20
7 12 5.07943437067629e-19
8 12 3.0930639423065351e-22
9 12 -1202270402.8633862
10 12 137386952.60768625
11 12 -8.1040297251288901e-05
12 12 1975068273.9743321
13 12 3.4608030251272881e-06
14 12 8.7961404541560847e-05
15 12 4.6150329500057086e-08
16 12 97154552.414541751
17 12 4.0371335391471733e-07
18 12 137407620.08567786
19 12 1.7538643733405855e-07
20 12 -5.2876391236607184e-08
21 12 -1.0972046066865148e-08
22 12 -2.551519653743862e-18
23 12 8.1848932041208515e-05
24 12 1.4612488734089713e-19
25 12 3.9006187165485401e-18
26 12 2.499375920029383e-21
27 12 -1202279723.6090503
28 12 -3.1100788819947394e-06
29 12 -8.8068462853205888e-05
30 12 -6.809526903403054e-08
31 12 -3.9951346272921399e-21
32 12 -1.5742374638761028e-19
33 12 -1.1613043642017897e-22
34 12 -2.980765697843421e-18
35 12 -2.7316244149785091e-21
36 12 -6.3596188925994327e-25
1 13 8.5578128349879009e-24
2 13 1.2268412361245772e-09
3 13 2.6343658492374171e-10
4 13 1.5780467506446386e-06
5 13 -6.9998235430188628e-10
6 13 1.5780752849713468e-06
7 13 1.5781037913510489e-06
8 13 4.3135984228052676e-21
9 13 -2.3808698985062693e-06
10 13 4.6984784664286546e-08
11 13 319934035.55145365
12 13 3.4608030251272881e-06
13 13 319939820.615991
14 13 319945600.01453757
15 13 8.745515940201125e-07
16 13 1.2404483776760877e-07
17 13 68698644.326275751
18 13 3.0380969988136932e-07
19 13 68699886.538878649
20 13 68701127.53483735
21 13 1.8779030120695836e-07
22 13 1.6032634961360785e-05
23 13 -182540472.91111699
24 13 1.0975502897074006e-05
25 13 -7.2245521323068892e-07
26 13 -1.329561646595274e-08
27 13 -2.0174274109109696e-06
28 13 -182543773.61782256
29 13 -182547071.09175965
30 13 -4.9898117679926602e-07
31 13 -5.1122905733048857e-07
32 13 -1.2421368025085448e-05
33 13 -1.329585687804087e-08
34 13 -1.705553691807576e-05
35 13 -1.3296097054665332e-08
36 13 -5.1398266054355264e-23
1 14 -6.6428471249402788e-22
2 14 -9.5231327622727991e-08
3 14 -2.0448787493888975e-08
4 14 -4.1932097350112607e-06
5 14 5.4334861716981118e-08
6 14 1.5781037913510491e-06
7 14 7.3493317260062835e-06
8 14 1.6234918942677417e-20
9 14 -7.9428742080060689e-05
10 14 -1.2184229424910431e-05
11 14 -850133566.63087702
12 14 8.7961404541560847e-05
13 14 319945600.01453757
14 14 1490007413.7518439
15 14 3.2906737314713025e-06
16 14 -3.7698664936805308e-08
17 14 -182547078.56616953
18 14 1.2077604030323848e-05
19 14 68701127.53483735
20 14 319945607.48879611
21 14 7.0659823323426442e-07
22 14 -4.2602160531934096e-05
23 14 485049310.31464881
24 14 1.2297743410113057e-05
25 14 8.4843135508102285e-05
26 14 3.5329313517199868e-08
27 14 -4.5118256769882033e-05
28 14 -182547071.09175965
29 14 -850133551.68206084
30 14 -1.8775155888106718e-06
31 14 -5.1123829218117131e-07
32 14 -1.3743615055959661e-05
33 14 -1.3296097054636085e-08
34 14 -7.9428741799532376e-05
35 14 -6.1920786485283102e-08
36 14 -1.9339616450844887e-22
1 15 -1.0063934375438322e-28
2 15 -1.4427576518635289e-14
3 15 -3.0979978899997584e-15
4 15 -7.6021987257981017e-21
5 15 8.2317487648925713e-15
6 15 4.3136495435727277e-21
7 15 1.6230961968209627e-20
8 15 4.7342258061113426e-06
9 15 -8.7569216349399646e-08
10 15 -3.8843832742231731e-08
11 15 -1.5412736998145435e-06
12 15 4.6150329500057086e-08
13 15 8.745515940201125e-07
14 15 3.2906737314713025e-06
15 15 959819451.95368826
16 15 -7.7580956367697529e-09
17 15 -3.3095389882847672e-07
18 15 1.6899998840611089e-08
19 15 1.8779029597532821e-07
20 15 7.0659823127488239e-07
21 15 206099657.49206066
22 15 -7.7236794131709318e-20
23 15 8.7938389172581524e-07
24 15 3.273097664527616e-20
25 15 1.7470126856042101e-19
26 15 3.4010969330872135e-05
27 15 -8.7313575048050297e-09
28 15 -4.9898116289820196e-07
29 15 -1.877515583604356e-06
30 15 -547631315.20821822
31 15 -1.3974383485036754e-21
32 15 -3.6683566627433271e-20
33 15 -1.0844805883546318e-06
34 15 -1.7541796841172188e-19
35 15 -3.6179603512688826e-05
36 15 -5.6409542779389862e-08
1 16 2.3789544820251794e-22
2 16 1.8079649314324001e-07
3 16 1.8079322289859918e-07
4 16 5.3189338249496708e-22
5 16 1.8078994945216979e-07
6 16 2.3082870943731445e-22
7 16 -7.0151522074422032e-23
8 16 -1.4436644327608149e-23
9 16 68701129.382406682
10 16 97156311.52904819
11 16 2.8583371844034204e-07
12 16 97154552.414541751
13 16 1.2404483776760877e-07
14 16 -3.7698664936805308e-08
15 16 -7.7580956367697529e-09
16 16 68698644.074596062
17 16 2.8582854077970458e-07
18 16 97152795.0842482
19 16 1.2404259039591857e-07
20 16 -3.7697982839793719e-08
21 16 -7.7579553077830595e-09
22 16 5.946111151447468e-22
23 16 2.8582336556129076e-07
24 16 3.649330997544345e-22
25 16 -1.1090740437058835e-22
26 16 -2.2823891932514769e-23
27 16 68696156.378523231
28 16 1.2404034447780217e-07
29 16 -3.769730027921238e-08
30 16 -7.7578148420582112e-09
31 16 1.1198593829175292e-22
32 16 -4.8131098786312106e-23
33 16 -9.905010432137594e-24
34 16 1.0343274815193197e-23
35 16 3.010247626294226e-24
36 16 4.3804263801922215e-25
1 17 5.5207924225916929e-23
2 17 2.0978541559308185e-08
3 17 2.0978162099697769e-08
4 17 5.9537508443316363e-07
5 17 2.0977782268570994e-08
6 17 1.2783780200217362e-07
7 17 -3.3969254436788839e-07
8 17 -6.1753036569293855e-22
9 17 1.6033214914549038e-05
10 17 1.1539104878556554e-05
11 17 319948094.58242142
12 17 4.0371335391471733e-07
13 17 68698644.326275751
14 17 -182547078.56616953
15 17 -3.3095389882847672e-07
16 17 2.8582854077970458e-07
17 17 319942307.3654049
18 17 -1.0730765894067237e-05
19 17 68697401.70608145
20 17 -182543776.6569621
21 17 -3.309479040348912e-07
22 17 1.3311564453680681e-06
23 17 319936514.48231512
24 17 6.1059567589521484e-07
25 17 -6.6118774846812519e-07
26 17 -2.5547933834836305e-08
27 17 -1.5461138090299988e-05
28 17 68696157.869278714
29 17 -182540471.51496434
30 17 -3.3094191188420337e-07
31 17 1.2404034716956592e-07
32 17 -2.5971974864380861e-07
33 17 -5.4856036010509285e-09
34 17 1.0016983963254091e-07
35 17 1.457642900182866e-08
36 17 3.737306730420005e-23
1 18 -3.4800986271760176e-21
2 18 -1.6621004131793224e-06
3 18 -1.1945461546602826e-06
4 18 -2.4235246085281358e-20
5 18 -7.2698493666145467e-07
6 18 -6.8932036831904278e-22
7 18 2.2855904146475641e-20
8 18 1.0991840603372492e-22
9 18 -258160550.65212569
10 18 -113845131.25634392
11 18 -1.1470114798037423e-05
12 18 137407620.08567786
13 18 3.0380969988136932e-07
14 18 1.2077604030323848e-05
15 18 1.6899998840611089e-08
16 18 97152795.0842482
17 18 -1.0730765894067237e-05
18 18 388638458.19714385
19 18 6.2457348400144469e-07
20 18 1.1979900050680729e-05
21 18 -3.1620754001210067e-09
22 18 -4.5487466802084021e-20
23 18 -9.9914058603908611e-06
24 18 -1.2379151887220089e-20
25 18 3.9565450253364164e-20
26 18 8.7984424112963878e-22
27 18 452458550.03507072
28 18 9.4534201923067093e-07
29 18 1.1882194424881313e-05
30 18 -2.3224447379882409e-08
31 18 9.6936361452281884e-22
32 18 1.5121119640738109e-20
33 18 -3.9902898022876285e-23
34 18 -6.5885280661456478e-21
35 18 -9.5964536600496751e-22
36 18 -2.6238985148080585e-25
1 19 6.9326969072616812e-25
2 19 2.6343658492105415e-10
3 19 2.6343181988433288e-10
4 19 1.278378020021736e-07
5 19 2.6342705018232051e-10
6 19 1.2784011357222467e-07
7 19 1.2784242287828463e-07
8 19 3.4942834464293898e-22
9 19 -5.1123830592982778e-07
10 19 -2.7378059074114788e-07
11 19 68698644.326275751
12 19 1.7538643733405855e-07
13 19 68699886.538878649
14 19 68701127.53483735
15 19 1.8779029597532821e-07
16 19 1.2404259039591857e-07
17 19 68697401.70608145
18 19 6.2457348400144469e-07
19 19 68698643.89621523
20 19 68699884.869726807
21 19 1.8778690445840736e-07
22 19 2.8582337176386114e-07
23 19 68696157.869278714
24 19 2.8982106954152219e-07
25 19 1.7545893262093571e-07
26 19 -5.4856036010499532e-09
27 19 7.5922621268343317e-07
28 19 68697400.036921367
29 19 68698640.98796384
30 19 1.8778350438421183e-07
31 19 1.2404259007383328e-07
32 19 6.1056441782782056e-08
33 19 -5.485702792031319e-09
34 19 -3.7698663718931523e-08
35 19 -5.485801885863346e-09
36 19 -2.1206276074289717e-23
1 20 -5.3813803370649123e-23
2 20 -2.0448787493910799e-08
3 20 -2.044841761648343e-08
4 20 -3.3969254436788839e-07
5 20 -2.0448047376921298e-08
6 20 1.2784242287828461e-07
7 20 5.9537045632753581e-07
8 20 1.3165054363748954e-21
9 20 -1.7055537376747815e-05
10 20 -1.2086524974670417e-05
11 20 -182547078.5661695
12 20 -5.2876391236607184e-08
13 20 68701127.53483735
14 20 319945607.48879611
15 20 7.0659823127488239e-07
16 20 -3.7697982839793719e-08
17 20 -182543776.6569621
18 20 1.1979900050680729e-05
19 20 68699884.869726807
20 20 319939820.31676614
21 20 7.0658545229451685e-07
22 20 -7.5949419399923672e-07
23 20 -182540471.51496437
24 20 -3.0948781546250669e-08
25 20 1.0120932053214183e-06
26 20 1.4576429001830612e-08
27 20 1.6979527008016797e-05
28 20 68698640.98796384
29 20 319934027.47870696
30 20 7.0657265884137187e-07
31 20 1.2404483078136197e-07
32 20 3.8182787538956627e-07
33 20 -5.4858018858623708e-09
34 20 -1.7556512240578822e-07
35 20 -2.554773523979955e-08
36 20 -7.9792817367374956e-23
1 21 -8.1528082075172447e-30
2 21 -3.0979977887298084e-15
3 21 -3.09794173765235e-15
4 21 -6.158552172930174e-22
5 21 -3.0978856317130796e-15
6 21 3.4944938589882713e-22
7 21 1.3148726005255185e-21
8 21 3.8352033676316026e-07
9 21 -1.8803521286970385e-08
10 21 -1.8781658945955645e-08
11 21 -3.309538903245995e-07
12 21 -1.0972046066865148e-08
13 21 1.8779030120695836e-07
14 21 7.0659823323426442e-07
15 21 206099657.49206066
16 21 -7.7579553077830595e-09
17 21 -3.309479040348912e-07
18 21 -3.1620754001210067e-09
19 21 1.8778690445840736e-07
20 21 7.0658545229451685e-07
21 21 206095929.56410879
22 21 -1.3769465204041941e-21
23 21 -3.309419203877728e-07
24 21 1.299292568875444e-22
25 21 2.2071879056205574e-21
26 21 6.063338905011817e-07
27 21 3.2859053337462257e-09
28 21 1.8778349915277101e-07
29 21 7.0657265688206078e-07
30 21 206092197.98626569
31 21 3.3906889628309528e-22
32 21 8.2927149408367666e-22
33 21 2.6313406707893821e-07
34 21 -3.8773467133732137e-22
35 21 -7.9969496877205974e-08
36 21 -2.3273865622998652e-08
1 22 6.4059966686288301e-24
2 22 4.8958942660407494e-21
3 22 8.7282035067325542e-23
4 22 1.3816751348434202e-07
5 22 -4.7213760671141214e-21
6 22 2.9667064836548106e-08
7 22 -7.883177417336062e-08
8 22 -1.4292029880271501e-22
9 22 1.8708861324916431e-18
10 22 4.7168839068811064e-20
11 22 7.4668300332979498e-05
12 22 -2.551519653743862e-18
13 22 1.6032634961360785e-05
14 22 -4.2602160531934096e-05
15 22 -7.7236794131709318e-20
16 22 5.946111151447468e-22
17 22 1.3311564453680681e-06
18 22 -4.5487466802084021e-20
19 22 2.8582337176386114e-07
20 22 -7.5949419399923672e-07
21 22 -1.3769465204041941e-21
22 22 1490030573.6915097
23 22 -7.2006687001294965e-05
24 22 452458567.69793892
25 22 -1202279761.3475084
26 22 -2.1797071057056592e-06
27 22 1.7398847595646504e-18
28 22 -1.5461138425817687e-05
29 22 4.1083571278868184e-05
30 22 7.4483622800026674e-20
31 22 68696159.360034227
32 22 -258151216.10050717
33 22 -4.6802255030074558e-07
34 22 485049317.13068581
35 22 1.2436366117316776e-06
36 22 1.5943038856219456e-21
1 23 -5.7107327969496752e-22
2 23 -5.5742481307860433e-08
3 23 2.0977782268587445e-08
4 23 -6.1585869579987474e-06
5 23 9.7699184030878599e-08
6 23 -1.3223600394688565e-06
7 23 3.513795132131262e-06
8 23 6.3711439775425306e-21
9 23 -4.260215993327763e-05
10 23 1.0799741168148437e-05
11 23 -850140160.18577993
12 23 8.1848932041208515e-05
13 23 -182540472.91111699
14 23 485049310.31464881
15 23 8.7938389172581524e-07
16 23 2.8582336556129076e-07
17 23 319936514.48231512
18 23 -9.9914058603908611e-06
19 23 68696157.869278714
20 23 -182540471.51496437
21 23 -3.309419203877728e-07
22 23 -7.2006687001294965e-05
23 23 1490030547.8591082
24 23 -8.4324020898688959e-06
25 23 8.4967226890900302e-05
26 23 1.0821100558316217e-08
27 23 -7.2006685752927535e-05
28 23 319936515.87848121
29 23 -850140157.39343452
30 23 -1.5412856487239724e-06
31 23 7.59226216954712e-07
32 23 1.0579802336973173e-05
33 23 2.3234860624515425e-09
34 23 -4.5118257357446908e-05
35 23 -6.1740023686604348e-09
36 23 -1.5829762284653537e-23
1 24 1.1376338386058168e-25
2 24 -6.6914655028800641e-23
3 24 2.7558995295926088e-23
4 24 2.2204633492460719e-08
5 24 1.2201619672673276e-22
6 24 2.1241589101124002e-08
7 24 2.0278558630963714e-08
8 24 5.6074495402136379e-23
9 24 -8.4365547014148753e-20
10 24 1.3411048397969956e-20
11 24 9.6532425701600717e-06
12 24 1.4612488734089713e-19
13 24 1.0975502897074006e-05
14 24 1.2297743410113057e-05
15 24 3.273097664527616e-20
16 24 3.649330997544345e-22
17 24 6.1059567589521484e-07
18 24 -1.2379151887220089e-20
19 24 2.8982106954152219e-07
20 24 -3.0948781546250669e-08
21 24 1.299292568875444e-22
22 24 452458567.69793892
23 24 -8.4324020898688959e-06
24 24 388638465.89468652
25 24 137407610.50188202
26 24 5.4361647018254703e-07
27 24 -1.2082734055493877e-19
28 24 -1.0396019495902112e-05
29 24 -1.235960762546747e-05
30 24 -3.2471156207309325e-20
31 24 97152796.940268949
32 24 -113845133.70420116
33 24 -1.4316439471631421e-07
34 24 -258160547.33719012
35 24 -8.2993506523538254e-07
36 24 -1.2793570608934097e-21
1 25 -8.8306765054743194e-24
2 25 -7.0571606857408751e-21
3 25 -6.8299173624086357e-23
4 25 -1.5097454965672518e-07
5 25 6.9205942828394595e-21
6 25 5.3049317443344588e-10
7 25 1.5203328874706353e-07
8 25 3.1427440133852157e-22
9 25 -2.8145381981746324e-18
10 25 -3.9879099392663831e-20
11 25 -8.6289315147802453e-05
12 25 3.9006187165485401e-18
13 25 -7.2245521323068892e-07
14 25 8.4843135508102285e-05
15 25 1.7470126856042101e-19
16 25 -1.1090740437058835e-22
17 25 -6.6118774846812519e-07
18 25 3.9565450253364164e-20
19 25 1.7545893262093571e-07
20 25 1.0120932053214183e-06
21 25 2.2071879056205574e-21
22 25 -1202279761.3475084
23 25 8.4967226890900302e-05
24 25 137407610.50188202
25 25 1975068308.1761227
26 25 4.1700831813521531e-06
27 25 -2.7022131981036554e-18
28 25 1.0732679466402527e-06
29 25 -8.2819446639884834e-05
30 25 -1.7028798925427855e-19
31 25 97154551.910101533
32 25 137386960.76454517
33 25 3.7561879275019705e-07
34 25 -1202270415.5117905
35 25 -3.4187893095650335e-06
36 25 -4.8138345435997832e-21
1 26 -1.3378502797114655e-30
2 26 -4.0606007099264053e-24
3 26 -1.6751508036298689e-24
4 26 -1.4427688415923666e-14
5 26 7.1001718894531086e-25
6 26 -3.0978856459196646e-15
7 26 8.2317490429599677e-15
8 26 6.2934485486919152e-08
9 26 -3.1029939282077017e-21
10 26 -9.4439419043118616e-22
11 26 -6.1921267825759508e-08
12 26 2.499375920029383e-21
13 26 -1.329561646595274e-08
14 26 3.5329313517199868e-08
15 26 3.4010969330872135e-05
16 26 -2.2823891932514769e-23
17 26 -2.5547933834836305e-08
18 26 8.7984424112963878e-22
19 26 -5.4856036010499532e-09
20 26 1.4576429001830612e-08
21 26 6.063338905011817e-07
22 26 -2.1797071057056592e-06
23 26 1.0821100558316217e-08
24 26 5.4361647018254703e-07
25 26 4.1700831813521531e-06
26 26 959826909.70959508
27 26 -5.2293663753860581e-22
28 26 2.3234859942204152e-09
29 26 -6.1740021874827947e-09
30 26 -3.2798620194881691e-05
31 26 2.6556597705469597e-07
32 26 2.075915023051772e-07
33 26 206092202.45861304
34 26 -2.655208039211779e-06
35 26 -547631322.90367365
36 26 -1.4040930248553797e-06
1 27 2.5454640991202061e-20
2 27 4.9692566614313196e-06
3 27 -1.8700994615745894e-06
4 27 2.9761768066021247e-19
5 27 -8.7095570500598059e-06
6 27 -1.4614651469741601e-20
7 27 -3.2684576111533497e-19
8 27 -6.3251716567496129e-23
9 27 485049303.49861169
10 27 -258151206.87083536
11 27 4.1083570701551331e-05
12 27 -1202279723.6090503
13 27 -2.0174274109109696e-06
14 27 -4.5118256769882033e-05
15 27 -8.7313575048050297e-09
16 27 68696156.378523231
17 27 -1.5461138090299988e-05
18 27 452458550.03507072
19 27 7.5922621268343317e-07
20 27 1.6979527008016797e-05
21 27 3.2859053337462257e-09
22 27 1.7398847595646504e-18
23 27 -7.2006685752927535e-05
24 27 -1.2082734055493877e-19
25 27 -2.7022131981036554e-18
26 27 -5.2293663753860581e-22
27 27 1490030522.0267072
28 27 3.5359209725690466e-06
29 27 7.907823195809797e-05
30 27 1.5303346903987908e-08
31 27 4.1954634282416172e-21
32 27 1.3269340492181479e-19
33 27 2.5679041590938353e-23
34 27 2.0984022398121931e-18
35 27 5.7429258830818383e-22
36 27 7.8586452761132961e-26
1 28 -7.1712132188852123e-24
2 28 -6.9998235430726027e-10
3 28 2.6342705017963305e-10
4 28 -1.3223600394688567e-06
5 28 1.2268507473565464e-09
6 28 -1.3223839504546223e-06
7 28 -1.3224078380215607e-06
8 28 -3.6147113751938851e-21
9 28 1.3584210147072077e-06
10 28 -5.9455071703646651e-07
11 28 -182540472.91111699
12 28 -3.1100788819947394e-06
13 28 -182543773.61782256
14 28 -182547071.09175965
15 28 -4.9898116289820196e-07
16 28 1.2404034447780217e-07
17 28 68696157.869278714
18 28 9.4534201923067093e-07
19 28 68697400.036921367
20 28 68698640.98796384
21 28 1.8778349915277101e-07
22 28 -1.5461138425817687e-05
23 28 319936515.87848121
24 28 -1.0396019495902112e-05
25 28 1.0732679466402527e-06
26 28 2.3234859942204152e-09
27 28 3.5359209725690466e-06
28 28 319942300.98786801
29 28 319948080.43122005
30 28 8.7455837408635929e-07
31 28 7.5923994532423662e-07
32 28 1.2543429447966763e-05
33 28 2.3235280758562646e-09
34 28 1.6980141107763637e-05
35 28 2.323570048139644e-09
36 28 8.9821449886992974e-24
1 29 5.5665243014715577e-22
2 29 5.4334861716937463e-08
3 29 -2.0448047376943125e-08
4 29 3.5137951321312612e-06
5 29 -9.5232065914984643e-08
6 29 -1.3224078380215609e-06
7 29 -6.158539084663593e-06
8 29 -1.3601793552587189e-20
9 29 4.5318592368699735e-05
10 29 -1.1988818865057905e-05
11 29 485049310.31464869
12 29 -8.8068462853205888e-05
13 29 -182547071.09175965
14 29 -850133551.68206084
15 29 -1.877515583604356e-06
16 29 -3.769730027921238e-08
17 29 -182540471.51496434
18 29 1.1882194424881313e-05
19 29 68698640.98796384
20 29 319934027.47870696
21 29 7.0657265688206078e-07
22 29 4.1083571278868184e-05
23 29 -850140157.39343452
24 29 -1.235960762546747e-05
25 29 -8.2819446639884834e-05
26 29 -6.1740021874827947e-09
27 29 7.907823195809797e-05
28 29 319948080.43122005
29 29 1490018965.2132361
30 29 3.2906992428145404e-06
31 29 7.5925366024796203e-07
32 29 1.4507027227895177e-05
33 29 2.3235700481123462e-09
34 29 7.9077618620073789e-05
35 29 1.0821016441335954e-08
36 29 3.3797101015745911e-23
1 30 8.4333018983627529e-29
2 30 8.2317489674515271e-15
3 30 -3.0978855304422985e-15
4 30 6.3704347827141375e-21
5 30 -1.4427688109459147e-14
6 30 -3.6147204099061829e-21
7 30 -1.3601102524617338e-20
8 30 -3.9671518104685407e-06
9 30 4.9963193623094669e-08
10 30 1.2808126195374236e-09
11 30 8.7938386913000551e-07
12 30 -6.809526903403054e-08
13 30 -4.9898117679926602e-07
14 30 -1.8775155888106718e-06
15 30 -547631315.20821822
16 30 -7.7578148420582112e-09
17 30 -3.3094191188420337e-07
18 30 -2.3224447379882409e-08
19 30 1.8778350438421183e-07
20 30 7.0657265884137187e-07
21 30 206092197.98626569
22 30 7.4483622800026674e-20
23 30 -1.5412856487239724e-06
24 30 -3.2471156207309325e-20
25 30 -1.7028798925427855e-19
26 30 -3.2798620194881691e-05
27 30 1.5303346903987908e-08
28 30 8.7455837408635929e-07
29 30 3.2906992428145404e-06
30 30 959826893.0692426
31 30 2.0753730643797013e-21
32 30 3.8341572236118794e-20
33 30 1.6105911250566586e-06
34 30 1.7464251467284302e-19
35 30 3.6019667737185947e-05
36 30 9.8578946506655843e-09
1 31 1.0101556539039106e-27
2 31 -1.9603589432375771e-24
3 31 4.7565371589665665e-25
4 31 3.7254211514679152e-10
5 31 2.9113814943374749e-24
6 31 3.7254885147346997e-10
7 31 3.725555812024751e-10
8 31 1.0183577092791721e-24
9 31 1.9021856540027385e-21
10 31 -6.527144019685921e-22
11 31 -5.1121981342616817e-07
12 31 -3.9951346272921399e-21
13 31 -5.1122905733048857e-07
14 31 -5.1123829218117131e-07
15 31 -1.3974383485036754e-21
16 31 1.1198593829175292e-22
17 31 1.2404034716956592e-07
18 31 9.6936361452281884e-22
19 31 1.2404259007383328e-07
20 31 1.2404483078136197e-07
21 31 3.3906889628309528e-22
22 31 68696159.360034227
23 31 7.59226216954712e-07
24 31 97152796.940268949
25 31 97154551.910101533
26 31 2.6556597705469597e-07
27 31 4.1954634282416172e-21
28 31 7.5923994532423662e-07
29 31 7.5925366024796203e-07
30 31 2.0753730643797013e-21
31 31 68698643.717834383
32 31 97156308.663964674
33 31 2.6557078643156716e-07
34 31 68701125.687268063
35 31 2.65575583706924e-07
36 31 5.133132096141499e-22
1 32 -1.1089060955816696e-25
2 32 6.1355181532958841e-23
3 32 -2.6209842252955227e-23
4 32 -2.1148030184831365e-08
5 32 -1.1375922542729012e-22
6 32 -2.0184980985550467e-08
7 32 -1.9221945712162238e-08
8 32 -5.318602566948216e-23
9 32 8.9744929390542031e-20
10 32 -1.5257233192754722e-20
11 32 -1.1099101173936437e-05
12 32 -1.5742374638761028e-19
13 32 -1.2421368025085448e-05
14 32 -1.3743615055959661e-05
15 32 -3.6683566627433271e-20
16 32 -4.8131098786312106e-23
17 32 -2.5971974864380861e-07
18 32 1.5121119640738109e-20
19 32 6.1056441782782056e-08
20 32 3.8182787538956627e-07
21 32 8.2927149408367666e-22
22 32 -258151216.10050717
23 32 1.0579802336973173e-05
24 32 -113845133.70420116
25 32 137386960.76454517
26 32 2.075915023051772e-07
27 32 1.3269340492181479e-19
28 32 1.2543429447966763e-05
29 32 1.4507027227895177e-05
30 32 3.8341572236118794e-20
31 32 97156308.663964674
32 32 388640945.17328805
33 32 8.943757466165597e-07
34 32 452471405.16410732
35 32 1.5811498051631726e-06
36 32 2.7314724658967745e-21
1 33 -1.6799962372395842e-32
2 33 -5.0967991357887195e-26
3 33 -2.1039431239773668e-26
4 33 -3.0978857045322673e-15
5 33 8.8855910750637493e-27
6 33 -3.0979417186799909e-15
7 33 -3.09799767796431e-15
8 33 7.9029544945370237e-10
9 33 9.8942686642834552e-23
10 33 1.1890313929871478e-23
11 33 -1.3295616465981988e-08
12 33 -1.1613043642017897e-22
13 33 -1.329585687804087e-08
14 33 -1.3296097054636085e-08
15 33 -1.0844805883546318e-06
16 33 -9.905010432137594e-24
17 33 -5.4856036010509285e-09
18 33 -3.9902898022876285e-23
19 33 -5.485702792031319e-09
20 33 -5.4858018858623708e-09
21 33 2.6313406707893821e-07
22 33 -4.6802255030074558e-07
23 33 2.3234860624515425e-09
24 33 -1.4316439471631421e-07
25 33 3.7561879275019705e-07
26 33 206092202.45861304
27 33 2.5679041590938353e-23
28 33 2.3235280758562646e-09
29 33 2.3235700481123462e-09
30 33 1.6105911250566586e-06
31 33 2.6557078643156716e-07
32 33 8.943757466165597e-07
33 33 206095929.02896628
34 33 9.9928077494426686e-07
35 33 206099651.94945297
36 33 7.9671235108180384e-07
1 34 6.0865507412937446e-24
2 34 5.0765549641822857e-21
3 34 1.1220950672186298e-23
4 34 7.6841099429222135e-08
5 34 -5.0541135144081118e-21
6 34 -2.8918951830229121e-08
7 34 -1.3467743461080877e-07
8 34 -2.9743442279315672e-22
9 34 2.1170784077687555e-18
10 34 6.6177826765260096e-21
11 34 4.5318593005528195e-05
12 34 -2.980765697843421e-18
13 34 -1.705553691807576e-05
14 34 -7.9428741799532376e-05
15 34 -1.7541796841172188e-19
16 34 1.0343274815193197e-23
17 34 1.0016983963254091e-07
18 34 -6.5885280661456478e-21
19 34 -3.7698663718931523e-08
20 34 -1.7556512240578822e-07
21 34 -3.8773467133732137e-22
22 34 485049317.13068581
23 34 -4.5118257357446908e-05
24 34 -258160547.33719012
25 34 -1202270415.5117905
26 34 -2.655208039211779e-06
27 34 2.0984022398121931e-18
28 34 1.6980141107763637e-05
29 34 7.9077618620073789e-05
30 34 1.7464251467284302e-19
31 34 68701125.687268063
32 34 452471405.16410732
33 34 9.9928077494426686e-07
34 34 1490007408.4894006
35 34 4.6537154039554897e-06
36 34 7.2674360334117339e-21
1 35 1.3040666335714781e-30
2 35 3.9581071671535511e-24
3 35 1.6328418994866275e-24
4 35 8.2317489257014187e-15
5 35 -6.9214856877647802e-25
6 35 -3.0979977365692824e-15
7 35 -1.4427576372578645e-14
8 35 -6.1345252057786254e-08
9 35 3.3008494680841452e-21
10 35 9.6815990461022672e-22
11 35 3.532931351714135e-08
12 35 -2.7316244149785091e-21
13 35 -1.3296097054665332e-08
14 35 -6.1920786485283102e-08
15 35 -3.6179603512688826e-05
16 35 3.010247626294226e-24
17 35 1.457642900182866e-08
18 35 -9.5964536600496751e-22
19 35 -5.485801885863346e-09
20 35 -2.554773523979955e-08
21 35 -7.9969496877205974e-08
22 35 1.2436366117316776e-06
23 35 -6.1740023686604348e-09
24 35 -8.2993506523538254e-07
25 35 -3.4187893095650335e-06
26 35 -547631322.90367365
27 35 5.7429258830818383e-22
28 35 2.323570048139644e-09
29 35 1.0821016441335954e-08
30 35 3.6019667737185947e-05
31 35 2.65575583706924e-07
32 35 1.5811498051631726e-06
33 35 206099651.94945297
34 35 4.6537154039554897e-06
35 35 959819448.56377518
36 35 2.9977881501446778e-06
1 36 1.3970061674315179e-37
2 36 8.4792298795962207e-31
3 36 3.4984232645888497e-31
4 36 2.1105697623977708e-29
5 36 -1.4817945821460437e-31
6 36 -1.1975823309109359e-29
7 36 -4.5061409121531556e-29
8 36 -1.3143453449561951e-14
9 36 2.573264922775002e-24
10 36 1.5014657872190708e-24
11 36 9.0582186605478252e-23
12 36 -6.3596188925994327e-25
13 36 -5.1398266054355264e-23
14 36 -1.9339616450844887e-22
15 36 -5.6409542779389862e-08
16 36 4.3804263801922215e-25
17 36 3.737306730420005e-23
18 36 -2.6238985148080585e-25
19 36 -2.1206276074289717e-23
20 36 -7.9792817367374956e-23
21 36 -2.3273865622998652e-08
22 36 1.5943038856219456e-21
23 36 -1.5829762284653537e-23
24 36 -1.2793570608934097e-21
25 36 -4.8138345435997832e-21
26 36 -1.4040930248553797e-06
27 36 7.8586452761132961e-26
28 36 8.9821449886992974e-24
29 36 3.3797101015745911e-23
30 36 9.8578946506655843e-09
31 36 5.133132096141499e-22
32 36 2.7314724658967745e-21
33 36 7.9671235108180384e-07
34 36 7.2674360334117339e-21
35 36 2.9977881501446778e-06
36 36 618287780.71328831
37 37 679180297.73436141
38 37 -3.2810178613619561e-06
39 37 9.330041538307583e-08
40 37 -1.6561254111310197e-09
41 37 3.4689954909321544e-06
42 37 2.3371112965571147e-13
43 37 1.6570471352709977e-09
44 37 -1.1387868821991186e-23
45 37 7.9250518915866597e-21
46 37 -3.187073615953423e-22
47 37 5.6572026832402754e-24
48 37 -1.1849833634306357e-20
49 37 -7.9834004170521631e-28
50 37 -5.6603512251579607e-24
51 37 3.890012291530507e-38
52 37 6.4084364193814907e-24
53 37 -1.6087061471633383e-25
54 37 3.369668947313173e-22
55 37 2.2701936001384559e-29
56 37 1.6096014798959957e-25
57 37 -1.1061803927346193e-39
58 37 2.019162942846896e-27
59 37 -5.9813178192524392e-24
60 37 -4.0296983608695728e-31
61 37 -2.8571168753160735e-27
62 37 1.963521223545382e-41
63 37 8.8591569545310074e-21
64 37 8.4407891755773157e-28
65 37 5.9846467489251753e-24
66 37 -4.1128807184818013e-38
67 37 4.0210892679863855e-35
68 37 4.0319411078445784e-31
69 37 -2.7709058756870416e-45
70 37 2.0214111169518561e-27
71 37 -1.9646140302247173e-41
72 37 9.5470640667494928e-56
37 38 -3.2810178613619561e-06
38 38 482796898.08920938
39 38 226397096.27281201
40 38 -5.4089420823677283e-06
41 38 -30013699.779517666
42 38 2.0718172136724382e-06
43 38 9.5510285829386983e-06
44 38 6.5962145030320646e-10
45 38 -2.3323191961325088e-06
46 38 -7.2645852702179708e-07
47 38 -8.3244896025527143e-10
48 38 1.8462099862711166e-06
49 38 1.174745426028722e-13
50 38 8.3291226350114525e-10
51 38 -7.9773136203230145e-24
52 38 3.1100641750413523e-08
53 38 -3.9035881992499462e-10
54 38 8.1474787764330124e-07
55 38 5.5087133193981989e-14
56 38 3.9057607590441845e-10
57 38 -2.6201163857834744e-24
58 38 1.3189261319604275e-23
59 38 5.1750276907081116e-11
60 38 -3.5735886151353206e-24
61 38 -2.5799498828301471e-23
62 38 -1.1373337165615838e-27
63 38 -1.5329860060525518e-07
64 38 -7.3029513387264439e-15
65 38 -5.1779078744428746e-11
66 38 2.7381567055992579e-24
67 38 7.1292813272524472e-28
68 38 3.5765846356594405e-24
69 38 1.6049962475125918e-31
70 38 2.3302361103590185e-23
71 38 1.1379667047721676e-27
72 38 -1.1059924107460543e-41
37 39 9.330041538307583e-08
38 39 226397096.27281201
39 39 226393432.52391714
40 39 1.7365875387033597e-07
41 39 226389765.77845073
42 39 5.3158836079862453e-07
43 39 8.8964177801316624e-07
44 39 6.9005029989093827e-14
45 39 -1.0936903192119761e-06
46 39 -7.5135185145494887e-07
47 39 -3.9035881992506245e-10
48 39 4.4332509633706452e-08
49 39 5.508713117686567e-14
50 39 3.9057607590045186e-10
51 39 -2.6844255757248529e-24
52 39 3.1100138453579253e-08
53 39 -3.9035250280855888e-10
54 39 8.396408409394831e-07
55 39 5.5086241577888623e-14
56 39 3.905697552718641e-10
57 39 -2.6841397188650094e-24
58 39 -4.2345261797110619e-25
59 39 -3.9034618052530094e-10
60 39 -9.165340115229335e-25
61 39 -1.2343469266541103e-24
62 39 -1.189799824511405e-31
63 39 1.1563131016880491e-06
64 39 5.5085351250545252e-14
65 39 3.9056342947364794e-10
66 39 -2.6838537275649776e-24
67 39 1.8292361649552154e-28
68 39 9.1730285940322247e-25
69 39 1.6784059701500163e-35
70 39 2.1705258008686955e-24
71 39 1.1904618869447996e-31
72 39 -1.1570126992710786e-45
37 40 -1.6561254111310197e-09
38 40 -5.4089420823677283e-06
39 40 1.7365875387033597e-07
40 40 482804228.44862616
41 40 5.7566808763279753e-06
42 40 226389765.36837885
43 40 -30013700.479263369
44 40 1.1475310480609088e-07
45 40 2.6129785158503263e-20
46 40 -1.1186120227486724e-21
47 40 -1.6492237594458586e-06
48 40 -3.9199514204459468e-20
49 40 -7.7333079940212782e-07
50 40 1.0252459490329376e-07
51 40 -3.9198817194394923e-22
52 40 2.3855846266369494e-23
53 40 4.689802625824886e-08
54 40 1.1863764285003626e-21
55 40 2.199076258085171e-08
56 40 -2.9154328612792725e-09
57 40 1.114674189930854e-23
58 40 -1.1772784840823021e-09
59 40 1.7437118683288728e-06
60 40 -3.9022870348556395e-10
61 40 8.8467518786715611e-10
62 40 -5.922041946773856e-24
63 40 2.94029436209112e-20
64 40 8.1763683389743999e-07
65 40 -1.0839848256160904e-07
66 40 4.1444614398040502e-22
67 40 7.790244797034614e-14
68 40 3.9055612580399479e-10
69 40 -2.6840750217503971e-24
70 40 -7.3226677163560726e-11
71 40 5.5381579495945173e-25
72 40 -1.9240742241894029e-39
37 41 3.4689954909321544e-06
38 41 -30013699.779517666
39 41 226389765.77845073
40 41 5.7566808763279753e-06
41 41 482804228.56890541
42 41 -1.0092737233755281e-06
43 41 -7.7734344871481912e-06
44 41 -6.5914869387416047e-10
45 41 1.4499166920867932e-07
46 41 -7.7624623359621164e-07
47 41 5.175027690695183e-11
48 41 -1.7576222398911079e-06
49 41 -7.3029553737657939e-15
50 41 -5.177907875237008e-11
51 41 2.6074493487979086e-24
52 41 3.1099634745099695e-08
53 41 -3.9034618052536903e-10
54 41 8.64534861648402e-07
55 41 5.5085349232605439e-14
56 41 3.9056342946967985e-10
57 41 -2.7481305002496013e-24
58 41 -1.4037194749658818e-23
59 41 -8.32461599626212e-10
60 41 1.7416125259326615e-24
61 41 2.3334445426913047e-23
62 41 1.1365185795932847e-27
63 41 2.4659809736759616e-06
64 41 1.1747632969344197e-13
65 41 8.3292490991345179e-10
66 41 -8.1047855640140378e-24
67 41 -3.4729879946278521e-28
68 41 -1.7430717668410021e-24
69 41 -1.6038460585463787e-31
70 41 -1.8965431404760265e-23
71 41 -1.1371511141608771e-27
72 41 1.1051997363683245e-41
37 42 2.3371112965571147e-13
38 42 2.0718172136724382e-06
39 42 5.3158836079862453e-07
40 42 226389765.36837885
41 42 -1.0092737233755281e-06
42 42 226393432.72084811
43 42 226397097.07674485
44 42 5.1719087294112182e-07
45 42 -1.000863755047955e-20
46 42 -1.6146170349510185e-21
47 42 -7.7333079940212761e-07
48 42 1.0930249729819748e-20
49 42 -7.7334332680862128e-07
50 42 -7.7335584397904345e-07
51 42 -1.766686009697622e-21
52 42 7.3025395984776267e-23
53 42 2.1990762580851707e-08
54 42 1.8218645196827122e-21
55 42 2.1991118815495627e-08
56 42 2.1991474759062273e-08
57 42 5.023823262206642e-23
58 42 -5.5203286152037733e-10
59 42 8.1763683389743989e-07
60 42 -3.9029741779889754e-10
61 42 2.0460745235854276e-13
62 42 -3.5758547467573814e-24
63 42 -5.1549883177983442e-21
64 42 8.1765007903004075e-07
65 42 8.1766331334012018e-07
66 42 1.8679038214653203e-21
67 42 7.7903709934350821e-14
68 42 3.9062484274470764e-10
69 42 -2.6840205808024e-24
70 42 5.5235798564259532e-10
71 42 -1.7919417574338617e-24
72 42 -8.6717795504841996e-39
37 43 1.6570471352709977e-09
38 43 9.5510285829386983e-06
39 43 8.8964177801316624e-07
40 43 -30013700.479263369
41 43 -7.7734344871481912e-06
42 43 226397097.07674485
43 43 482796900.39669943
44 43 9.1984082284742557e-07
45 43 -4.613958245800444e-20
46 43 -2.1111953345101043e-21
47 43 1.025245949032941e-07
48 43 6.1048294216452088e-20
49 43 -7.7335584397904324e-07
50 43 -1.6491987273590708e-06
51 43 -3.1421086447871187e-21
52 43 1.2221195377928733e-22
53 43 -2.9154328612792845e-09
54 43 2.4579740522936192e-21
55 43 2.1991474759062266e-08
56 43 4.6897314435212874e-08
57 43 8.9350333989251846e-23
58 43 7.3185945192456843e-11
59 43 -1.0839848256160941e-07
60 43 -3.9036612426961934e-10
61 43 -8.8422804423848484e-10
62 43 -1.2301637796340644e-24
63 43 -3.9703756090884207e-20
64 43 8.1766331334012008e-07
65 43 1.7436854020919108e-06
66 43 3.322127821718369e-21
67 43 7.7904970867211999e-14
68 43 3.9069355184066217e-10
69 43 -2.6839660526984476e-24
70 43 1.177915824986089e-09
71 43 -4.1372029088468552e-24
72 43 -1.5423042545023693e-38
37 44 -1.1387868821991186e-23
38 44 6.5962145030320646e-10
39 44 6.9005029989093827e-14
40 44 1.1475310480609088e-07
41 44 -6.5914869387416047e-10
42 44 5.1719087294112182e-07
43 44 9.1984082284742557e-07
44 44 679180297.73468876
45 44 -3.186532011509566e-24
46 44 6.3837757607762524e-26
47 44 -3.9198932618823829e-22
48 44 4.6339143417596375e-24
49 44 -1.766686037385155e-21
50 44 -3.1421075456059089e-21
51 44 -2.320029978964341e-06
52 44 9.4793696972041692e-30
53 44 1.1146742261204707e-23
54 44 -6.3778330819593697e-26
55 44 5.0238233413981689e-23
56 44 8.9350335211218919e-23
57 44 6.5973356404926389e-08
58 44 -2.798160395820856e-25
59 44 4.1444729837840553e-22
60 44 -8.9172389541726276e-25
61 44 -1.3880397249980655e-24
62 44 -1.1710575087066673e-09
63 44 -3.3666816520409571e-24
64 44 1.8679038507484513e-21
65 44 3.3221267255748669e-21
66 44 2.452950235544865e-06
67 44 1.7796933372657632e-28
68 44 8.9247194222610171e-25
69 44 1.6525872461840167e-13
70 44 2.2442047042645829e-24
71 44 1.1717092660964294e-09
72 44 -1.1387868821996674e-23
37 45 7.9250518915866597e-21
38 45 -2.3323191961325088e-06
39 45 -1.0936903192119761e-06
40 45 2.6129785158503263e-20
41 45 1.4499166920867932e-07
42 45 -1.000863755047955e-20
43 45 -4.613958245800444e-20
44 45 -3.186532011509566e-24
45 45 343197300.60209852
46 45 227596323.48445162
47 45 -5.4375932914077148e-06
48 45 -30172682.584907569
49 45 2.0827916458585533e-06
50 45 9.6016204569705356e-06
51 45 6.6311547034855009e-10
52 45 75466920.008930877
53 45 -2.5498410133939166e-06
54 45 -14148822.726533156
55 45 9.7667980600098734e-07
56 45 4.5024709139081857e-06
57 45 3.1095356572227137e-10
58 45 4.3076418070435987e-20
59 45 3.3803508932502412e-07
60 45 -2.3334241430869009e-20
61 45 -1.0757030369121077e-19
62 45 -7.4291139550250297e-24
63 45 1326337.3178815991
64 45 -1.294794631230943e-07
65 45 -5.9689727695628243e-07
66 45 -4.1223439348853305e-11
67 45 6.3200104319696611e-21
68 45 4.1203252590544316e-20
69 45 2.8456148984345086e-24
70 45 1.3431212197470204e-19
71 45 1.3118217693928873e-23
72 45 6.4062585318144852e-28
37 46 -3.187073615953423e-22
38 46 -7.2645852702179708e-07
39 46 -7.5135185145494887e-07
40 46 -1.1186120227486724e-21
41 46 -7.7624623359621164e-07
42 46 -1.6146170349510185e-21
43 46 -2.1111953345101043e-21
44 46 6.3837757607762524e-26
45 46 227596323.48445162
46 46 236399219.33347011
47 46 -1.6795641414607002e-06
48 46 150924964.3142378
49 46 1.0684977394930348e-06
50 46 3.816131647336139e-06
51 46 2.1992642734280137e-10
52 46 106724614.65141392
53 46 -1.7450935056353174e-06
54 46 65459909.880490385
55 46 8.6780472553283049e-07
56 46 3.4802282518730862e-06
57 46 2.1989681876398921e-10
58 46 -1.9558652484653717e-21
59 46 -1.8106256570477799e-06
60 46 -3.7037903897367789e-21
61 46 -4.6429514224043587e-21
62 46 1.6810822583645021e-25
63 46 -14148364.602878202
64 46 6.6710309734128667e-07
65 46 3.1443104131878496e-06
66 46 2.1986720615788054e-10
67 46 2.2932786049143911e-21
68 46 1.0189327931214081e-20
69 46 5.1649032295759269e-25
70 46 1.769274560162667e-20
71 46 8.6499250764034358e-25
72 46 9.4777541236768087e-32
37 47 5.6572026832402754e-24
38 47 -8.3244896025527143e-10
39 47 -3.9035881992506245e-10
40 47 -1.6492237594458586e-06
41 47 5.175027690695183e-11
42 47 -7.7333079940212761e-07
43 47 1.025245949032941e-07
44 47 -3.9198932618823829e-22
45 47 -5.4375932914077148e-06
46 47 -1.6795641414607002e-06
47 47 343202511.40517998
48 47 4.3311769217313534e-06
49 47 160929692.5184752
50 47 -21335308.959793251
51 47 8.1572512087439015e-08
52 47 8.186478024083011e-08
53 47 160937347.20166382
54 47 1.911250519798373e-06
55 47 75464476.334574804
56 47 -10004728.728990274
57 47 3.8251653946754741e-08
58 47 -5.4376758509961166e-06
59 47 -21335632.398757089
60 47 -3.3017303112697694e-07
61 47 7.0285009287966748e-06
62 47 4.6890056505399508e-10
63 47 -3.5976723444473531e-07
64 47 -10004404.535273377
65 47 1326337.348804106
66 47 -5.0710617606351763e-09
67 47 9.766481803907765e-07
68 47 3.0920688153421645e-06
69 47 2.1987025516564153e-10
70 47 -5.9689729087247101e-07
71 47 -2.914937418538742e-11
72 47 1.5761194690481828e-25
37 48 -1.1849833634306357e-20
38 48 1.8462099862711166e-06
39 48 4.4332509633706452e-08
40 48 -3.9199514204459468e-20
41 48 -1.7576222398911079e-06
42 48 1.0930249729819748e-20
43 48 6.1048294216452088e-20
44 48 4.6339143417596375e-24
45 48 -30172682.584907569
46 48 150924964.3142378
47 48 4.3311769217313534e-06
48 48 344528848.80856234
49 48 -8.0900038568662187e-07
50 48 -5.9478341404254314e-06
51 48 -4.9770675929079889e-10
52 48 106722886.10305205
53 48 1.1597331271643126e-07
54 48 150932942.68836269
55 48 3.5416453366625284e-07
56 48 5.9243786844192141e-07
57 48 1.5046863373280006e-13
58 48 -6.4835734227699611e-20
59 48 -4.0994113369298598e-06
60 48 2.5598349200905689e-20
61 48 1.4286086397195697e-19
62 48 1.084031378920757e-23
63 48 -30173140.707646016
64 48 1.51737933734162e-06
65 48 7.132990359318545e-06
66 48 4.9802904706967535e-10
67 48 -4.3540190248751083e-21
68 48 -3.790560127506294e-20
69 48 -2.9909203996058452e-24
70 48 -1.545941324149334e-19
71 48 -1.6818909771019622e-23
72 48 -9.0533244496370456e-28
37 49 -7.9834004170521631e-28
38 49 1.174745426028722e-13
39 49 5.508713117686567e-14
40 49 -7.7333079940212782e-07
41 49 -7.3029553737657939e-15
42 49 -7.7334332680862128e-07
43 49 -7.7335584397904324e-07
44 49 -1.766686037385155e-21
45 49 2.0827916458585533e-06
46 49 1.0684977394930348e-06
47 49 160929692.5184752
48 49 -8.0900038568662187e-07
49 49 160932299.46452805
50 49 160934904.28046036
51 49 3.6764633781188551e-07
52 49 2.5059718810818363e-07
53 49 75464476.334574789
54 49 -3.5992152017463402e-07
55 49 75465698.805180654
56 49 75466920.276912823
57 49 1.7239974752398791e-07
58 49 -2.5497584476671611e-06
59 49 -10004404.535273375
60 49 -1.112386144071428e-06
61 49 1.3806147459545695e-06
62 49 2.1987025516117256e-10
63 49 6.3075177594472241e-08
64 49 -10004566.599479841
65 49 -10004728.531264579
66 49 -2.2855214794868394e-08
67 49 9.766640013935949e-07
68 49 3.8742931126436492e-06
69 49 2.1987381690793054e-10
70 49 4.5024709298963959e-06
71 49 2.1987737574440931e-10
72 49 7.1035516244546985e-25
37 50 -5.6603512251579607e-24
38 50 8.3291226350114525e-10
39 50 3.9057607590045186e-10
40 50 1.0252459490329376e-07
41 50 -5.177907875237008e-11
42 50 -7.7335584397904345e-07
43 50 -1.6491987273590708e-06
44 50 -3.1421075456059089e-21
45 50 9.6016204569705356e-06
46 50 3.816131647336139e-06
47 50 -21335308.959793251
48 50 -5.9478341404254314e-06
49 50 160934904.28046036
50 50 343197302.24238318
51 50 6.5387099344312308e-07
52 50 4.1938796164393775e-07
53 50 -10004728.728990307
54 50 -2.6305009503992959e-06
55 50 75466920.276912808
56 50 160934904.47815862
57 50 3.0661856950288174e-07
58 50 3.3803509720604635e-07
59 50 1326337.3488041104
60 50 -1.8945656864541635e-06
61 50 -4.2670292301133588e-06
62 50 -2.9149374194326786e-11
63 50 4.8580545914208911e-07
64 50 -10004728.531264577
65 50 -21335308.56434783
66 50 -4.0648744367265208e-08
67 50 9.7667980946916311e-07
68 50 4.6564838302492371e-06
69 50 2.1987737573994218e-10
70 50 9.6016205028607309e-06
71 50 4.6889344804714174e-10
72 50 1.2633898069816551e-24
37 51 3.890012291530507e-38
38 51 -7.9773136203230145e-24
39 51 -2.6844255757248529e-24
40 51 -3.9198817194394923e-22
41 51 2.6074493487979086e-24
42 51 -1.766686009697622e-21
43 51 -3.1421086447871187e-21
44 51 -2.320029978964341e-06
45 51 6.6311547034855009e-10
46 51 2.1992642734280137e-10
47 51 8.1572512087439015e-08
48 51 -4.9770675929079889e-10
49 51 3.6764633781188551e-07
50 51 6.5387099344312308e-07
51 51 482796898.08944207
52 51 3.252982553702981e-14
53 51 3.825165559695086e-08
54 51 -2.1972283632803292e-10
55 51 1.7239975024150183e-07
56 51 3.0661857328771368e-07
57 51 226397096.27292114
58 51 -1.2924290571257147e-21
59 51 -5.0710619794034016e-09
60 51 -3.768819651845417e-21
61 51 -5.7118199377522506e-21
62 51 -5.4089420823703355e-06
63 51 4.1193894149740649e-11
64 51 -2.285521515513206e-08
65 51 -4.0648744869024331e-08
66 51 -30013699.779532135
67 51 2.231167703684772e-21
68 51 1.007898342330141e-20
69 51 2.0718172136734368e-06
70 51 1.8293329153072377e-20
71 51 9.5510285829433027e-06
72 51 9.328456010514549e-10
37 52 6.4084364193814907e-24
38 52 3.1100641750413523e-08
39 52 3.1100138453579253e-08
40 52 2.3855846266369494e-23
41 52 3.1099634745099695e-08
42 52 7.3025395984776267e-23
43 52 1.2221195377928733e-22
44 52 9.4793696972041692e-30
45 52 75466920.008930877
46 52 106724614.65141392
47 52 8.186478024083011e-08
48 52 106722886.10305205
49 52 2.5059718810818363e-07
50 52 4.1938796164393775e-07
51 52 3.252982553702981e-14
52 52 75464477.489904612
53 52 8.1863521629813605e-08
54 52 106721159.02323321
55 52 2.5059315642036841e-07
56 52 4.1938115593956944e-07
57 52 3.2529283086391355e-14
58 52 4.4402587790603087e-23
59 52 8.1862195740217541e-08
60 52 1.9222154453529902e-22
61 52 3.2169311682428197e-22
62 52 2.4952114123192753e-29
63 52 75462033.012723535
64 52 2.5058909772789673e-07
65 52 4.1937436349892705e-07
66 52 3.2528756230996508e-14
67 52 4.160694682681927e-22
68 52 9.847376699507213e-22
69 52 7.6381139157039736e-29
70 52 1.1653201599437177e-21
71 52 1.2782795384054942e-28
72 52 7.010942719746142e-36
37 53 -1.6087061471633383e-25
38 53 -3.9035881992499462e-10
39 53 -3.9035250280855888e-10
40 53 4.689802625824886e-08
41 53 -3.9034618052536903e-10
42 53 2.1990762580851707e-08
43 53 -2.9154328612792845e-09
44 53 1.1146742261204707e-23
45 53 -2.5498410133939166e-06
46 53 -1.7450935056353174e-06
47 53 160937347.20166382
48 53 1.1597331271643126e-07
49 53 75464476.334574789
50 53 -10004728.728990307
51 53 3.825165559695086e-08
52 53 8.1863521629813605e-08
53 53 160934742.77767757
54 53 1.9767788919085289e-06
55 53 75463255.104725465
56 53 -10004566.824025819
57 53 3.8251034926205528e-08
58 53 1.7458127631151179e-07
59 53 160932136.22353908
60 53 4.3577187665458168e-07
61 53 6.2473936864846927e-07
62 53 4.9053131243681981e-14
63 53 2.7136814367779853e-06
64 53 75462032.876035124
65 53 -10004404.786639679
66 53 3.8250415399360879e-08
67 53 2.5058909727399131e-07
68 53 2.7305100010361087e-07
69 53 2.3001304162654531e-14
70 53 -5.5598699399938286e-08
71 53 -3.0494055944716639e-15
72 53 1.6488270837473673e-29
37 54 3.369668947313173e-22
38 54 8.1474787764330124e-07
39 54 8.396408409394831e-07
40 54 1.1863764285003626e-21
41 54 8.64534861648402e-07
42 54 1.8218645196827122e-21
43 54 2.4579740522936192e-21
44 54 -6.3778330819593697e-26
45 54 -14148822.726533156
46 54 65459909.880490385
47 54 1.911250519798373e-06
48 54 150932942.68836269
49 54 -3.5992152017463402e-07
50 54 -2.6305009503992959e-06
51 54 -2.1972283632803292e-10
52 54 106721159.02323321
53 54 1.9767788919085289e-06
54 54 236396775.83049423
55 54 -1.5923132408314805e-07
56 54 -2.294602372143139e-06
57 54 -2.1969322993466766e-10
58 54 2.0816072054004915e-21
59 54 2.0423102763738697e-06
60 54 4.2476431431392667e-21
61 54 5.5529573119183437e-21
62 54 -1.6795201688175808e-25
63 54 227592409.72570273
64 54 4.146743759235712e-08
65 54 -1.9586893273273328e-06
66 54 -2.19663619508325e-10
67 54 -1.1171573539620772e-21
68 54 -7.4062209745250209e-21
69 54 -5.1601234581121615e-25
70 54 -1.4399852082707033e-20
71 54 -8.6419265109885627e-25
72 54 -9.4709613348843493e-32
37 55 2.2701936001384559e-29
38 55 5.5087133193981989e-14
39 55 5.5086241577888623e-14
40 55 2.199076258085171e-08
41 55 5.5085349232605439e-14
42 55 2.1991118815495627e-08
43 55 2.1991474759062266e-08
44 55 5.0238233413981689e-23
45 55 9.7667980600098734e-07
46 55 8.6780472553283049e-07
47 55 75464476.334574804
48 55 3.5416453366625284e-07
49 55 75465698.805180654
50 55 75466920.276912808
51 55 1.7239975024150183e-07
52 55 2.5059315642036841e-07
53 55 75463255.104725465
54 55 -1.5923132408314805e-07
55 55 75464477.555548251
56 55 75465699.007513553
57 55 1.7239695760576518e-07
58 55 8.1862195591936152e-08
59 55 75462032.876035109
60 55 2.3507950130046043e-07
61 55 3.5442964400988441e-07
62 55 2.3001304205078177e-14
63 55 -4.7576855858975457e-07
64 55 75463255.307058677
65 55 75464476.739240929
66 55 1.7239416540567493e-07
67 55 2.5059315663834974e-07
68 55 4.7374624796127192e-07
69 55 2.3001677082333148e-14
70 55 4.1938794431847142e-07
71 55 2.300204965522926e-14
72 55 7.4312439756052882e-29
37 56 1.6096014798959957e-25
38 56 3.9057607590441845e-10
39 56 3.905697552718641e-10
40 56 -2.9154328612792725e-09
41 56 3.9056342946967985e-10
42 56 2.1991474759062273e-08
43 56 4.6897314435212874e-08
44 56 8.9350335211218919e-23
45 56 4.5024709139081857e-06
46 56 3.4802282518730862e-06
47 56 -10004728.728990274
48 56 5.9243786844192141e-07
49 56 75466920.276912823
50 56 160934904.47815862
51 56 3.0661857328771368e-07
52 56 4.1938115593956944e-07
53 56 -10004566.824025819
54 56 -2.294602372143139e-06
55 56 75465699.007513553
56 56 160932300.09370258
57 56 3.0661360754239879e-07
58 56 -1.0852908545018688e-08
59 56 -10004404.786639715
60 56 3.4395732616014815e-08
61 56 8.4131513276867074e-08
62 56 -3.0494055095910395e-15
63 56 -3.6643727670030599e-06
64 56 75464476.7392409
65 56 160929693.57912666
66 56 3.0660864152354012e-07
67 56 2.5059721268582503e-07
68 56 6.7443288680330394e-07
69 56 2.3002049697724695e-14
70 56 8.9435422183025812e-07
71 56 4.9052387885778774e-14
72 56 1.3216709595876643e-28
37 57 -1.1061803927346193e-39
38 57 -2.6201163857834744e-24
39 57 -2.6841397188650094e-24
40 57 1.114674189930854e-23
41 57 -2.7481305002496013e-24
42 57 5.023823262206642e-23
43 57 8.9350333989251846e-23
44 57 6.5973356404926389e-08
45 57 3.1095356572227137e-10
46 57 2.1989681876398921e-10
47 57 3.8251653946754741e-08
48 57 1.5046863373280006e-13
49 57 1.7239974752398791e-07
50 57 3.0661856950288174e-07
51 57 226397096.27292114
52 57 3.2529283086391355e-14
53 57 3.8251034926205528e-08
54 57 -2.1969322993466766e-10
55 57 1.7239695760576518e-07
56 57 3.0661360754239879e-07
57 57 226393432.52402627
58 57 4.1494550340612451e-23
59 57 3.8250417049503569e-08
60 57 2.2205611961795402e-22
61 57 3.8550525463759844e-22
62 57 1.7365875387041967e-07
63 57 -3.1072064145941652e-10
64 57 1.7239416812310086e-07
65 57 3.066086453082495e-07
66 57 226389765.77855986
67 57 5.7247462490488799e-22
68 57 1.3974069911085551e-21
69 57 5.3158836079888076e-07
70 57 1.7039536351708826e-21
71 57 8.8964177801359515e-07
72 57 9.7587849282585684e-14
37 58 2.019162942846896e-27
38 58 1.3189261319604275e-23
39 58 -4.2345261797110619e-25
40 58 -1.1772784840823021e-09
41 58 -1.4037194749658818e-23
42 58 -5.5203286152037733e-10
43 58 7.3185945192456843e-11
44 58 -2.798160395820856e-25
45 58 4.3076418070435987e-20
46 58 -1.9558652484653717e-21
47 58 -5.4376758509961166e-06
48 58 -6.4835734227699611e-20
49 58 -2.5497584476671611e-06
50 58 3.3803509720604635e-07
51 58 -1.2924290571257147e-21
52 58 4.4402587790603087e-23
53 58 1.7458127631151179e-07
54 58 2.0816072054004915e-21
55 58 8.1862195591936152e-08
56 58 -1.0852908545018688e-08
57 58 4.1494550340612451e-23
58 58 343207722.28737766
59 58 5.7872619278254744e-06
60 58 227592409.25675315
61 58 -30173141.403592031
62 58 1.1536270444917748e-07
63 58 4.8793192061707278e-20
64 58 2.7136814318625489e-06
65 58 -3.5976724283242422e-07
66 58 1.3755187618758024e-21
67 58 75462032.739346698
68 58 -14148364.907108458
69 58 5.4094256126197027e-08
70 58 1326337.3797266134
71 58 -7.171564484721217e-09
72 58 1.9388482125534225e-23
37 59 -5.9813178192524392e-24
38 59 5.1750276907081116e-11
39 59 -3.9034618052530094e-10
40 59 1.7437118683288728e-06
41 59 -8.32461599626212e-10
42 59 8.1763683389743989e-07
43 59 -1.0839848256160941e-07
44 59 4.1444729837840553e-22
45 59 3.3803508932502412e-07
46 59 -1.8106256570477799e-06
47 59 -21335632.398757089
48 59 -4.0994113369298598e-06
49 59 -10004404.535273375
50 59 1326337.3488041104
51 59 -5.0710619794034016e-09
52 59 8.1862195740217541e-08
53 59 160932136.22353908
54 59 2.0423102763738697e-06
55 59 75462032.876035109
56 59 -10004404.786639715
57 59 3.8250417049503569e-08
58 59 5.7872619278254744e-06
59 59 343207722.37287974
60 59 1.2014071961899561e-06
61 59 -5.780241800281714e-06
62 59 -4.685644999417252e-10
63 59 5.7872619292672346e-06
64 59 160932135.97212654
65 59 -21335632.901495773
66 59 8.157375063235506e-08
67 59 -4.757684891051287e-07
68 59 -2.5465019762593412e-06
69 59 -2.1971267224174478e-10
70 59 4.8580547590883197e-07
71 59 2.9128482575745058e-11
72 59 -1.574989850519867e-25
37 60 -4.0296983608695728e-31
38 60 -3.5735886151353206e-24
39 60 -9.165340115229335e-25
40 60 -3.9022870348556395e-10
41 60 1.7416125259326615e-24
42 60 -3.9029741779889754e-10
43 60 -3.9036612426961934e-10
44 60 -8.9172389541726276e-25
45 60 -2.3334241430869009e-20
46 60 -3.7037903897367789e-21
47 60 -3.3017303112697694e-07
48 60 2.5598349200905689e-20
49 60 -1.112386144071428e-06
50 60 -1.8945656864541635e-06
51 60 -3.768819651845417e-21
52 60 1.9222154453529902e-22
53 60 4.3577187665458168e-07
54 60 4.2476431431392667e-21
55 60 2.3507950130046043e-07
56 60 3.4395732616014815e-08
57 60 2.2205611961795402e-22
58 60 227592409.25675315
59 60 1.2014071961899561e-06
60 60 236396775.6570152
61 60 150932943.00463188
62 60 4.0590233515751515e-07
63 60 -1.2097930988064425e-20
64 60 1.5824744532076165e-06
65 60 1.9635255722974953e-06
66 60 4.2131456215020517e-21
67 60 106721158.92275609
68 60 65459909.769819669
69 60 2.1064520005288681e-07
70 60 -14148823.106644051
71 60 1.5396438754866146e-08
72 60 1.2357915341925694e-22
37 61 -2.8571168753160735e-27
38 61 -2.5799498828301471e-23
39 61 -1.2343469266541103e-24
40 61 8.8467518786715611e-10
41 61 2.3334445426913047e-23
42 61 2.0460745235854276e-13
43 61 -8.8422804423848484e-10
44 61 -1.3880397249980655e-24
45 61 -1.0757030369121077e-19
46 61 -4.6429514224043587e-21
47 61 7.0285009287966748e-06
48 61 1.4286086397195697e-19
49 61 1.3806147459545695e-06
50 61 -4.2670292301133588e-06
51 61 -5.7118199377522506e-21
52 61 3.2169311682428197e-22
53 61 6.2473936864846927e-07
54 61 5.5529573119183437e-21
55 61 3.5442964400988441e-07
56 61 8.4131513276867074e-08
57 61 3.8550525463759844e-22
58 61 -30173141.403592031
59 61 -5.780241800281714e-06
60 61 150932943.00463188
61 61 344528850.42521614
62 61 6.4880985936084103e-07
63 61 -9.3178349114010469e-20
64 61 -6.7217814219370903e-07
65 61 4.435666384159419e-06
66 61 6.4831155385732285e-21
67 61 106722886.28871058
68 61 150924964.52310917
69 61 3.4486029505074928e-07
70 61 -30172683.432567813
71 61 4.092376716234989e-08
72 61 2.1978955181774511e-22
37 62 1.963521223545382e-41
38 62 -1.1373337165615838e-27
39 62 -1.189799824511405e-31
40 62 -5.922041946773856e-24
41 62 1.1365185795932847e-27
42 62 -3.5758547467573814e-24
43 62 -1.2301637796340644e-24
44 62 -1.1710575087066673e-09
45 62 -7.4291139550250297e-24
46 62 1.6810822583645021e-25
47 62 4.6890056505399508e-10
48 62 1.084031378920757e-23
49 62 2.1987025516117256e-10
50 62 -2.9149374194326786e-11
51 62 -5.4089420823703355e-06
52 62 2.4952114123192753e-29
53 62 4.9053131243681981e-14
54 62 -1.6795201688175808e-25
55 62 2.3001304205078177e-14
56 62 -3.0494055095910395e-15
57 62 1.7365875387041967e-07
58 62 1.1536270444917748e-07
59 62 -4.685644999417252e-10
60 62 4.0590233515751515e-07
61 62 6.4880985936084103e-07
62 62 482804228.44885886
63 62 -7.9010619955332217e-24
64 62 -2.1971267222822634e-10
65 62 2.9128482583666508e-11
66 62 5.7566808763307502e-06
67 62 2.4380217019210483e-07
68 62 2.8375342906488948e-07
69 62 226389765.36848795
70 62 -5.7486007627458788e-08
71 62 -30013700.479277834
72 62 1.6228539714127317e-07
37 63 8.8591569545310074e-21
38 63 -1.5329860060525518e-07
39 63 1.1563131016880491e-06
40 63 2.94029436209112e-20
41 63 2.4659809736759616e-06
42 63 -5.1549883177983442e-21
43 63 -3.9703756090884207e-20
44 63 -3.3666816520409571e-24
45 63 1326337.3178815991
46 63 -14148364.602878202
47 63 -3.5976723444473531e-07
48 63 -30173140.707646016
49 63 6.3075177594472241e-08
50 63 4.8580545914208911e-07
51 63 4.1193894149740649e-11
52 63 75462033.012723535
53 63 2.7136814367779853e-06
54 63 227592409.72570273
55 63 -4.7576855858975457e-07
56 63 -3.6643727670030599e-06
57 63 -3.1072064145941652e-10
58 63 4.8793192061707278e-20
59 63 5.7872619292672346e-06
60 63 -1.2097930988064425e-20
61 63 -9.3178349114010469e-20
62 63 -7.9010619955332217e-24
63 63 343207722.45838183
64 63 -1.0146352596197324e-06
65 63 -7.814729083231996e-06
66 63 -6.6265027083061429e-10
67 63 1.4997982893412883e-21
68 63 1.6336229577738526e-20
69 63 1.3852312522601825e-24
70 63 8.8969429660367695e-20
71 63 1.0669062455109856e-23
72 63 6.3970789801376548e-28
37 64 8.4407891755773157e-28
38 64 -7.3029513387264439e-15
39 64 5.5085351250545252e-14
40 64 8.1763683389743999e-07
41 64 1.1747632969344197e-13
42 64 8.1765007903004075e-07
43 64 8.1766331334012008e-07
44 64 1.8679038507484513e-21
45 64 -1.294794631230943e-07
46 64 6.6710309734128667e-07
47 64 -10004404.535273377
48 64 1.51737933734162e-06
49 64 -10004566.599479841
50 64 -10004728.531264577
51 64 -2.285521515513206e-08
52 64 2.5058909772789673e-07
53 64 75462032.876035124
54 64 4.146743759235712e-08
55 64 75463255.307058677
56 64 75464476.7392409
57 64 1.7239416812310086e-07
58 64 2.7136814318625489e-06
59 64 160932135.97212654
60 64 1.5824744532076165e-06
61 64 -6.7217814219370903e-07
62 64 -2.1971267222822634e-10
63 64 -1.0146352596197324e-06
64 64 160934742.95776162
65 64 160937347.81324378
66 64 3.6765191991903103e-07
67 64 -4.7577619621476982e-07
68 64 -2.9275748506500967e-06
69 64 -2.1971623143067344e-10
70 64 -3.664491473343491e-06
71 64 -2.1971978771596269e-10
72 64 -7.0984604472378602e-25
37 65 5.9846467489251753e-24
38 65 -5.1779078744428746e-11
39 65 3.9056342947364794e-10
40 65 -1.0839848256160904e-07
41 65 8.3292490991345179e-10
42 65 8.1766331334012018e-07
43 65 1.7436854020919108e-06
44 65 3.3221267255748669e-21
45 65 -5.9689727695628243e-07
46 65 3.1443104131878496e-06
47 65 1326337.348804106
48 65 7.132990359318545e-06
49 65 -10004728.531264579
50 65 -21335308.56434783
51 65 -4.0648744869024331e-08
52 65 4.1937436349892705e-07
53 65 -10004404.786639679
54 65 -1.9586893273273328e-06
55 65 75464476.739240929
56 65 160929693.57912666
57 65 3.066086453082495e-07
58 65 -3.5976724283242422e-07
59 65 -21335632.901495773
60 65 1.9635255722974953e-06
61 65 4.435666384159419e-06
62 65 2.9128482583666508e-11
63 65 -7.814729083231996e-06
64 65 160937347.81324378
65 65 343202513.13099039
66 65 6.5388092140260295e-07
67 65 -4.7578389702697603e-07
68 65 -3.308631353118323e-06
69 65 -2.1971978771141015e-10
70 65 -7.8146104685284045e-06
71 65 -4.6855738803335373e-10
72 65 -1.2624843245214239e-24
37 66 -4.1128807184818013e-38
38 66 2.7381567055992579e-24
39 66 -2.6838537275649776e-24
40 66 4.1444614398040502e-22
41 66 -8.1047855640140378e-24
42 66 1.8679038214653203e-21
43 66 3.322127821718369e-21
44 66 2.452950235544865e-06
45 66 -4.1223439348853305e-11
46 66 2.1986720615788054e-10
47 66 -5.0710617606351763e-09
48 66 4.9802904706967535e-10
49 66 -2.2855214794868394e-08
50 66 -4.0648744367265208e-08
51 66 -30013699.779532135
52 66 3.2528756230996508e-14
53 66 3.8250415399360879e-08
54 66 -2.19663619508325e-10
55 66 1.7239416540567493e-07
56 66 3.0660864152354012e-07
57 66 226389765.77855986
58 66 1.3755187618758024e-21
59 66 8.157375063235506e-08
60 66 4.2131456215020517e-21
61 66 6.4831155385732285e-21
62 66 5.7566808763307502e-06
63 66 -6.6265027083061429e-10
64 66 3.6765191991903103e-07
65 66 6.5388092140260295e-07
66 66 482804228.56913811
67 66 -1.0869003891427192e-21
68 66 -7.2863135631095468e-21
69 66 -1.0092737233760147e-06
70 66 -1.4888657749100038e-20
71 66 -7.7734344871519385e-06
72 66 -9.3217702249779857e-10
37 67 4.0210892679863855e-35
38 67 7.1292813272524472e-28
39 67 1.8292361649552154e-28
40 67 7.790244797034614e-14
41 67 -3.4729879946278521e-28
42 67 7.7903709934350821e-14
43 67 7.7904970867211999e-14
44 67 1.7796933372657632e-28
45 67 6.3200104319696611e-21
46 67 2.2932786049143911e-21
47 67 9.766481803907765e-07
48 67 -4.3540190248751083e-21
49 67 9.766640013935949e-07
50 67 9.7667980946916311e-07
51 67 2.231167703684772e-21
52 67 4.160694682681927e-22
53 67 2.5058909727399131e-07
54 67 -1.1171573539620772e-21
55 67 2.5059315663834974e-07
56 67 2.5059721268582503e-07
57 67 5.7247462490488799e-22
58 67 75462032.739346698
59 67 -4.757684891051287e-07
60 67 106721158.92275609
61 67 106722886.28871058
62 67 2.4380217019210483e-07
63 67 1.4997982893412883e-21
64 67 -4.7577619621476982e-07
65 67 -4.7578389702697603e-07
66 67 -1.0869003891427192e-21
67 67 75464477.621191904
68 67 106724615.12322713
69 67 2.4380611577001018e-07
70 67 75466920.544894785
71 67 2.4381006196388714e-07
72 67 3.938371003191526e-22
37 68 4.0319411078445784e-31
38 68 3.5765846356594405e-24
39 68 9.1730285940322247e-25
40 68 3.9055612580399479e-10
41 68 -1.7430717668410021e-24
42 68 3.9062484274470764e-10
43 68 3.9069355184066217e-10
44 68 8.9247194222610171e-25
45 68 4.1203252590544316e-20
46 68 1.0189327931214081e-20
47 68 3.0920688153421645e-06
48 68 -3.790560127506294e-20
49 68 3.8742931126436492e-06
50 68 4.6564838302492371e-06
51 68 1.007898342330141e-20
52 68 9.847376699507213e-22
53 68 2.7305100010361087e-07
54 68 -7.4062209745250209e-21
55 68 4.7374624796127192e-07
56 68 6.7443288680330394e-07
57 68 1.3974069911085551e-21
58 68 -14148364.907108458
59 68 -2.5465019762593412e-06
60 68 65459909.769819669
61 68 150924964.52310917
62 68 2.8375342906488948e-07
63 68 1.6336229577738526e-20
64 68 -2.9275748506500967e-06
65 68 -3.308631353118323e-06
66 68 -7.2863135631095468e-21
67 68 106724615.12322713
68 68 236399220.77858615
69 68 4.7901335594528712e-07
70 68 227596325.38042176
71 68 6.742649101607024e-07
72 68 9.9058888524229251e-22
37 69 -2.7709058756870416e-45
38 69 1.6049962475125918e-31
39 69 1.6784059701500163e-35
40 69 -2.6840750217503971e-24
41 69 -1.6038460585463787e-31
42 69 -2.6840205808024e-24
43 69 -2.6839660526984476e-24
44 69 1.6525872461840167e-13
45 69 2.8456148984345086e-24
46 69 5.1649032295759269e-25
47 69 2.1987025516564153e-10
48 69 -2.9909203996058452e-24
49 69 2.1987381690793054e-10
50 69 2.1987737573994218e-10
51 69 2.0718172136734368e-06
52 69 7.6381139157039736e-29
53 69 2.3001304162654531e-14
54 69 -5.1601234581121615e-25
55 69 2.3001677082333148e-14
56 69 2.3002049697724695e-14
57 69 5.3158836079888076e-07
58 69 5.4094256126197027e-08
59 69 -2.1971267224174478e-10
60 69 2.1064520005288681e-07
61 69 3.4486029505074928e-07
62 69 226389765.36848795
63 69 1.3852312522601825e-24
64 69 -2.1971623143067344e-10
65 69 -2.1971978771141015e-10
66 69 -1.0092737233760147e-06
67 69 2.4380611577001018e-07
68 69 4.7901335594528712e-07
69 69 226393432.72095722
70 69 4.3362414635876662e-07
71 69 226397097.07685399
72 69 7.3141834684926726e-07
37 70 2.0214111169518561e-27
38 70 2.3302361103590185e-23
39 70 2.1705258008686955e-24
40 70 -7.3226677163560726e-11
41 70 -1.8965431404760265e-23
42 70 5.5235798564259532e-10
43 70 1.177915824986089e-09
44 70 2.2442047042645829e-24
45 70 1.3431212197470204e-19
46 70 1.769274560162667e-20
47 70 -5.9689729087247101e-07
48 70 -1.545941324149334e-19
49 70 4.5024709298963959e-06
50 70 9.6016205028607309e-06
51 70 1.8293329153072377e-20
52 70 1.1653201599437177e-21
53 70 -5.5598699399938286e-08
54 70 -1.4399852082707033e-20
55 70 4.1938794431847142e-07
56 70 8.9435422183025812e-07
57 70 1.7039536351708826e-21
58 70 1326337.3797266134
59 70 4.8580547590883197e-07
60 70 -14148823.106644051
61 70 -30172683.432567813
62 70 -5.7486007627458788e-08
63 70 8.8969429660367695e-20
64 70 -3.664491473343491e-06
65 70 -7.8146104685284045e-06
66 70 -1.4888657749100038e-20
67 70 75466920.544894785
68 70 227596325.38042176
69 70 4.3362414635876662e-07
70 70 343197303.8826679
71 70 9.2471323138922842e-07
72 70 1.2457769199122961e-21
37 71 -1.9646140302247173e-41
38 71 1.1379667047721676e-27
39 71 1.1904618869447996e-31
40 71 5.5381579495945173e-25
41 71 -1.1371511141608771e-27
42 71 -1.7919417574338617e-24
43 71 -4.1372029088468552e-24
44 71 1.1717092660964294e-09
45 71 1.3118217693928873e-23
46 71 8.6499250764034358e-25
47 71 -2.914937418538742e-11
48 71 -1.6818909771019622e-23
49 71 2.1987737574440931e-10
50 71 4.6889344804714174e-10
51 71 9.5510285829433027e-06
52 71 1.2782795384054942e-28
53 71 -3.0494055944716639e-15
54 71 -8.6419265109885627e-25
55 71 2.300204965522926e-14
56 71 4.9052387885778774e-14
57 71 8.8964177801359515e-07
58 71 -7.171564484721217e-09
59 71 2.9128482575745058e-11
60 71 1.5396438754866146e-08
61 71 4.092376716234989e-08
62 71 -30013700.479277834
63 71 1.0669062455109856e-23
64 71 -2.1971978771596269e-10
65 71 -4.6855738803335373e-10
66 71 -7.7734344871519385e-06
67 71 2.4381006196388714e-07
68 71 6.742649101607024e-07
69 71 226397097.07685399
70 71 9.2471323138922842e-07
71 71 482796900.39693213
72 71 1.3008513668958838e-06
37 72 9.5470640667494928e-56
38 72 -1.1059924107460543e-41
39 72 -1.1570126992710786e-45
40 72 -1.9240742241894029e-39
41 72 1.1051997363683245e-41
42 72 -8.6717795504841996e-39
43 72 -1.5423042545023693e-38
44 72 -1.1387868821996674e-23
45 72 6.4062585318144852e-28
46 72 9.4777541236768087e-32
47 72 1.5761194690481828e-25
48 72 -9.0533244496370456e-28
49 72 7.1035516244546985e-25
50 72 1.2633898069816551e-24
51 72 9.328456010514549e-10
52 72 7.010942719746142e-36
53 72 1.6488270837473673e-29
54 72 -9.4709613348843493e-32
55 72 7.4312439756052882e-29
56 72 1.3216709595876643e-28
57 72 9.7587849282585684e-14
58 72 1.9388482125534225e-23
59 72 -1.574989850519867e-25
60 72 1.2357915341925694e-22
61 72 2.1978955181774511e-22
62 72 1.6228539714127317e-07
63 72 6.3970789801376548e-28
64 72 -7.0984604472378602e-25
65 72 -1.2624843245214239e-24
66 72 -9.3217702249779857e-10
67 72 3.938371003191526e-22
68 72 9.9058888524229251e-22
69 72 7.3141834684926726e-07
70 72 1.2457769199122961e-21
71 72 1.3008513668958838e-06
72 72 679180297.73501623
73 73 635444292.16040969
74 73 -1.1361437149654398e-05
75 73 -2.2685066748807461e-07
76 73 -3.0109920338471619e-09
77 73 1.0906404628535917e-05
78 73 1.1581653468055081e-14
79 73 3.0117776676164086e-09
80 73 -2.0266860200858164e-22
81 73 1.0156850545205771e-19
82 73 2.8680112526869376e-21
83 73 3.8067152856309559e-23
84 73 -1.3788670559077046e-19
85 73 -1.4642369290294826e-28
86 73 -3.8077085410247528e-23
87 73 2.5622839798674995e-36
88 73 4.0492318504290118e-23
89 73 7.6007629326075822e-25
90 73 -2.7531456442505955e-21
91 73 -2.9236013044452807e-30
92 73 -7.602746138130801e-25
93 73 5.1160414256626302e-38
94 73 7.1336489600590016e-27
95 73 -3.6542540053558977e-23
96 73 -3.880500037890643e-32
97 73 -1.0091135419946484e-26
98 73 6.7905288302984852e-40
99 73 9.3595664788285135e-20
100 73 1.4055933426103705e-28
101 73 3.6552074802624202e-23
102 73 -2.4596629360837851e-36
103 73 1.0554402542359424e-37
104 73 3.8815125453423591e-32
105 73 -2.6119481849597783e-45
106 73 7.1373720962333618e-27
107 73 -6.7923006279984313e-40
108 73 3.231956187730152e-53
73 74 -1.1361437149654398e-05
74 74 750604847.84022141
75 74 211819913.57020992
76 74 2.0956590262897757e-05
77 74 -326980470.84081441
78 74 1.8178331037262368e-06
79 74 -1.7319852015726307e-05
80 74 2.3572020781814486e-09
81 74 -1.3420452285390596e-05
82 74 -2.8674595884951009e-06
83 74 -2.5149449936709859e-09
84 74 1.3243549910748883e-05
85 74 9.6736065315663548e-15
86 74 2.5156011978568377e-09
87 74 -1.9908134961072236e-22
88 74 -7.5618727516303533e-08
89 74 -7.0971488216988836e-10
90 74 2.6532676573768911e-06
91 74 2.7298878084900657e-15
92 74 7.0990006232610722e-10
93 74 -4.8365646529115716e-23
94 74 -9.9300799639971183e-23
95 74 1.0955669959230129e-09
96 74 -6.0904849601332541e-24
97 74 1.2826575654855099e-22
98 74 -7.8979420204573367e-27
99 74 -5.6121069378004191e-06
100 74 -4.2140300352843326e-15
101 74 -1.0958528533034704e-09
102 74 1.023500491900781e-22
103 74 3.3131957167382369e-29
104 74 6.0921210410051036e-24
105 74 3.0378689848378122e-32
106 74 -8.2089876565005826e-23
107 74 7.9000027656920703e-27
108 74 -7.5180602883778917e-40
73 75 -2.2685066748807461e-07
74 75 211819913.57020992
75 75 211814763.61100322
76 75 -2.3167811777432394e-06
77 75 211809609.95377582
78 75 -1.996343498699342e-08
79 75 2.2772963518527553e-06
80 75 1.4669588536269393e-13
81 75 -3.7872377874245768e-06
82 75 -2.731386926932618e-06
83 75 -7.0971488213530766e-10
84 75 -1.0712453541524981e-07
85 75 2.7298885197649385e-15
86 75 7.0990006229294368e-10
87 75 -4.7772463583667279e-23
88 75 -7.5616889004732984e-08
89 75 -7.0969762692757258e-10
90 75 2.5171963043341155e-06
91 75 2.7298219008751811e-15
92 75 7.0988280258245022e-10
93 75 -4.7769484535840968e-23
94 75 1.0977846140745548e-23
95 75 -7.096803593294015e-10
96 75 6.6858786395195611e-26
97 75 -1.5394748111791351e-23
98 75 -4.9151253329002528e-31
99 75 3.6353797474745399e-06
100 75 2.7297552343557216e-15
101 75 7.0986553047828792e-10
102 75 -4.7766504871322131e-23
103 75 -3.6385500492156219e-31
104 75 -6.6876747979291713e-26
105 75 1.895086420363505e-36
106 75 1.0793566611065028e-23
107 75 4.9164078871634038e-31
108 75 -4.6787185554517838e-44
73 76 -3.0109920338471619e-09
74 76 2.0956590262897757e-05
75 76 -2.3167811777432394e-06
76 76 750615176.09972537
77 76 -2.5589431611591138e-05
78 76 211809617.0640128
79 76 -326980488.13247687
80 76 1.2763686043371497e-05
81 76 -3.7469371561055547e-19
82 76 2.4000281243029082e-20
83 76 -9.4898233949643073e-06
84 76 5.7785733850172438e-19
85 76 -2.6778513455281515e-06
86 76 4.1339253252244017e-06
87 76 -1.6136780906795014e-19
88 76 8.2708014234165612e-22
89 76 -1.8948067424349432e-07
90 76 -2.1657695458959348e-20
91 76 -5.3467915824837219e-08
92 76 8.2540941521780761e-08
93 76 -3.2219863311276767e-21
94 76 -3.5567182577674736e-09
95 76 9.1097501518085231e-06
96 76 -7.0967070936192244e-10
97 76 3.6112028657039207e-09
98 76 -2.1204768346247461e-22
99 76 -4.3920245852142857e-19
100 76 2.5706017579200153e-06
101 76 -3.9683590823209133e-06
102 76 1.5490492941457909e-19
103 76 3.8604573466175499e-15
104 76 7.0986134022780631e-10
105 76 -4.7768122336130068e-23
106 76 -1.549770049166022e-09
107 76 1.1651878302512199e-22
108 76 -4.0708500159657458e-36
73 77 1.0906404628535917e-05
74 77 -326980470.84081441
75 77 211809609.95377582
76 77 -2.5589431611591138e-05
77 77 750615144.58736348
78 77 -1.8573600667737783e-06
79 77 2.1874523423220725e-05
80 77 -2.3565976908557218e-09
81 77 5.8462529516033792e-06
82 77 -2.5953103184785803e-06
83 77 1.095566995992196e-09
84 77 -1.3458181869024839e-05
85 77 -4.2140286150977231e-15
86 77 -1.0958528533698238e-09
87 77 1.0353597499865303e-22
88 77 -7.5615049172986189e-08
89 77 -7.0968035929482452e-10
90 77 2.3811210053387778e-06
91 77 2.7297559455000731e-15
92 77 7.098655304451279e-10
93 77 -4.717340021437485e-23
94 77 1.2125307564504077e-22
95 77 -2.5149794935639539e-09
96 77 6.222862630908717e-24
97 77 -1.5905310017120855e-22
98 77 7.8959169867807746e-27
99 77 1.288313167365771e-05
100 77 9.6737396745133416e-15
101 77 2.5156357067524644e-09
102 77 -1.9788276979426229e-22
103 77 -3.3852378444761132e-29
104 77 -6.2245342750304536e-24
105 77 -3.0370891723694265e-32
106 77 1.0367738281482174e-22
107 77 -7.8979772036219669e-27
108 77 7.5161326554462905e-40
73 78 1.1581653468055081e-14
74 78 1.8178331037262368e-06
75 78 -1.996343498699342e-08
76 78 211809617.0640128
77 78 -1.8573600667737783e-06
78 78 211814766.71308815
79 78 211819912.66418886
80 78 3.2749190999836631e-07
81 78 -3.2501978288106748e-20
82 78 -2.0649032314304898e-22
83 78 -2.677851345528152e-06
84 78 4.5544009161734088e-20
85 78 -2.6779164511399577e-06
86 78 -2.6779815099992771e-06
87 78 -4.1403910926937356e-21
88 78 7.1268537751398914e-24
89 78 -5.3467915824837232e-08
90 78 2.2657673169208192e-22
91 78 -5.34692157705484e-08
92 78 -5.3470514782765619e-08
93 78 -8.2670041709276474e-23
94 78 -1.0036396227648657e-09
95 78 2.5706017579200158e-06
96 78 -7.0969490756630426e-10
97 78 1.5067515120422427e-13
98 78 -4.8865567433869093e-23
99 78 -3.1878672463345008e-20
100 78 2.5706642560121665e-06
101 78 2.5707267092242965e-06
102 78 3.9745658918403168e-21
103 78 3.8605512044927543e-15
104 78 7.098855428677079e-10
105 78 -4.7769443983787892e-23
106 78 1.0039502917706888e-09
107 78 -4.6673041836467084e-23
108 78 -1.0445026950015359e-37
73 79 3.0117776676164086e-09
74 79 -1.7319852015726307e-05
75 79 2.2772963518527553e-06
76 79 -326980488.13247687
77 79 2.1874523423220725e-05
78 79 211819912.66418886
79 79 750604863.3197087
80 79 -1.2108768520509743e-05
81 79 3.0967059148218786e-19
82 79 -2.4419121151312884e-20
83 79 4.1339253252244025e-06
84 79 -4.86753931584639e-19
85 79 -2.6779815099992771e-06
86 79 -9.4896930132931326e-06
87 79 1.5308786505919773e-19
88 79 -8.1298424247638402e-22
89 79 8.2540941521780788e-08
90 79 2.2116261215811727e-20
91 79 -5.3470514782765619e-08
92 79 -1.8947807094879272e-07
93 79 3.0566629833497505e-21
94 79 1.5493657856978773e-09
95 79 -3.9683590823209141e-06
96 79 -7.0971909318124232e-10
97 79 -3.6107979563160589e-09
98 79 1.1431328550565642e-22
99 79 3.7544188540220119e-19
100 79 2.5707267092242965e-06
101 79 9.1096249920031874e-06
102 79 -1.4695660223804562e-19
103 79 3.8606449949684064e-15
104 79 7.0990973291498047e-10
105 79 -4.7770764798315759e-23
106 79 3.5575974045886821e-09
107 79 -2.0986160450094275e-22
108 79 3.8619706217736136e-36
73 80 -2.0266860200858164e-22
74 80 2.3572020781814486e-09
75 80 1.4669588536269393e-13
76 80 1.2763686043371497e-05
77 80 -2.3565976908557218e-09
78 80 3.2749190999836631e-07
79 80 -1.2108768520509743e-05
80 80 635444292.15875578
81 80 -4.2145635094528141e-23
82 80 -5.9689221776055196e-25
83 80 -1.6136781696576116e-19
84 80 5.8401720727978249e-23
85 80 -4.1403910926632262e-21
86 80 1.5308787295906977e-19
87 80 -8.0337492525244737e-06
88 80 -5.2369751249467009e-29
89 80 -3.2219863316165748e-21
90 80 5.9666537062993757e-25
91 80 -8.2670041709271996e-23
92 80 3.0566629838387821e-21
93 80 -1.6040764529709471e-07
94 80 -6.0479506186806825e-23
95 80 1.5490493731037033e-19
96 80 -1.0971161066050377e-24
97 80 8.3347757270564283e-23
98 80 -2.1290928852264614e-09
99 80 -4.0447303217978615e-23
100 80 3.9745658918098201e-21
101 80 -1.4695661013589733e-19
102 80 7.7119926711820225e-06
103 80 5.9688911553476895e-30
104 80 1.097410851579502e-24
105 80 8.1894657045931277e-15
106 80 -5.7391212829039906e-23
107 80 2.1296484121922236e-09
108 80 -2.026686020080541e-22
73 81 1.0156850545205771e-19
74 81 -1.3420452285390596e-05
75 81 -3.7872377874245768e-06
76 81 -3.7469371561055547e-19
77 81 5.8462529516033792e-06
78 81 -3.2501978288106748e-20
79 81 3.0967059148218786e-19
80 81 -4.2145635094528141e-23
81 81 886635767.37111843
82 81 353847120.91479391
83 81 3.5008177483083779e-05
84 81 -546223894.87490547
85 81 3.036706980073079e-06
86 81 -2.8932972670691142e-05
87 81 3.9377278307802115e-09
88 81 70608354.404047325
89 81 9.8792715635322813e-06
90 81 -154143819.52808115
91 81 8.5695557643674576e-07
92 81 -8.1648550340026746e-06
93 81 1.111222730813516e-09
94 81 6.9113639207277056e-19
95 81 -1.5250354949924612e-05
96 81 8.4783656957435148e-20
97 81 -8.0779714531814684e-19
98 81 1.0993980248584288e-22
99 81 168254290.15623459
100 81 -1.3228583335252418e-06
101 81 1.2603858147077717e-05
102 81 -1.7153634217208927e-09
103 81 5.2003255576789104e-21
104 81 -7.0070577962993176e-20
105 81 9.5364851757260425e-24
106 81 4.7207485777672736e-19
107 81 -9.0861208135759191e-23
108 81 8.7441207764917628e-27
73 82 2.8680112526869376e-21
74 82 -2.8674595884951009e-06
75 82 -2.731386926932618e-06
76 82 2.4000281243029082e-20
77 82 -2.5953103184785803e-06
78 82 -2.0649032314304898e-22
79 82 -2.4419121151312884e-20
80 82 -5.9689221776055196e-25
81 82 353847120.91479391
82 82 320809969.82813358
83 82 4.2490521799079464e-06
84 82 141199387.71147698
85 82 5.8237772280147962e-07
86 82 -3.0834172240165982e-06
87 82 7.8592640971359102e-10
88 82 99852864.641976699
89 82 6.2132509057159211e-06
90 82 -38388570.270853996
91 82 5.9928972653418337e-07
92 82 -5.0141667544652351e-06
93 82 7.8578292423638682e-10
94 82 -1.0805457344603775e-19
95 82 8.1775058395950472e-06
96 82 -7.2860628435469264e-21
97 82 1.3825078734380429e-19
98 82 -8.5893401335760469e-24
99 82 -154136321.46632984
100 82 6.1620220507719697e-07
101 82 -6.9449715541184672e-06
102 82 7.8563942147449792e-10
103 82 -8.0765668574715439e-23
104 82 7.0588539238321154e-21
105 82 -7.3635379811668152e-26
106 82 -8.7781145166872091e-20
107 82 8.443709398906828e-24
108 82 7.6957732436146657e-31
73 83 3.8067152856309559e-23
74 83 -2.5149449936709859e-09
75 83 -7.0971488213530766e-10
76 83 -9.4898233949643073e-06
77 83 1.095566995992196e-09
78 83 -2.677851345528152e-06
79 83 4.1339253252244025e-06
80 83 -1.6136781696576116e-19
81 83 3.5008177483083779e-05
82 83 4.2490521799079464e-06
83 83 886647967.40462101
84 83 -4.101059288254141e-05
85 83 250195536.17659235
86 83 -386238640.53757638
87 83 1.5076828509849532e-05
88 83 -1.0921676703221549e-06
89 83 250211141.53905317
90 83 -7.3378721799685191e-06
91 83 70604922.151874065
92 83 -108996145.83032916
93 83 4.2546654488821113e-06
94 83 3.500865919265819e-05
95 83 -386243934.72306418
96 83 9.1326659872809178e-06
97 83 -3.1242612656198963e-05
98 83 2.784432365060319e-09
99 83 1.8621727587740938e-05
100 83 -108990841.79470497
101 83 168254299.05400267
102 83 -6.5678079473131898e-06
103 83 8.5691392006811298e-07
104 83 -6.7085458650717149e-06
105 83 7.8571493316564989e-10
106 83 1.2603858813605785e-05
107 83 -1.2129451721900997e-09
108 83 6.6959228815190849e-23
73 84 -1.3788670559077046e-19
74 84 1.3243549910748883e-05
75 84 -1.0712453541524981e-07
76 84 5.7785733850172438e-19
77 84 -1.3458181869024839e-05
78 84 4.5544009161734088e-20
79 84 -4.86753931584639e-19
80 84 5.8401720727978249e-23
81 84 -546223894.87490547
82 84 141199387.71147698
83 84 -4.101059288254141e-05
84 84 1054902220.3375586
85 84 -3.1293685677952056e-06
86 84 3.4751081983257402e-05
87 84 -3.9966252398329757e-09
88 84 99850435.125597551
89 84 -1.544657810825148e-06
90 84 141220292.89868575
91 84 -1.3205450509179889e-08
92 84 1.5185415509947658e-06
93 84 1.6324572634751083e-13
94 84 -1.1934899797161142e-18
95 84 3.7922409146601575e-05
96 84 -1.3445907200520794e-19
97 84 1.4188821977168108e-18
98 84 -1.7264410904597293e-22
99 84 -546231387.9377929
100 84 3.1030470357046224e-06
101 84 -3.1714951950928677e-05
102 84 3.9970663559489703e-09
103 84 -7.514284374141898e-21
104 84 1.1320179469839081e-19
105 84 -1.3631524290639307e-23
106 84 -8.4317999038977782e-19
107 84 1.4537638700726315e-22
108 84 -1.2362883533108064e-26
73 85 -1.4642369290294826e-28
74 85 9.6736065315663548e-15
75 85 2.7298885197649385e-15
76 85 -2.6778513455281515e-06
77 85 -4.2140286150977231e-15
78 85 -2.6779164511399577e-06
79 85 -2.6779815099992771e-06
80 85 -4.1403910926632262e-21
81 85 3.036706980073079e-06
82 85 5.8237772280147962e-07
83 85 250195536.17659235
84 85 -3.1293685677952056e-06
85 85 250201619.08835712
86 85 250207697.63196918
87 85 3.8684274657261994e-07
88 85 -9.4110822952219273e-09
89 85 70604922.15187408
90 85 -6.0886249319446342e-07
91 85 70606638.743297607
92 85 70608354.102032959
93 85 1.091666239300888e-07
94 85 9.8787913349307218e-06
95 85 -108990841.794705
96 85 7.5914598191185881e-06
97 85 1.2125561684569009e-06
98 85 7.8571493313993719e-10
99 85 1.3516225671179063e-06
100 85 -108993491.64883082
101 85 -108996139.60009043
102 85 -1.6851746132419676e-07
103 85 8.5693475390010472e-07
104 85 -5.1673249810512501e-06
105 85 7.8573403592736358e-10
106 85 -8.1648549990789963e-06
107 85 7.8575312499702873e-10
108 85 1.7180464688797775e-24
73 86 -3.8077085410247528e-23
74 86 2.5156011978568377e-09
75 86 7.0990006229294368e-10
76 86 4.1339253252244017e-06
77 86 -1.0958528533698238e-09
78 86 -2.6779815099992771e-06
79 86 -9.4896930132931326e-06
80 86 1.5308787295906977e-19
81 86 -2.8932972670691142e-05
82 86 -3.0834172240165982e-06
83 86 -386238640.53757638
84 86 3.4751081983257402e-05
85 86 250207697.63196918
86 86 886635785.65592837
87 86 -1.4303221328763314e-05
88 86 1.0735538923714943e-06
89 86 -108996145.83032919
90 86 6.1198570343407819e-06
91 86 70608354.102032959
92 86 250207703.86214152
93 86 -4.0363543006041859e-06
94 86 -1.5250355756407002e-05
95 86 168254299.05400273
96 86 6.0502977382254729e-06
97 86 3.3666794241993882e-05
98 86 -1.2129451722415497e-09
99 86 -1.5918345581498001e-05
100 86 -108996139.60009043
101 86 -386238628.07745081
102 86 6.2308071391712577e-06
103 86 8.5695557277127453e-07
104 86 -3.6261481948848454e-06
105 86 7.857531249713151e-10
106 86 -2.8932973267366721e-05
107 86 2.7843941093634023e-09
108 86 -6.3523483677041521e-23
73 87 2.5622839798674995e-36
74 87 -1.9908134961072236e-22
75 87 -4.7772463583667279e-23
76 87 -1.6136780906795014e-19
77 87 1.0353597499865303e-22
78 87 -4.1403910926937356e-21
79 87 1.5308786505919773e-19
80 87 -8.0337492525244737e-06
81 87 3.9377278307802115e-09
82 87 7.8592640971359102e-10
83 87 1.5076828509849532e-05
84 87 -3.9966252398329757e-09
85 87 3.8684274657261994e-07
86 87 -1.4303221328763314e-05
87 87 750604847.8382678
88 87 6.9154784753439281e-14
89 87 4.2546654488786571e-06
90 87 -7.8562714630610072e-10
91 87 1.0916662393008537e-07
92 87 -4.0363543006007393e-06
93 87 211819913.56965858
94 87 5.9529776237131612e-19
95 87 -6.5678079473078585e-06
96 87 4.7313926898646449e-20
97 87 -7.4723096859405515e-19
98 87 2.0956590262843212e-05
99 87 1.7149236020207905e-09
100 87 -1.6851746132419149e-07
101 87 6.2308071391659374e-06
102 87 -326980470.83996332
103 87 1.3249274526683678e-21
104 87 -4.3566103309104303e-20
105 87 1.8178331037215053e-06
106 87 4.6674714357015529e-19
107 87 -1.7319852015681225e-05
108 87 3.3335871482095727e-09
73 88 4.0492318504290118e-23
74 88 -7.5618727516303533e-08
75 88 -7.5616889004732984e-08
76 88 8.2708014234165612e-22
77 88 -7.5615049172986189e-08
78 88 7.1268537751398914e-24
79 88 -8.1298424247638402e-22
80 88 -5.2369751249467009e-29
81 88 70608354.404047325
82 88 99852864.641976699
83 88 -1.0921676703221549e-06
84 88 99850435.125597551
85 88 -9.4110822952219273e-09
86 88 1.0735538923714943e-06
87 88 6.9154784753439281e-14
88 88 70604921.056178838
89 88 -1.0921411185903252e-06
90 88 99848007.470619321
91 88 -9.4108534837279134e-09
92 88 1.073527793201786e-06
93 88 6.9153103396960706e-14
94 88 8.4468065757531472e-21
95 88 -1.0921145457449145e-06
96 88 1.0293375138685386e-22
97 88 -1.1742000145191651e-20
98 88 -7.5638074325565113e-28
99 88 70601485.326498911
100 88 -9.4106245085977319e-09
101 88 1.0735016732365111e-06
102 88 6.9151420835343932e-14
103 88 6.271812358640354e-25
104 88 -1.0117945482625968e-22
105 88 -6.5176452305723217e-30
106 88 8.1613427615031735e-21
107 88 7.4348977096993165e-28
108 88 3.3865569409996801e-35
73 89 7.6007629326075822e-25
74 89 -7.0971488216988836e-10
75 89 -7.0969762692757258e-10
76 89 -1.8948067424349432e-07
77 89 -7.0968035929482452e-10
78 89 -5.3467915824837232e-08
79 89 8.2540941521780788e-08
80 89 -3.2219863316165748e-21
81 89 9.8792715635322813e-06
82 89 6.2132509057159211e-06
83 89 250211141.53905317
84 89 -1.544657810825148e-06
85 89 70604922.15187408
86 89 -108996145.83032919
87 89 4.2546654488786571e-06
88 89 -1.0921411185903252e-06
89 89 250205058.17724705
90 89 -9.3020521190607593e-06
91 89 70603205.540518954
92 89 -108993495.81647894
93 89 4.2545620055696737e-06
94 89 -3.8702575971613846e-06
95 89 250198970.44717374
96 89 -7.9582332800239836e-07
97 89 3.8821899464777889e-06
98 89 1.7328368452188358e-13
99 89 -1.2062680217208078e-05
100 89 70601487.696520224
101 89 -108990843.89973868
102 89 4.2544584879779084e-06
103 89 -9.4106248245029941e-09
104 89 7.6935292042979256e-07
105 89 4.8897439841804231e-14
106 89 -1.6572151811360613e-06
107 89 -7.5485237223777455e-14
108 89 4.167077335103011e-27
73 90 -2.7531456442505955e-21
74 90 2.6532676573768911e-06
75 90 2.5171963043341155e-06
76 90 -2.1657695458959348e-20
77 90 2.3811210053387778e-06
78 90 2.2657673169208192e-22
79 90 2.2116261215811727e-20
80 90 5.9666537062993757e-25
81 90 -154143819.52808115
82 90 -38388570.270853996
83 90 -7.3378721799685191e-06
84 90 141220292.89868575
85 90 -6.0886249319446342e-07
86 90 6.1198570343407819e-06
87 90 -7.8562714630610072e-10
88 90 99848007.470619321
89 90 -9.3020521190607593e-06
90 90 320806532.99962538
91 90 -6.2577433736985607e-07
92 90 8.0505881052694183e-06
93 90 -7.8548366453904828e-10
94 90 1.319420328471469e-19
95 90 -1.1266288268096834e-05
96 90 7.5757227774778103e-21
97 90 -1.7145988217710269e-19
98 90 8.5860670662531337e-24
99 90 353834762.44347
100 90 -6.4268665713847082e-07
101 90 9.9813744223706663e-06
102 90 -7.8534016548997693e-10
103 90 8.2521837273986493e-23
104 90 -7.3436019300868338e-21
105 90 7.360726705631815e-26
106 90 1.1086530729745153e-19
107 90 -8.4404919325893803e-24
108 90 -7.6938000450275957e-31
73 91 -2.9236013044452807e-30
74 91 2.7298878084900657e-15
75 91 2.7298219008751811e-15
76 91 -5.3467915824837219e-08
77 91 2.7297559455000731e-15
78 91 -5.34692157705484e-08
79 91 -5.3470514782765619e-08
80 91 -8.2670041709271996e-23
81 91 8.5695557643674576e-07
82 91 5.9928972653418337e-07
83 91 70604922.151874065
84 91 -1.3205450509179889e-08
85 91 70606638.743297607
86 91 70608354.102032959
87 91 1.0916662393008537e-07
88 91 -9.4108534837279134e-09
89 91 70603205.540518954
90 91 -6.2577433736985607e-07
91 91 70604922.090207145
92 91 70606637.407237142
93 91 1.091639697714193e-07
94 91 -1.0921145824061087e-06
95 91 70601487.696520239
96 91 -7.7891471890645262e-07
97 91 -1.3198825778872324e-08
98 91 4.8897439048784173e-14
99 91 -8.7554662824294279e-07
100 91 70603204.204443127
101 91 70604919.479737788
102 91 1.0916131370688352e-07
103 91 -9.4108536215524278e-09
104 91 7.5244415340209952e-07
105 91 4.8898629057930473e-14
106 91 1.0735538898326782e-06
107 91 4.8899818213606386e-14
108 91 1.0691927950488113e-28
73 92 -7.602746138130801e-25
74 92 7.0990006232610722e-10
75 92 7.0988280258245022e-10
76 92 8.2540941521780761e-08
77 92 7.098655304451279e-10
78 92 -5.3470514782765619e-08
79 92 -1.8947807094879272e-07
80 92 3.0566629838387821e-21
81 92 -8.1648550340026746e-06
82 92 -5.0141667544652351e-06
83 92 -108996145.83032916
84 92 1.5185415509947658e-06
85 92 70608354.102032959
86 92 250207703.86214152
87 92 -4.0363543006007393e-06
88 92 1.073527793201786e-06
89 92 -108993495.81647894
90 92 8.0505881052694183e-06
91 92 70606637.407237142
92 92 250201620.58391532
93 92 -4.0362561650717817e-06
94 92 1.6859487505887106e-06
95 92 -108990843.89973871
96 92 -7.6200658183349971e-07
97 92 -3.9084758847527795e-06
98 92 -7.5485238818454903e-14
99 92 1.0311498298526656e-05
100 92 70604919.479737788
101 92 250195532.937482
102 92 -4.0361579590713973e-06
103 92 -9.4110822543021825e-09
104 92 7.3553585851100115e-07
105 92 4.8899817420360582e-14
106 92 3.8042446557973365e-06
107 92 1.7328130689885581e-13
108 92 -3.9532604207253414e-27
73 93 5.1160414256626302e-38
74 93 -4.8365646529115716e-23
75 93 -4.7769484535840968e-23
76 93 -3.2219863311276767e-21
77 93 -4.717340021437485e-23
78 93 -8.2670041709276474e-23
79 93 3.0566629833497505e-21
80 93 -1.6040764529709471e-07
81 93 1.111222730813516e-09
82 93 7.8578292423638682e-10
83 93 4.2546654488821113e-06
84 93 1.6324572634751083e-13
85 93 1.091666239300888e-07
86 93 -4.0363543006041859e-06
87 93 211819913.56965858
88 93 6.9153103396960706e-14
89 93 4.2545620055696737e-06
90 93 -7.8548366453904828e-10
91 93 1.091639697714193e-07
92 93 -4.0362561650717817e-06
93 93 211814763.61045191
94 93 -6.5811023344588137e-20
95 93 4.254458487974455e-06
96 93 -1.5950007293677227e-21
97 93 8.9889961026298564e-20
98 93 -2.3167811777372094e-06
99 93 -1.1108837733045671e-09
100 93 1.091613137068801e-07
101 93 -4.0361579590679507e-06
102 93 211809609.95322454
103 93 -1.4550347339153259e-23
104 93 1.5540760334389794e-21
105 93 -1.996343498694146e-08
106 93 -6.137012985589504e-20
107 93 2.2772963518468277e-06
108 93 2.0745931062371058e-13
73 94 7.1336489600590016e-27
74 94 -9.9300799639971183e-23
75 94 1.0977846140745548e-23
76 94 -3.5567182577674736e-09
77 94 1.2125307564504077e-22
78 94 -1.0036396227648657e-09
79 94 1.5493657856978773e-09
80 94 -6.0479506186806825e-23
81 94 6.9113639207277056e-19
82 94 -1.0805457344603775e-19
83 94 3.500865919265819e-05
84 94 -1.1934899797161142e-18
85 94 9.8787913349307218e-06
86 94 -1.5250355756407002e-05
87 94 5.9529776237131612e-19
88 94 8.4468065757531472e-21
89 94 -3.8702575971613846e-06
90 94 1.319420328471469e-19
91 94 -1.0921145824061087e-06
92 94 1.6859487505887106e-06
93 94 -6.5811023344588137e-20
94 94 886660167.60599494
95 94 -4.2747969921904419e-05
96 94 353834789.17605823
97 94 -546231439.75598514
98 94 2.1322148743136911e-05
99 94 1.0304900339540687e-18
100 94 -1.20626806221402e-05
101 94 1.8621728572511153e-05
102 94 -7.2689932797493243e-19
103 94 70601490.066541627
104 94 -154136334.79170194
105 94 6.01671309622673e-06
106 94 168254307.95177123
107 94 -9.2882835653430865e-06
108 94 2.5637445079549376e-19
73 95 -3.6542540053558977e-23
74 95 1.0955669959230129e-09
75 95 -7.096803593294015e-10
76 95 9.1097501518085231e-06
77 95 -2.5149794935639539e-09
78 95 2.5706017579200158e-06
79 95 -3.9683590823209141e-06
80 95 1.5490493731037033e-19
81 95 -1.5250354949924612e-05
82 95 8.1775058395950472e-06
83 95 -386243934.72306418
84 95 3.7922409146601575e-05
85 95 -108990841.794705
86 95 168254299.05400273
87 95 -6.5678079473078585e-06
88 95 -1.0921145457449145e-06
89 95 250198970.44717374
90 95 -1.1266288268096834e-05
91 95 70601487.696520239
92 95 -108990843.89973871
93 95 4.254458487974455e-06
94 95 -4.2747969921904419e-05
95 95 886660130.38218594
96 95 -1.0723599935831428e-05
97 95 3.9006714524995214e-05
98 95 -2.7837184358529954e-09
99 95 -4.2747968127257123e-05
100 95 250198968.34223783
101 95 -386243938.93343616
102 95 1.5077035332775491e-05
103 95 -8.7554665636498551e-07
104 95 8.2470721598341306e-06
105 95 -7.8551347561996844e-10
106 95 -1.5918346449545294e-05
107 95 1.2126341727726986e-09
108 95 -6.6942060448672376e-23
73 96 -3.880500037890643e-32
74 96 -6.0904849601332541e-24
75 96 6.6858786395195611e-26
76 96 -7.0967070936192244e-10
77 96 6.222862630908717e-24
78 96 -7.0969490756630426e-10
79 96 -7.0971909318124232e-10
80 96 -1.0971161066050377e-24
81 96 8.4783656957435148e-20
82 96 -7.2860628435469264e-21
83 96 9.1326659872809178e-06
84 96 -1.3445907200520794e-19
85 96 7.5914598191185881e-06
86 96 6.0502977382254729e-06
87 96 4.7313926898646449e-20
88 96 1.0293375138685386e-22
89 96 -7.9582332800239836e-07
90 96 7.5757227774778103e-21
91 96 -7.7891471890645262e-07
92 96 -7.6200658183349971e-07
93 96 -1.5950007293677227e-21
94 96 353834789.17605823
95 96 -1.0723599935831428e-05
96 96 320806551.9081099
97 96 141220292.9103682
98 96 4.6413067002920698e-06
99 96 1.0577773393318406e-19
100 96 -9.148915623158586e-06
101 96 -7.5742763391234554e-06
102 96 -5.0495524196657141e-20
103 96 99848012.284718484
104 96 -38388575.562843993
105 96 4.3637233852502134e-06
106 96 -154143827.02032506
107 96 4.0861479604476739e-06
108 96 9.3028111334528174e-21
73 97 -1.0091135419946484e-26
74 97 1.2826575654855099e-22
75 97 -1.5394748111791351e-23
76 97 3.6112028657039207e-09
77 97 -1.5905310017120855e-22
78 97 1.5067515120422427e-13
79 97 -3.6107979563160589e-09
80 97 8.3347757270564283e-23
81 97 -8.0779714531814684e-19
82 97 1.3825078734380429e-19
83 97 -3.1242612656198963e-05
84 97 1.4188821977168108e-18
85 97 1.2125561684569009e-06
86 97 3.3666794241993882e-05
87 97 -7.4723096859405515e-19
88 97 -1.1742000145191651e-20
89 97 3.8821899464777889e-06
90 97 -1.7145988217710269e-19
91 97 -1.3198825778872324e-08
92 97 -3.9084758847527795e-06
93 97 8.9889961026298564e-20
94 97 -546231439.75598514
95 97 3.9006714524995214e-05
96 97 141220292.9103682
97 97 1054902293.6414539
98 97 -2.08712264345221e-05
99 97 -1.2457668024636407e-18
100 97 -1.2386872566352197e-06
101 97 -4.1482934817821866e-05
102 97 9.269987315734792e-19
103 97 99850438.050384834
104 97 141199395.97217798
105 97 2.185073361223692e-07
106 97 -546223935.0253911
107 97 2.1307636289448374e-05
108 97 -3.4396448634582447e-19
73 98 6.7905288302984852e-40
74 98 -7.8979420204573367e-27
75 98 -4.9151253329002528e-31
76 98 -2.1204768346247461e-22
77 98 7.8959169867807746e-27
78 98 -4.8865567433869093e-23
79 98 1.1431328550565642e-22
80 98 -2.1290928852264614e-09
81 98 1.0993980248584288e-22
82 98 -8.5893401335760469e-24
83 98 2.784432365060319e-09
84 98 -1.7264410904597293e-22
85 98 7.8571493313993719e-10
86 98 -1.2129451722415497e-09
87 98 2.0956590262843212e-05
88 98 -7.5638074325565113e-28
89 98 1.7328368452188358e-13
90 98 8.5860670662531337e-24
91 98 4.8897439048784173e-14
92 98 -7.5485238818454903e-14
93 98 -2.3167811777372094e-06
94 98 2.1322148743136911e-05
95 98 -2.7837184358529954e-09
96 98 4.6413067002920698e-06
97 98 -2.08712264345221e-05
98 98 750615176.09777164
99 98 1.3420960621950657e-22
100 98 -7.8551347559584857e-10
101 98 1.2126341728209427e-09
102 98 -2.5589431611524534e-05
103 98 1.5437741551302928e-07
104 98 -4.204675564793617e-06
105 98 211809617.06346148
106 98 8.8116924267270458e-06
107 98 -326980488.13162583
108 98 1.8050577908361175e-05
73 99 9.3595664788285135e-20
74 99 -5.6121069378004191e-06
75 99 3.6353797474745399e-06
76 99 -4.3920245852142857e-19
77 99 1.288313167365771e-05
78 99 -3.1878672463345008e-20
79 99 3.7544188540220119e-19
80 99 -4.0447303217978615e-23
81 99 168254290.15623459
82 99 -154136321.46632984
83 99 1.8621727587740938e-05
84 99 -546231387.9377929
85 99 1.3516225671179063e-06
86 99 -1.5918345581498001e-05
87 99 1.7149236020207905e-09
88 99 70601485.326498911
89 99 -1.2062680217208078e-05
90 99 353834762.44347
91 99 -8.7554662824294279e-07
92 99 1.0311498298526656e-05
93 99 -1.1108837733045671e-09
94 99 1.0304900339540687e-18
95 99 -4.2747968127257123e-05
96 99 1.0577773393318406e-19
97 99 -1.2457668024636407e-18
98 99 1.3420960621950657e-22
99 99 886660093.15837836
100 99 -3.1027796998555015e-06
101 99 3.6542094575919169e-05
102 99 -3.9367721998106618e-09
103 99 5.428936037677148e-21
104 99 -9.0421606479701654e-20
105 99 9.7413481844056335e-24
106 99 7.5300821944001721e-19
107 99 -1.1472592355431704e-22
108 99 8.739637360916917e-27
73 100 1.4055933426103705e-28
74 100 -4.2140300352843326e-15
75 100 2.7297552343557216e-15
76 100 2.5706017579200153e-06
77 100 9.6737396745133416e-15
78 100 2.5706642560121665e-06
79 100 2.5707267092242965e-06
80 100 3.9745658918098201e-21
81 100 -1.3228583335252418e-06
82 100 6.1620220507719697e-07
83 100 -108990841.79470497
84 100 3.1030470357046224e-06
85 100 -108993491.64883082
86 100 -108996139.60009043
87 100 -1.6851746132419149e-07
88 100 -9.4106245085977319e-09
89 100 70601487.696520224
90 100 -6.4268665713847082e-07
91 100 70603204.204443127
92 100 70604919.479737788
93 100 1.091613137068801e-07
94 100 -1.20626806221402e-05
95 100 250198968.34223783
96 100 -9.148915623158586e-06
97 100 -1.2386872566352197e-06
98 100 -7.8551347559584857e-10
99 100 -3.1027796998555015e-06
100 100 250205051.33744755
101 100 250211129.9644447
102 100 3.8684805325556591e-07
103 100 -8.7556794320782049e-07
104 100 6.6723728280010943e-06
105 100 -7.8553257348294545e-10
106 100 1.0311999880968075e-05
107 100 -7.8555165765579712e-10
108 100 -1.7176059612455736e-24
73 101 3.6552074802624202e-23
74 101 -1.0958528533034704e-09
75 101 7.0986553047828792e-10
76 101 -3.9683590823209133e-06
77 101 2.5156357067524644e-09
78 101 2.5707267092242965e-06
79 101 9.1096249920031874e-06
80 101 -1.4695661013589733e-19
81 101 1.2603858147077717e-05
82 101 -6.9449715541184672e-06
83 101 168254299.05400267
84 101 -3.1714951950928677e-05
85 101 -108996139.60009043
86 101 -386238628.07745081
87 101 6.2308071391659374e-06
88 101 1.0735016732365111e-06
89 101 -108990843.89973868
90 101 9.9813744223706663e-06
91 101 70604919.479737788
92 101 250195532.937482
93 101 -4.0361579590679507e-06
94 101 1.8621728572511153e-05
95 101 -386243938.93343616
96 101 -7.5742763391234554e-06
97 101 -4.1482934817821866e-05
98 101 1.2126341728209427e-09
99 101 3.6542094575919169e-05
100 101 250211129.9644447
101 101 886647948.46638489
102 101 -1.4303417539397663e-05
103 101 -8.7558921476452556e-07
104 101 5.0977185285715454e-06
105 101 -7.8555165763167757e-10
106 101 3.6541594054369987e-05
107 101 -2.7836801899585631e-09
108 101 6.350719623661553e-23
73 102 -2.4596629360837851e-36
74 102 1.023500491900781e-22
75 102 -4.7766504871322131e-23
76 102 1.5490492941457909e-19
77 102 -1.9788276979426229e-22
78 102 3.9745658918403168e-21
79 102 -1.4695660223804562e-19
80 102 7.7119926711820225e-06
81 102 -1.7153634217208927e-09
82 102 7.8563942147449792e-10
83 102 -6.5678079473131898e-06
84 102 3.9970663559489703e-09
85 102 -1.6851746132419676e-07
86 102 6.2308071391712577e-06
87 102 -326980470.83996332
88 102 6.9151420835343932e-14
89 102 4.2544584879779084e-06
90 102 -7.8534016548997693e-10
91 102 1.0916131370688352e-07
92 102 -4.0361579590713973e-06
93 102 211809609.95322454
94 102 -7.2689932797493243e-19
95 102 1.5077035332775491e-05
96 102 -5.0495524196657141e-20
97 102 9.269987315734792e-19
98 102 -2.5589431611524534e-05
99 102 -3.9367721998106618e-09
100 102 3.8684805325556591e-07
101 102 -1.4303417539397663e-05
102 102 750615144.58540988
103 102 -1.353736675228429e-21
104 102 4.6666675473845537e-20
105 102 -1.8573600667689441e-06
106 102 -5.8948952424513999e-19
107 102 2.1874523423163791e-05
108 102 -3.3327324154566062e-09
73 103 1.0554402542359424e-37
74 103 3.3131957167382369e-29
75 103 -3.6385500492156219e-31
76 103 3.8604573466175499e-15
77 103 -3.3852378444761132e-29
78 103 3.8605512044927543e-15
79 103 3.8606449949684064e-15
80 103 5.9688911553476895e-30
81 103 5.2003255576789104e-21
82 103 -8.0765668574715439e-23
83 103 8.5691392006811298e-07
84 103 -7.514284374141898e-21
85 103 8.5693475390010472e-07
86 103 8.5695557277127453e-07
87 103 1.3249274526683678e-21
88 103 6.271812358640354e-25
89 103 -9.4106248245029941e-09
90 103 8.2521837273986493e-23
91 103 -9.4108536215524278e-09
92 103 -9.4110822543021825e-09
93 103 -1.4550347339153259e-23
94 103 70601490.066541627
95 103 -8.7554665636498551e-07
96 103 99848012.284718484
97 103 99850438.050384834
98 103 1.5437741551302928e-07
99 103 5.428936037677148e-21
100 103 -8.7556794320782049e-07
101 103 -8.7558921476452556e-07
102 103 -1.353736675228429e-21
103 103 70604923.124235481
104 103 99852865.677246675
105 103 1.5438116883418201e-07
106 103 70608353.800018609
107 103 1.5438491946006148e-07
108 103 1.6878104412542893e-22
73 104 3.8815125453423591e-32
74 104 6.0921210410051036e-24
75 104 -6.6876747979291713e-26
76 104 7.0986134022780631e-10
77 104 -6.2245342750304536e-24
78 104 7.098855428677079e-10
79 104 7.0990973291498047e-10
80 104 1.097410851579502e-24
81 104 -7.0070577962993176e-20
82 104 7.0588539238321154e-21
83 104 -6.7085458650717149e-06
84 104 1.1320179469839081e-19
85 104 -5.1673249810512501e-06
86 104 -3.6261481948848454e-06
87 104 -4.3566103309104303e-20
88 104 -1.0117945482625968e-22
89 104 7.6935292042979256e-07
90 104 -7.3436019300868338e-21
91 104 7.5244415340209952e-07
92 104 7.3553585851100115e-07
93 104 1.5540760334389794e-21
94 104 -154136334.79170194
95 104 8.2470721598341306e-06
96 104 -38388575.562843993
97 104 141199395.97217798
98 104 -4.204675564793617e-06
99 104 -9.0421606479701654e-20
100 104 6.6723728280010943e-06
101 104 5.0977185285715454e-06
102 104 4.6666675473845537e-20
103 104 99852865.677246675
104 104 320809978.04820484
105 104 -3.9270896007207052e-06
106 104 353847126.69855505
107 104 -3.6495115287890606e-06
108 104 -8.8254745707648242e-21
73 105 -2.6119481849597783e-45
74 105 3.0378689848378122e-32
75 105 1.895086420363505e-36
76 105 -4.7768122336130068e-23
77 105 -3.0370891723694265e-32
78 105 -4.7769443983787892e-23
79 105 -4.7770764798315759e-23
80 105 8.1894657045931277e-15
81 105 9.5364851757260425e-24
82 105 -7.3635379811668152e-26
83 105 7.8571493316564989e-10
84 105 -1.3631524290639307e-23
85 105 7.8573403592736358e-10
86 105 7.857531249713151e-10
87 105 1.8178331037215053e-06
88 105 -6.5176452305723217e-30
89 105 4.8897439841804231e-14
90 105 7.360726705631815e-26
91 105 4.8898629057930473e-14
92 105 4.8899817420360582e-14
93 105 -1.996343498694146e-08
94 105 6.01671309622673e-06
95 105 -7.8551347561996844e-10
96 105 4.3637233852502134e-06
97 105 2.185073361223692e-07
98 105 211809617.06346148
99 105 9.7413481844056335e-24
100 105 -7.8553257348294545e-10
101 105 -7.8555165763167757e-10
102 105 -1.8573600667689441e-06
103 105 1.5438116883418201e-07
104 105 -3.9270896007207052e-06
105 105 211814766.71253684
106 105 -5.7082669700364625e-06
107 105 211819912.66363755
108 105 4.6314350068595316e-07
73 106 7.1373720962333618e-27
74 106 -8.2089876565005826e-23
75 106 1.0793566611065028e-23
76 106 -1.549770049166022e-09
77 106 1.0367738281482174e-22
78 106 1.0039502917706888e-09
79 106 3.5575974045886821e-09
80 106 -5.7391212829039906e-23
81 106 4.7207485777672736e-19
82 106 -8.7781145166872091e-20
83 106 1.2603858813605785e-05
84 106 -8.4317999038977782e-19
85 106 -8.1648549990789963e-06
86 106 -2.8932973267366721e-05
87 106 4.6674714357015529e-19
88 106 8.1613427615031735e-21
89 106 -1.6572151811360613e-06
90 106 1.1086530729745153e-19
91 106 1.0735538898326782e-06
92 106 3.8042446557973365e-06
93 106 -6.137012985589504e-20
94 106 168254307.95177123
95 106 -1.5918346449545294e-05
96 106 -154143827.02032506
97 106 -546223935.0253911
98 106 8.8116924267270458e-06
99 106 7.5300821944001721e-19
100 106 1.0311999880968075e-05
101 106 3.6541594054369987e-05
102 106 -5.8948952424513999e-19
103 106 70608353.800018609
104 106 353847126.69855505
105 106 -5.7082669700364625e-06
106 106 886635803.9407388
107 106 -2.0227810005912948e-05
108 106 2.307397782814214e-19
73 107 -6.7923006279984313e-40
74 107 7.9000027656920703e-27
75 107 4.9164078871634038e-31
76 107 1.1651878302512199e-22
77 107 -7.8979772036219669e-27
78 107 -4.6673041836467084e-23
79 107 -2.0986160450094275e-22
80 107 2.1296484121922236e-09
81 107 -9.0861208135759191e-23
82 107 8.443709398906828e-24
83 107 -1.2129451721900997e-09
84 107 1.4537638700726315e-22
85 107 7.8575312499702873e-10
86 107 2.7843941093634023e-09
87 107 -1.7319852015681225e-05
88 107 7.4348977096993165e-28
89 107 -7.5485237223777455e-14
90 107 -8.4404919325893803e-24
91 107 4.8899818213606386e-14
92 107 1.7328130689885581e-13
93 107 2.2772963518468277e-06
94 107 -9.2882835653430865e-06
95 107 1.2126341727726986e-09
96 107 4.0861479604476739e-06
97 107 2.1307636289448374e-05
98 107 -326980488.13162583
99 107 -1.1472592355431704e-22
100 107 -7.8555165765579712e-10
101 107 -2.7836801899585631e-09
102 107 2.1874523423163791e-05
103 107 1.5438491946006148e-07
104 107 -3.6495115287890606e-06
105 107 211819912.66363755
106 107 -2.0227810005912948e-05
107 107 750604863.31775498
108 107 -1.7124384665296703e-05
73 108 3.231956187730152e-53
74 108 -7.5180602883778917e-40
75 108 -4.6787185554517838e-44
76 108 -4.0708500159657458e-36
77 108 7.5161326554462905e-40
78 108 -1.0445026950015359e-37
79 108 3.8619706217736136e-36
80 108 -2.026686020080541e-22
81 108 8.7441207764917628e-27
82 108 7.6957732436146657e-31
83 108 6.6959228815190849e-23
84 108 -1.2362883533108064e-26
85 108 1.7180464688797775e-24
86 108 -6.3523483677041521e-23
87 108 3.3335871482095727e-09
88 108 3.3865569409996801e-35
89 108 4.167077335103011e-27
90 108 -7.6938000450275957e-31
91 108 1.0691927950488113e-28
92 108 -3.9532604207253414e-27
93 108 2.0745931062371058e-13
94 108 2.5637445079549376e-19
95 108 -6.6942060448672376e-23
96 108 9.3028111334528174e-21
97 108 -3.4396448634582447e-19
98 108 1.8050577908361175e-05
99 108 8.739637360916917e-27
100 108 -1.7176059612455736e-24
101 108 6.350719623661553e-23
102 108 -3.3327324154566062e-09
103 108 1.6878104412542893e-22
104 108 -8.8254745707648242e-21
105 108 4.6314350068595316e-07
106 108 2.307397782814214e-19
107 108 -1.7124384665296703e-05
108 108 635444292.15710187
109 109 704156311.5912838
110 109 -2.1253414733737412e-06
111 109 -6.6856246443798733e-07
112 109 -1.0775649229980548e-10
113 109 7.8872094421342702e-07
114 109 3.6122434091600736e-13
115 109 1.0897800247024003e-10
116 109 4.4899742206519419e-23
117 109 3.2074386780930599e-21
118 109 1.4268773130932928e-21
119 109 2.2997895092772763e-25
120 109 -1.6833251663413526e-21
121 109 -7.70941900579787e-28
122 109 -2.3258595512347014e-25
123 109 -9.5827131982463313e-38
124 109 3.1738391142536185e-22
125 109 7.2343807396293487e-26
126 109 -5.2951868476607704e-22
127 109 -2.4251294365980272e-28
128 109 -7.3163885097567093e-26
129 109 -3.0144061234791457e-38
130 109 8.2449460734917922e-30
131 109 -8.5345916219757248e-26
132 109 -3.9087363613882045e-32
133 109 -1.1792291731135786e-29
134 109 -4.8585113210958011e-42
135 109 4.4172062197036481e-22
136 109 2.8609897815326576e-28
137 109 8.6313383723965136e-26
138 109 3.5561751824518351e-38
139 109 9.265203075105054e-35
140 109 3.9530451646638254e-32
141 109 1.6286838150901456e-44
142 109 8.4329323098484072e-30
143 109 4.9135866197179764e-42
144 109 1.4314910035075055e-54
109 110 -2.1253414733737412e-06
110 110 447256401.3347047
111 110 234718719.54153666
112 110 2.0392675486298919e-06
113 110 22181191.569328133
114 110 1.0080988866365786e-06
115 110 -2.3218583254648154e-08
116 110 6.8185006179305252e-11
117 110 -1.3499454074911184e-06
118 110 -8.0121943463016015e-07
119 110 -4.8396720843469093e-11
120 110 3.0689844745141626e-07
121 110 1.622368451556955e-13
122 110 4.894533823992753e-11
123 110 2.0020317357073131e-23
124 110 -2.2285410640116879e-07
125 110 -2.5398443291319273e-11
126 110 1.7101162008149542e-07
127 110 8.5141374491378968e-14
128 110 2.5686355935688879e-11
129 110 1.0537191485894024e-23
130 110 -3.120675257523321e-25
131 110 -2.4001823838268667e-12
132 110 -1.0834464506770877e-25
133 110 2.2567892358865557e-25
134 110 -7.3781630816285131e-30
135 110 2.4845009652478914e-08
136 110 8.0459596242647173e-15
137 110 2.4273904647898186e-12
138 110 1.0541070867801731e-24
139 110 5.1714349485916967e-28
140 110 1.1031250515071656e-25
141 110 2.4733331333670023e-32
142 110 -3.5933993370909393e-27
143 110 7.4618008370740865e-30
144 110 4.3477409055416261e-42
109 111 -6.6856246443798733e-07
110 111 234718719.54153666
111 111 234718771.93639892
112 111 1.1386117768898504e-06
113 111 234718821.94293299
114 111 1.8641331319851113e-07
115 111 -7.6578006779090182e-07
116 111 2.7691620828159676e-13
117 111 -7.0844700389245562e-07
118 111 -6.5852944223875074e-07
119 111 -2.5398443292380261e-11
120 111 -3.1504463012562653e-07
121 111 8.5141374770328034e-14
122 111 2.5686355937307656e-11
123 111 1.0582377422735103e-23
124 111 -2.228541561475641e-07
125 111 -2.5398448960257879e-11
126 111 2.8321591885830821e-08
127 111 8.5141394048631147e-14
128 111 2.5686361669999711e-11
129 111 1.0582784881128868e-23
130 111 -1.7424087400655733e-25
131 111 -2.5398454369698701e-11
132 111 -1.9758394219070037e-26
133 111 2.0746708695931711e-25
134 111 -2.9964497829373401e-32
135 111 2.6290703899129104e-07
136 111 8.5141412460691552e-14
137 111 2.5686367141325569e-11
138 111 1.0583192372099699e-23
139 111 9.5627952330541818e-29
140 111 2.0122294272661065e-26
141 111 1.0045640855453483e-34
142 111 -1.1851513754209809e-25
143 111 3.0304187923081772e-32
144 111 1.7657253311488228e-44
109 112 -1.0775649229980548e-10
110 112 2.0392675486298919e-06
111 112 1.1386117768898504e-06
112 112 447256298.0450269
113 112 2.3762132553718916e-07
114 112 234718818.92723781
115 112 22181188.376817819
116 112 -4.5865944782664323e-07
117 112 -6.1550820717216909e-21
118 112 -3.7991689601608895e-21
119 112 -9.5455533142294049e-07
120 112 1.1080098409930867e-21
121 112 -5.0094789267726438e-07
122 112 -4.7340130736977196e-08
123 112 9.7889246757202252e-22
124 112 -1.0810569812222161e-21
125 112 -3.0027168472156243e-07
126 112 7.4227948887289078e-22
127 112 -1.5758171657549614e-07
128 112 -1.4891646763044353e-08
129 112 3.0792734661167976e-22
130 112 -6.8443283178724559e-11
131 112 3.5423850319391427e-07
132 112 -2.5236217234438025e-11
133 112 4.654514489642357e-11
134 112 2.0215466954207245e-23
135 112 2.6615811455187393e-22
136 112 1.8590334770390975e-07
137 112 1.7568072275362701e-08
138 112 -3.6327009140852923e-22
139 112 1.2040813846569328e-13
140 112 2.5694412769578383e-11
141 112 1.0582806538197483e-23
142 112 3.4328480224214368e-12
143 112 9.4990943603960766e-25
144 112 -2.9245908371484006e-38
109 113 7.8872094421342702e-07
110 113 22181191.569328133
111 113 234718821.94293299
112 113 2.3762132553718916e-07
113 113 447256300.88389993
114 113 -6.3527356587268101e-07
115 113 -1.5080095585867913e-06
116 113 -6.7278193247888293e-11
117 113 -6.6949064568640819e-08
118 113 -5.1583954801988219e-07
119 113 -2.4001823859491492e-12
120 113 -9.3698726267788337e-07
121 113 8.0459601816549902e-15
122 113 2.4273904680266603e-12
123 113 1.1436910763163333e-24
124 113 -2.2285420362635692e-07
125 113 -2.5398454370760038e-11
126 113 -1.1436833653506106e-07
127 113 8.5141412739547066e-14
128 113 2.5686367142944504e-11
129 113 1.062814119034174e-23
130 113 -3.6363005556623844e-26
131 113 -4.8396709969347862e-11
132 113 6.8827876506302295e-26
133 113 1.8918269973730104e-25
134 113 7.2800387702743517e-30
135 113 5.0096889871138199e-07
136 113 1.6223681036676045e-13
137 113 4.8945327245887063e-11
138 113 2.0112550399298948e-23
139 113 -3.2588825997332931e-28
140 113 -7.0067939060158895e-26
141 113 -2.4404379106295315e-32
142 113 -2.3338549508905824e-25
143 113 -7.3625641696109865e-30
144 113 -4.2899189898960092e-42
109 114 3.6122434091600736e-13
110 114 1.0080988866365786e-06
111 114 1.8641331319851113e-07
112 114 234718818.92723781
113 114 -6.3527356587268101e-07
114 114 234718768.52831313
115 114 234718715.74106202
116 114 5.7465652716187259e-07
117 114 -3.0427255338021597e-21
118 114 -1.0746531275170587e-21
119 114 -5.0094789267726438e-07
120 114 2.1542708633774611e-21
121 114 -5.0094778511351963e-07
122 114 -5.0094767245249683e-07
123 114 -1.2264588651675817e-21
124 114 -1.7699045648610909e-22
125 114 -1.5758171657549614e-07
126 114 5.741438169294235e-22
127 114 -1.575816827394829e-07
128 114 -1.5758164730003374e-07
129 114 -3.8580358577704418e-22
130 114 -3.5918838172727977e-11
131 114 1.8590334770390975e-07
132 114 -2.5313307179492167e-11
133 114 2.879239332021833e-13
134 114 1.0520790477660723e-23
135 114 -7.1156582345633711e-22
136 114 1.8590330778666382e-07
137 114 1.8590326597780184e-07
138 114 4.5514276472399951e-22
139 114 1.2040811261160654e-13
140 114 2.5771502670312595e-11
141 114 1.0583179088682744e-23
142 114 3.6325992343995412e-11
143 114 1.0645855582630004e-23
144 114 3.6642332820327141e-38
109 115 1.0897800247024003e-10
110 115 -2.3218583254648154e-08
111 115 -7.6578006779090182e-07
112 115 22181188.376817819
113 115 -1.5080095585867913e-06
114 115 234718715.74106202
115 115 447256396.92626333
116 115 1.6069009803386787e-06
117 115 7.0080148151853958e-23
118 115 1.6499517616290742e-21
119 115 -4.7340130736977434e-08
120 115 3.2000749101949661e-21
121 115 -5.0094767245249693e-07
122 115 -9.5455554245990503e-07
123 115 -3.429523305888953e-21
124 115 7.2707124247177061e-22
125 115 -1.4891646763044429e-08
126 115 4.0590549592325757e-22
127 115 -1.5758164730003379e-07
128 115 -3.0027175110684439e-07
129 115 -1.0788151372179217e-21
130 115 -3.3943699931137596e-12
131 115 1.756807227536279e-08
132 115 -2.5390396921040643e-11
133 115 -4.5969330246651124e-11
134 115 8.2622312057117286e-25
135 115 -1.689111786966159e-21
136 115 1.8590326597780189e-07
137 115 3.5423858151039936e-07
138 115 1.2727069479940583e-21
139 115 1.2040808553233498e-13
140 115 2.5848592365477884e-11
141 115 1.0583551142801871e-23
142 115 6.9219160471506172e-11
143 115 2.034169140308891e-23
144 115 1.0246224961836029e-37
109 116 4.4899742206519419e-23
110 116 6.8185006179305252e-11
111 116 2.7691620828159676e-13
112 116 -4.5865944782664323e-07
113 116 -6.7278193247888293e-11
114 116 5.7465652716187259e-07
115 116 1.6069009803386787e-06
116 116 704156311.59076738
117 116 -2.058014947955961e-25
118 116 -4.6367951914988933e-26
119 116 9.7889246111246064e-22
120 116 1.9759255033054464e-25
121 116 -1.226458864036562e-21
122 116 -3.4295232971331805e-21
123 116 -1.5028433681584782e-06
124 116 -2.6291858748403221e-28
125 116 3.079273468706769e-22
126 116 4.5387467774935766e-26
127 116 -3.858035854289425e-22
128 116 -1.0788151367805764e-21
129 116 -4.7274505225054413e-07
130 116 7.0188298380305198e-26
131 116 -3.6327008446938629e-22
132 116 -6.2348806809692839e-26
133 116 -2.240727682488121e-25
134 116 -7.6195346422012563e-11
135 116 -7.5357870446688513e-26
136 116 4.5514276428904882e-22
137 116 1.2727069401512971e-21
138 116 5.5770992811676178e-07
139 116 2.9479239434890557e-28
140 116 6.3470207542012527e-26
141 116 2.5542418099116272e-13
142 116 2.4869032068031958e-25
143 116 7.7059084546814521e-11
144 116 4.4899742206486487e-23
109 117 3.2074386780930599e-21
110 117 -1.3499454074911184e-06
111 117 -7.0844700389245562e-07
112 117 -6.1550820717216909e-21
113 117 -6.6949064568640819e-08
114 117 -3.0427255338021597e-21
115 117 7.0080148151853958e-23
116 117 -2.058014947955961e-25
117 117 284082220.44167298
118 117 210838643.74058145
119 117 1.8317942642884091e-06
120 117 19924496.674836226
121 117 9.0553579377904487e-07
122 117 -2.0856345043759875e-08
123 117 6.1247923703604939e-11
124 117 78239556.184218809
125 117 9.6131973269522496e-07
126 117 10456311.710846564
127 117 4.7522226933044446e-07
128 117 -1.0945342734903271e-08
129 117 3.2142713180598092e-11
130 117 5.905808222462924e-21
131 117 9.0845831094927526e-08
132 117 4.1287944741890662e-21
133 117 -9.5094597872370722e-23
134 117 2.7926018019415982e-25
135 117 698715.9687930342
136 117 4.4909056314803501e-08
137 117 -1.0343475989859431e-09
138 117 3.0375237220508361e-12
139 117 1.4432354698934844e-21
140 117 -4.7009407031803179e-23
141 117 1.3805048627621565e-25
142 117 7.6560076147686519e-25
143 117 -3.1795856055781014e-27
144 117 6.6025042893749495e-30
109 118 1.4268773130932928e-21
110 118 -8.0121943463016015e-07
111 118 -6.5852944223875074e-07
112 118 -3.7991689601608895e-21
113 118 -5.1583954801988219e-07
114 118 -1.0746531275170587e-21
115 118 1.6499517616290742e-21
116 118 -4.6367951914988933e-26
117 118 210838643.74058145
118 118 227325024.18881249
119 118 1.4029635997063941e-06
120 118 156479228.68400183
121 118 4.5443635482226173e-07
122 118 -4.9413726432245129e-07
123 118 2.2904218315786246e-11
124 118 110647466.16894358
125 118 1.0592930301299474e-06
126 118 85633320.885408178
127 118 3.9817072179277365e-07
128 118 -2.6299949494372751e-07
129 118 2.2820640911953678e-11
130 118 4.6633262619247003e-21
131 118 7.1562270236332764e-07
132 118 2.1699441724512298e-21
133 118 -2.2552768012278965e-21
134 118 1.1105624701933079e-25
135 118 10456316.272651099
136 118 3.4190512606551993e-07
137 118 -3.1861892768747174e-08
138 118 2.2737063337345594e-11
139 118 3.7742093133703612e-22
140 118 -1.102468690547452e-21
141 118 1.8447256127337302e-26
142 118 3.5709658428183534e-23
143 118 -7.416130111556666e-26
144 118 3.7921296926123533e-32
109 119 2.2997895092772763e-25
110 119 -4.8396720843469093e-11
111 119 -2.5398443292380261e-11
112 119 -9.5455533142294049e-07
113 119 -2.4001823859491492e-12
114 119 -5.0094789267726438e-07
115 119 -4.7340130736977434e-08
116 119 9.7889246111246064e-22
117 119 1.8317942642884091e-06
118 119 1.4029635997063941e-06
119 119 284082154.83554429
120 119 2.1516677551243539e-07
121 119 149085497.85159379
122 119 14088744.682730354
123 119 -2.9132505197535806e-07
124 119 5.3674662310215526e-07
125 119 149085400.29525462
126 119 1.1507379527651764e-07
127 119 78239589.312778667
128 119 7393727.8527700407
129 119 -1.528864493967429e-07
130 119 1.8317938412526765e-06
131 119 14088743.456841381
132 119 1.3200663422171718e-06
133 119 4.9490034358726757e-08
134 119 4.3308812181320087e-11
135 119 1.0585617771835634e-08
136 119 7393732.0476272916
137 119 698715.86822774529
138 119 -1.4447947010990005e-08
139 119 4.7522247055128674e-07
140 119 2.4015964338990715e-08
141 119 2.272834007881478e-11
142 119 -1.0343474501136261e-09
143 119 2.1478533127544678e-12
144 119 -6.2809473006069258e-26
109 120 -1.6833251663413526e-21
110 120 3.0689844745141626e-07
111 120 -3.1504463012562653e-07
112 120 1.1080098409930867e-21
113 120 -9.3698726267788337e-07
114 120 2.1542708633774611e-21
115 120 3.2000749101949661e-21
116 120 1.9759255033054464e-25
117 120 19924496.674836226
118 120 156479228.68400183
119 120 2.1516677551243539e-07
120 120 284780872.60749394
121 120 -3.7174890020996974e-07
122 120 -9.5856833643889429e-07
123 120 -4.0584991493650206e-11
124 120 110647489.74224468
125 120 7.5896308768686081e-07
126 120 156479133.38416827
127 120 1.2427522652653801e-07
128 120 -5.1040927311209993e-07
129 120 3.0228082722814575e-13
130 120 9.7320769160246609e-22
131 120 1.302759017022315e-06
132 120 -1.4995917277241232e-21
133 120 -4.3750970282075829e-21
134 120 -1.7183120153784619e-25
135 120 19924492.199927155
136 120 6.2029899769218874e-07
137 120 -6.2250534212456466e-08
138 120 4.1189523787819228e-11
139 120 -1.2862039559918203e-21
140 120 -2.1379807012846859e-21
141 120 -1.5783314285934251e-25
142 120 7.032111242972984e-23
143 120 -1.4380548050575308e-25
144 120 -9.2131708672389887e-30
109 121 -7.70941900579787e-28
110 121 1.622368451556955e-13
111 121 8.5141374770328034e-14
112 121 -5.0094789267726438e-07
113 121 8.0459601816549902e-15
114 121 -5.0094778511351963e-07
115 121 -5.0094767245249693e-07
116 121 -1.226458864036562e-21
117 121 9.0553579377904487e-07
118 121 4.5443635482226173e-07
119 121 149085497.85159379
120 121 -3.7174890020996974e-07
121 121 149085465.83989227
122 121 149085432.3112061
123 121 3.6500249463232894e-07
124 121 8.7876061567841195e-08
125 121 78239589.312778667
126 121 -2.058857184751663e-07
127 121 78239572.513140753
128 121 78239554.917394206
129 121 1.9155213410898384e-07
130 121 9.6132013974173522e-07
131 121 7393732.0476272916
132 121 1.0157888752441243e-06
133 121 6.7201616152352412e-07
134 121 2.2728340081135645e-11
135 121 -2.8300335081995816e-08
136 121 7393730.4600420007
137 121 7393728.7972235177
138 121 1.810189911773574e-08
139 121 4.7522236851131557e-07
140 121 3.2829335608797018e-07
141 121 2.2728335200055267e-11
142 121 -1.0945342557680518e-08
143 121 2.2728330087707851e-11
144 121 7.8694276988222695e-26
109 122 -2.3258595512347014e-25
110 122 4.894533823992753e-11
111 122 2.5686355937307656e-11
112 122 -4.7340130736977196e-08
113 122 2.4273904680266603e-12
114 122 -5.0094767245249683e-07
115 122 -9.5455554245990503e-07
116 122 -3.4295232971331805e-21
117 122 -2.0856345043759875e-08
118 122 -4.9413726432245129e-07
119 122 14088744.682730354
120 122 -9.5856833643889429e-07
121 122 149085432.3112061
122 122 284082217.64157933
123 122 1.0206494466311658e-06
124 122 -3.6099210395940538e-07
125 122 7393727.852770078
126 122 -5.2679210795469553e-07
127 122 78239554.917394221
128 122 149085433.25565961
129 122 5.3563354375506436e-07
130 122 9.0845818019604584e-08
131 122 698715.86822774878
132 122 7.1151118455725006e-07
133 122 1.2945427391538392e-06
134 122 2.1478533173930103e-12
135 122 -6.7179209549296564e-08
136 122 7393728.7972235186
137 122 14088746.57163793
138 122 5.0617991901948341e-08
139 122 4.7522226163582945e-07
140 122 6.3257096813205564e-07
141 122 2.2728330090027311e-11
142 122 -2.0856344838186574e-08
143 122 4.3308821757483261e-11
144 122 2.2005129127124371e-25
109 123 -9.5827131982463313e-38
110 123 2.0020317357073131e-23
111 123 1.0582377422735103e-23
112 123 9.7889246757202252e-22
113 123 1.1436910763163333e-24
114 123 -1.2264588651675817e-21
115 123 -3.429523305888953e-21
116 123 -1.5028433681584782e-06
117 123 6.1247923703604939e-11
118 123 2.2904218315786246e-11
119 123 -2.9132505197535806e-07
120 123 -4.0584991493650206e-11
121 123 3.6500249463232894e-07
122 123 1.0206494466311658e-06
123 123 447256401.33437669
124 123 1.3053952421943139e-13
125 123 -1.5288644954021286e-07
126 123 -2.2417336578253256e-11
127 123 1.9155213393620061e-07
128 123 5.356335435529678e-07
129 123 234718719.54136449
130 123 -1.8784968623628819e-21
131 123 -1.4447947024548085e-08
132 123 1.0075949268364189e-21
133 123 4.6687793467126285e-21
134 123 2.0392675486283961e-06
135 123 -2.9971267792877322e-12
136 123 1.8101899101407522e-08
137 123 5.0617991882849984e-08
138 123 22181191.569311865
139 123 1.1634759222038062e-21
140 123 2.2815564552224851e-21
141 123 1.0080988866358392e-06
142 123 -7.493259165087769e-23
143 123 -2.3218583254631124e-08
144 123 9.6428160489196043e-11
109 124 3.1738391142536185e-22
110 124 -2.2285410640116879e-07
111 124 -2.228541561475641e-07
112 124 -1.0810569812222161e-21
113 124 -2.2285420362635692e-07
114 124 -1.7699045648610909e-22
115 124 7.2707124247177061e-22
116 124 -2.6291858748403221e-28
117 124 78239556.184218809
118 124 110647466.16894358
119 124 5.3674662310215526e-07
120 124 110647489.74224468
121 124 8.7876061567841195e-08
122 124 -3.6099210395940538e-07
123 124 1.3053952421943139e-13
124 124 78239591.1141233
125 124 5.367467422669107e-07
126 124 110647514.44142504
127 124 8.7876079103792434e-08
128 124 -3.6099218805064558e-07
129 124 1.3053955324619066e-13
130 124 1.8411207243779681e-21
131 124 5.3674685662011739e-07
132 124 4.2628349555950412e-22
133 124 -1.7511592843161103e-21
134 124 6.332423753321583e-28
135 124 78239624.451816425
136 124 8.7876097825678658e-08
137 124 -3.6099226495956939e-07
138 124 1.3053958105747546e-13
139 124 4.9349729265533067e-23
140 124 -2.8669947979932007e-22
141 124 1.036743266135938e-28
142 124 8.3279678470909703e-22
143 124 -4.258908953449579e-28
144 124 1.0889994898400606e-34
109 125 7.2343807396293487e-26
110 125 -2.5398443291319273e-11
111 125 -2.5398448960257879e-11
112 125 -3.0027168472156243e-07
113 125 -2.5398454370760038e-11
114 125 -1.5758171657549614e-07
115 125 -1.4891646763044429e-08
116 125 3.079273468706769e-22
117 125 9.6131973269522496e-07
118 125 1.0592930301299474e-06
119 125 149085400.29525462
120 125 7.5896308768686081e-07
121 125 78239589.312778667
122 125 7393727.852770078
123 125 -1.5288644954021286e-07
124 125 5.367467422669107e-07
125 125 149085433.57470089
126 125 4.5874445154311513e-07
127 125 78239606.777736366
128 125 7393729.5032278867
129 125 -1.528864835246747e-07
130 125 1.0227701813260847e-06
131 125 149085465.33716178
132 125 4.9794077548398089e-07
133 125 -4.5053092715827374e-07
134 125 1.7588781868981632e-13
135 125 1.1201579163038149e-07
136 125 78239623.446584493
137 125 7393731.0784524987
138 125 -1.5288651609694443e-07
139 125 8.7876096696636162e-08
140 125 -2.4938798582526455e-07
141 125 9.2305421671618666e-14
142 125 -3.4114168456371741e-08
143 125 8.7229651010863868e-15
144 125 -2.5508483585479125e-28
109 126 -5.2951868476607704e-22
110 126 1.7101162008149542e-07
111 126 2.8321591885830821e-08
112 126 7.4227948887289078e-22
113 126 -1.1436833653506106e-07
114 126 5.741438169294235e-22
115 126 4.0590549592325757e-22
116 126 4.5387467774935766e-26
117 126 10456311.710846564
118 126 85633320.885408178
119 126 1.1507379527651764e-07
120 126 156479133.38416827
121 126 -2.058857184751663e-07
122 126 -5.2679210795469553e-07
123 126 -2.2417336578253256e-11
124 126 110647514.44142504
125 126 4.5874445154311513e-07
126 126 227325058.9728083
127 126 -1.496200718825784e-07
128 126 -7.5792993438207045e-07
129 126 -2.2333759127316425e-11
130 126 5.4338418701501355e-22
131 126 8.0241485920808565e-07
132 126 -9.6432308429400914e-22
133 126 -2.696848813063695e-21
134 126 -1.0869453373525225e-25
135 126 210838688.37077603
136 126 -9.3354462658852691e-08
137 126 -9.8906759197694011e-07
138 126 -2.2250181507591901e-11
139 126 -2.3783930729793882e-22
140 126 2.9164941477903472e-22
141 126 -1.8060575822564233e-26
142 126 2.3192847579444692e-21
143 126 7.257295895241904e-26
144 126 -3.7416970178124388e-32
109 127 -2.4251294365980272e-28
110 127 8.5141374491378968e-14
111 127 8.5141394048631147e-14
112 127 -1.5758171657549614e-07
113 127 8.5141412739547066e-14
114 127 -1.575816827394829e-07
115 127 -1.5758164730003379e-07
116 127 -3.858035854289425e-22
117 127 4.7522226933044446e-07
118 127 3.9817072179277365e-07
119 127 78239589.312778667
120 127 1.2427522652653801e-07
121 127 78239572.513140753
122 127 78239554.917394221
123 127 1.9155213393620061e-07
124 127 8.7876079103792434e-08
125 127 78239606.777736366
126 127 -1.496200718825784e-07
127 127 78239589.978094697
128 127 78239572.382344216
129 127 1.9155217686802623e-07
130 127 5.3674684972393046e-07
131 127 78239623.446584493
132 127 4.4167503960428556e-07
133 127 1.2427709514038665e-07
134 127 9.2305422722253167e-14
135 127 -2.994708958837742e-07
136 127 78239606.646939248
137 127 78239589.051185012
138 127 1.9155221767797246e-07
139 127 8.7876077827843284e-08
140 127 -1.9312226385801388e-07
141 127 9.2305402125311913e-14
142 127 -3.6099210162348227e-07
143 127 9.2305380589142578e-14
144 127 3.1959696153337483e-28
109 128 -7.3163885097567093e-26
110 128 2.5686355935688879e-11
111 128 2.5686361669999711e-11
112 128 -1.4891646763044353e-08
113 128 2.5686367142944504e-11
114 128 -1.5758164730003374e-07
115 128 -3.0027175110684439e-07
116 128 -1.0788151367805764e-21
117 128 -1.0945342734903271e-08
118 128 -2.6299949494372751e-07
119 128 7393727.8527700407
120 128 -5.1040927311209993e-07
121 128 78239554.917394206
122 128 149085433.25565961
123 128 5.356335435529678e-07
124 128 -3.6099218805064558e-07
125 128 7393729.5032278867
126 128 -7.5792993438207045e-07
127 128 78239572.382344216
128 128 149085466.53511325
129 128 5.3563366332135121e-07
130 128 5.0723171830891049e-08
131 128 7393731.0784525359
132 128 3.8540925977350368e-07
133 128 6.99085530850727e-07
134 128 8.7229672006261098e-15
135 128 -7.1088268072452975e-07
136 128 78239589.051185027
137 128 149085498.29758114
138 128 5.356337774374179e-07
139 128 8.7876058064887751e-08
140 128 -1.368564985719623e-07
141 128 9.2305381639489277e-14
142 128 -6.878702713637626e-07
143 128 1.758878565699275e-13
144 128 8.9368282883277913e-28
109 129 -3.0144061234791457e-38
110 129 1.0537191485894024e-23
111 129 1.0582784881128868e-23
112 129 3.0792734661167976e-22
113 129 1.062814119034174e-23
114 129 -3.8580358577704418e-22
115 129 -1.0788151372179217e-21
116 129 -4.7274505225054413e-07
117 129 3.2142713180598092e-11
118 129 2.2820640911953678e-11
119 129 -1.528864493967429e-07
120 129 3.0228082722814575e-13
121 129 1.9155213410898384e-07
122 129 5.3563354375506436e-07
123 129 234718719.54136449
124 129 1.3053955324619066e-13
125 129 -1.528864835246747e-07
126 129 -2.2333759127316425e-11
127 129 1.9155217686802623e-07
128 129 5.3563366332135121e-07
129 129 234718771.93622676
130 129 -1.0488465095097711e-21
131 129 -1.5288651624041448e-07
132 129 8.0779004911297273e-22
133 129 3.0971371090460538e-21
134 129 1.1386117768890154e-06
135 129 -3.171525139437501e-11
136 129 1.9155221750518918e-07
137 129 5.3563377723532124e-07
138 129 234718821.94276083
139 129 2.1514496678825614e-22
140 129 -1.9954770837482923e-22
141 129 1.8641331319837439e-07
142 129 -2.4713775377603946e-21
143 129 -7.6578006779034024e-07
144 129 3.9161865739247969e-13
109 130 8.2449460734917922e-30
110 130 -3.120675257523321e-25
111 130 -1.7424087400655733e-25
112 130 -6.8443283178724559e-11
113 130 -3.6363005556623844e-26
114 130 -3.5918838172727977e-11
115 130 -3.3943699931137596e-12
116 130 7.0188298380305198e-26
117 130 5.905808222462924e-21
118 130 4.6633262619247003e-21
119 130 1.8317938412526765e-06
120 130 9.7320769160246609e-22
121 130 9.6132013974173522e-07
122 130 9.0845818019604584e-08
123 130 -1.8784968623628819e-21
124 130 1.8411207243779681e-21
125 130 1.0227701813260847e-06
126 130 5.4338418701501355e-22
127 130 5.3674684972393046e-07
128 130 5.0723171830891049e-08
129 130 -1.0488465095097711e-21
130 130 284082089.22943074
131 130 2.1344589186532409e-07
132 130 210838684.32363778
133 130 19924489.205753822
134 130 -4.1199574441601701e-07
135 130 8.0186591273251814e-23
136 130 1.1201579019118937e-07
137 130 1.0585616248261312e-08
138 130 -2.1888786213125415e-22
139 130 78239622.441352561
140 130 10456314.633343007
141 130 -2.1621418179032595e-07
142 130 698715.76766247093
143 130 -2.0432479670568999e-08
144 130 2.9875254345905267e-22
109 131 -8.5345916219757248e-26
110 131 -2.4001823838268667e-12
111 131 -2.5398454369698701e-11
112 131 3.5423850319391427e-07
113 131 -4.8396709969347862e-11
114 131 1.8590334770390975e-07
115 131 1.756807227536279e-08
116 131 -3.6327008446938629e-22
117 131 9.0845831094927526e-08
118 131 7.1562270236332764e-07
119 131 14088743.456841381
120 131 1.302759017022315e-06
121 131 7393732.0476272916
122 131 698715.86822774878
123 131 -1.4447947024548085e-08
124 131 5.3674685662011739e-07
125 131 149085465.33716178
126 131 8.0241485920808565e-07
127 131 78239623.446584493
128 131 7393731.0784525359
129 131 -1.5288651624041448e-07
130 131 2.1344589186532409e-07
131 131 284082091.03258693
132 131 -3.2429718249236088e-07
133 131 -9.5035156019611172e-07
134 131 -4.2732835246931694e-11
135 131 2.1344589322013071e-07
136 131 149085464.36798531
137 131 14088741.518492263
138 131 -2.9132498654569438e-07
139 131 -2.9947089263949873e-07
140 131 -5.2268131251451445e-07
141 131 -2.24260690395932e-11
142 131 -6.7179199719645402e-08
143 131 -2.119288363714742e-12
144 131 6.197415090919051e-26
109 132 -3.9087363613882045e-32
110 132 -1.0834464506770877e-25
111 132 -1.9758394219070037e-26
112 132 -2.5236217234438025e-11
113 132 6.8827876506302295e-26
114 132 -2.5313307179492167e-11
115 132 -2.5390396921040643e-11
116 132 -6.2348806809692839e-26
117 132 4.1287944741890662e-21
118 132 2.1699441724512298e-21
119 132 1.3200663422171718e-06
120 132 -1.4995917277241232e-21
121 132 1.0157888752441243e-06
122 132 7.1151118455725006e-07
123 132 1.0075949268364189e-21
124 132 4.2628349555950412e-22
125 132 4.9794077548398089e-07
126 132 -9.6432308429400914e-22
127 132 4.4167503960428556e-07
128 132 3.8540925977350368e-07
129 132 8.0779004911297273e-22
130 132 210838684.32363778
131 132 -3.2429718249236088e-07
132 132 227325053.85135251
133 132 156479128.86477849
134 132 2.1211589620578023e-07
135 132 -3.0317411552539756e-22
136 132 -1.3255079068996473e-07
137 132 5.9195734057309175e-08
138 132 6.0771289133336829e-22
139 132 110647511.41322532
140 132 85633317.441825435
141 132 3.8665733912103892e-08
142 132 10456310.036578568
143 132 -1.3478455040891194e-07
144 132 -5.2935206217653685e-22
109 133 -1.1792291731135786e-29
110 133 2.2567892358865557e-25
111 133 2.0746708695931711e-25
112 133 4.654514489642357e-11
113 133 1.8918269973730104e-25
114 133 2.879239332021833e-13
115 133 -4.5969330246651124e-11
116 133 -2.240727682488121e-25
117 133 -9.5094597872370722e-23
118 133 -2.2552768012278965e-21
119 133 4.9490034358726757e-08
120 133 -4.3750970282075829e-21
121 133 6.7201616152352412e-07
122 133 1.2945427391538392e-06
123 133 4.6687793467126285e-21
124 133 -1.7511592843161103e-21
125 133 -4.5053092715827374e-07
126 133 -2.696848813063695e-21
127 133 1.2427709514038665e-07
128 133 6.99085530850727e-07
129 133 3.0971371090460538e-21
130 133 19924489.205753822
131 133 -9.5035156019611172e-07
132 133 156479128.86477849
133 133 284780867.8031137
134 133 1.0062012659902175e-06
135 133 -7.1967336703940504e-22
136 133 -4.2346286768659229e-07
137 133 1.0342620313235285e-07
138 133 1.5245148788650664e-21
139 133 110647486.52907139
140 133 156479224.11516669
141 133 3.8274732363426705e-07
142 133 19924493.61074071
143 133 -2.4070706448730852e-07
144 133 -1.4802169773600636e-21
109 134 -4.8585113210958011e-42
110 134 -7.3781630816285131e-30
111 134 -2.9964497829373401e-32
112 134 2.0215466954207245e-23
113 134 7.2800387702743517e-30
114 134 1.0520790477660723e-23
115 134 8.2622312057117286e-25
116 134 -7.6195346422012563e-11
117 134 2.7926018019415982e-25
118 134 1.1105624701933079e-25
119 134 4.3308812181320087e-11
120 134 -1.7183120153784619e-25
121 134 2.2728340081135645e-11
122 134 2.1478533173930103e-12
123 134 2.0392675486283961e-06
124 134 6.332423753321583e-28
125 134 1.7588781868981632e-13
126 134 -1.0869453373525225e-25
127 134 9.2305422722253167e-14
128 134 8.7229672006261098e-15
129 134 1.1386117768890154e-06
130 134 -4.1199574441601701e-07
131 134 -4.2732835246931694e-11
132 134 2.1211589620578023e-07
133 134 1.0062012659902175e-06
134 134 447256298.04469883
135 134 -3.2107438226274215e-26
136 134 -2.2426069039671963e-11
137 134 -2.1192883641414081e-12
138 134 2.3762132553701486e-07
139 134 2.7089574041797902e-07
140 134 5.5373566684945968e-07
141 134 234718818.92706567
142 134 7.1584640317731184e-08
143 134 22181188.37680155
144 134 -6.4864241162651811e-07
109 135 4.4172062197036481e-22
110 135 2.4845009652478914e-08
111 135 2.6290703899129104e-07
112 135 2.6615811455187393e-22
113 135 5.0096889871138199e-07
114 135 -7.1156582345633711e-22
115 135 -1.689111786966159e-21
116 135 -7.5357870446688513e-26
117 135 698715.9687930342
118 135 10456316.272651099
119 135 1.0585617771835634e-08
120 135 19924492.199927155
121 135 -2.8300335081995816e-08
122 135 -6.7179209549296564e-08
123 135 -2.9971267792877322e-12
124 135 78239624.451816425
125 135 1.1201579163038149e-07
126 135 210838688.37077603
127 135 -2.994708958837742e-07
128 135 -7.1088268072452975e-07
129 135 -3.171525139437501e-11
130 135 8.0186591273251814e-23
131 135 2.1344589322013071e-07
132 135 -3.0317411552539756e-22
133 135 -7.1967336703940504e-22
134 135 -3.2107438226274215e-26
135 135 284082092.83574319
136 135 -5.7064126462677385e-07
137 135 -1.3545856900233344e-06
138 135 -6.0433355548235997e-11
139 135 5.7312914313667148e-22
140 135 1.9240253963568176e-21
141 135 8.5838283778019455e-26
142 135 3.2295284319046052e-21
143 135 2.0376253536083963e-25
144 135 6.4280546977862657e-30
109 136 2.8609897815326576e-28
110 136 8.0459596242647173e-15
111 136 8.5141412460691552e-14
112 136 1.8590334770390975e-07
113 136 1.6223681036676045e-13
114 136 1.8590330778666382e-07
115 136 1.8590326597780189e-07
116 136 4.5514276428904882e-22
117 136 4.4909056314803501e-08
118 136 3.4190512606551993e-07
119 136 7393732.0476272916
120 136 6.2029899769218874e-07
121 136 7393730.4600420007
122 136 7393728.7972235186
123 136 1.8101899101407522e-08
124 136 8.7876097825678658e-08
125 136 78239623.446584493
126 136 -9.3354462658852691e-08
127 136 78239606.646939248
128 136 78239589.051185027
129 136 1.9155221750518918e-07
130 136 1.1201579019118937e-07
131 136 149085464.36798531
132 136 -1.3255079068996473e-07
133 136 -4.2346286768659229e-07
134 136 -2.2426069039671963e-11
135 136 -5.7064126462677385e-07
136 136 149085432.35629094
137 136 149085398.82761231
138 136 3.6500241265520303e-07
139 136 -2.9947082833698121e-07
140 136 -7.1442765443576048e-07
141 136 -2.2426064225190344e-11
142 136 -7.1088235737573397e-07
143 136 -2.2426059182376268e-11
144 136 -7.7647698099401143e-26
109 137 8.6313383723965136e-26
110 137 2.4273904647898186e-12
111 137 2.5686367141325569e-11
112 137 1.7568072275362701e-08
113 137 4.8945327245887063e-11
114 137 1.8590326597780184e-07
115 137 3.5423858151039936e-07
116 137 1.2727069401512971e-21
117 137 -1.0343475989859431e-09
118 137 -3.1861892768747174e-08
119 137 698715.86822774529
120 137 -6.2250534212456466e-08
121 137 7393728.7972235177
122 137 14088746.57163793
123 137 5.0617991882849984e-08
124 137 -3.6099226495956939e-07
125 137 7393731.0784524987
126 137 -9.8906759197694011e-07
127 137 78239589.051185012
128 137 149085498.29758114
129 137 5.3563377723532124e-07
130 137 1.0585616248261312e-08
131 137 14088741.518492263
132 137 5.9195734057309175e-08
133 137 1.0342620313235285e-07
134 137 -2.1192883641414081e-12
135 137 -1.3545856900233344e-06
136 137 149085398.82761231
137 137 284082153.83860791
138 137 1.0206492174001072e-06
139 137 -2.9947076098726775e-07
140 137 -9.0617413001592196e-07
141 137 -2.2426059182595306e-11
142 137 -1.3545859809026598e-06
143 137 -4.2732844697766762e-11
144 137 -2.171247628791362e-25
109 138 3.5561751824518351e-38
110 138 1.0541070867801731e-24
111 138 1.0583192372099699e-23
112 138 -3.6327009140852923e-22
113 138 2.0112550399298948e-23
114 138 4.5514276472399951e-22
115 138 1.2727069479940583e-21
116 138 5.5770992811676178e-07
117 138 3.0375237220508361e-12
118 138 2.2737063337345594e-11
119 138 -1.4447947010990005e-08
120 138 4.1189523787819228e-11
121 138 1.810189911773574e-08
122 138 5.0617991901948341e-08
123 138 22181191.569311865
124 138 1.3053958105747546e-13
125 138 -1.5288651609694443e-07
126 138 -2.2250181507591901e-11
127 138 1.9155221767797246e-07
128 138 5.356337774374179e-07
129 138 234718821.94276083
130 138 -2.1888786213125415e-22
131 138 -2.9132498654569438e-07
132 138 6.0771289133336829e-22
133 138 1.5245148788650664e-21
134 138 2.3762132553701486e-07
135 138 -6.0433355548235997e-11
136 138 3.6500241265520303e-07
137 138 1.0206492174001072e-06
138 138 447256300.88357186
139 138 -7.3318749549603856e-22
140 138 -2.680383913930084e-21
141 138 -6.3527356587221504e-07
142 138 -4.866751051082454e-21
143 138 -1.5080095585856853e-06
144 138 -9.5145733343051822e-11
109 139 9.265203075105054e-35
110 139 5.1714349485916967e-28
111 139 9.5627952330541818e-29
112 139 1.2040813846569328e-13
113 139 -3.2588825997332931e-28
114 139 1.2040811261160654e-13
115 139 1.2040808553233498e-13
116 139 2.9479239434890557e-28
117 139 1.4432354698934844e-21
118 139 3.7742093133703612e-22
119 139 4.7522247055128674e-07
120 139 -1.2862039559918203e-21
121 139 4.7522236851131557e-07
122 139 4.7522226163582945e-07
123 139 1.1634759222038062e-21
124 139 4.9349729265533067e-23
125 139 8.7876096696636162e-08
126 139 -2.3783930729793882e-22
127 139 8.7876077827843284e-08
128 139 8.7876058064887751e-08
129 139 2.1514496678825614e-22
130 139 78239622.441352561
131 139 -2.9947089263949873e-07
132 139 110647511.41322532
133 139 110647486.52907139
134 139 2.7089574041797902e-07
135 139 5.7312914313667148e-22
136 139 -2.9947082833698121e-07
137 139 -2.9947076098726775e-07
138 139 -7.3318749549603856e-22
139 139 78239588.842066109
140 139 110647462.77079597
141 139 2.7089568249548275e-07
142 139 78239553.650569618
143 139 2.7089562157219778e-07
144 139 4.6897275331307513e-22
109 140 3.9530451646638254e-32
110 140 1.1031250515071656e-25
111 140 2.0122294272661065e-26
112 140 2.5694412769578383e-11
113 140 -7.0067939060158895e-26
114 140 2.5771502670312595e-11
115 140 2.5848592365477884e-11
116 140 6.3470207542012527e-26
117 140 -4.7009407031803179e-23
118 140 -1.102468690547452e-21
119 140 2.4015964338990715e-08
120 140 -2.1379807012846859e-21
121 140 3.2829335608797018e-07
122 140 6.3257096813205564e-07
123 140 2.2815564552224851e-21
124 140 -2.8669947979932007e-22
125 140 -2.4938798582526455e-07
126 140 2.9164941477903472e-22
127 140 -1.9312226385801388e-07
128 140 -1.368564985719623e-07
129 140 -1.9954770837482923e-22
130 140 10456314.633343007
131 140 -5.2268131251451445e-07
132 140 85633317.441825435
133 140 156479224.11516669
134 140 5.5373566684945968e-07
135 140 1.9240253963568176e-21
136 140 -7.1442765443576048e-07
137 140 -9.0617413001592196e-07
138 140 -2.680383913930084e-21
139 140 110647462.77079597
140 140 227325018.02098143
141 140 7.2718578655146652e-07
142 140 210838638.24860501
143 140 9.0063602611692732e-07
144 140 1.8545706442686878e-21
109 141 1.6286838150901456e-44
110 141 2.4733331333670023e-32
111 141 1.0045640855453483e-34
112 141 1.0582806538197483e-23
113 141 -2.4404379106295315e-32
114 141 1.0583179088682744e-23
115 141 1.0583551142801871e-23
116 141 2.5542418099116272e-13
117 141 1.3805048627621565e-25
118 141 1.8447256127337302e-26
119 141 2.272834007881478e-11
120 141 -1.5783314285934251e-25
121 141 2.2728335200055267e-11
122 141 2.2728330090027311e-11
123 141 1.0080988866358392e-06
124 141 1.036743266135938e-28
125 141 9.2305421671618666e-14
126 141 -1.8060575822564233e-26
127 141 9.2305402125311913e-14
128 141 9.2305381639489277e-14
129 141 1.8641331319837439e-07
130 141 -2.1621418179032595e-07
131 141 -2.24260690395932e-11
132 141 3.8665733912103892e-08
133 141 3.8274732363426705e-07
134 141 234718818.92706567
135 141 8.5838283778019455e-26
136 141 -2.2426064225190344e-11
137 141 -2.2426059182595306e-11
138 141 -6.3527356587221504e-07
139 141 2.7089568249548275e-07
140 141 7.2718578655146652e-07
141 141 234718768.52814099
142 141 7.5750020948941666e-07
143 141 234718715.74088985
144 141 8.1268705441794703e-07
109 142 8.4329323098484072e-30
110 142 -3.5933993370909393e-27
111 142 -1.1851513754209809e-25
112 142 3.4328480224214368e-12
113 142 -2.3338549508905824e-25
114 142 3.6325992343995412e-11
115 142 6.9219160471506172e-11
116 142 2.4869032068031958e-25
117 142 7.6560076147686519e-25
118 142 3.5709658428183534e-23
119 142 -1.0343474501136261e-09
120 142 7.032111242972984e-23
121 142 -1.0945342557680518e-08
122 142 -2.0856344838186574e-08
123 142 -7.493259165087769e-23
124 142 8.3279678470909703e-22
125 142 -3.4114168456371741e-08
126 142 2.3192847579444692e-21
127 142 -3.6099210162348227e-07
128 142 -6.878702713637626e-07
129 142 -2.4713775377603946e-21
130 142 698715.76766247093
131 142 -6.7179199719645402e-08
132 142 10456310.036578568
133 142 19924493.61074071
134 142 7.1584640317731184e-08
135 142 3.2295284319046052e-21
136 142 -7.1088235737573397e-07
137 142 -1.3545859809026598e-06
138 142 -4.866751051082454e-21
139 142 78239553.650569618
140 142 210838638.24860501
141 142 7.5750020948941666e-07
142 142 284082214.84148568
143 142 1.4434162756271672e-06
144 142 3.666985182278907e-21
109 143 4.9135866197179764e-42
110 143 7.4618008370740865e-30
111 143 3.0304187923081772e-32
112 143 9.4990943603960766e-25
113 143 -7.3625641696109865e-30
114 143 1.0645855582630004e-23
115 143 2.034169140308891e-23
116 143 7.7059084546814521e-11
117 143 -3.1795856055781014e-27
118 143 -7.416130111556666e-26
119 143 2.1478533127544678e-12
120 143 -1.4380548050575308e-25
121 143 2.2728330087707851e-11
122 143 4.3308821757483261e-11
123 143 -2.3218583254631124e-08
124 143 -4.258908953449579e-28
125 143 8.7229651010863868e-15
126 143 7.257295895241904e-26
127 143 9.2305380589142578e-14
128 143 1.758878565699275e-13
129 143 -7.6578006779034024e-07
130 143 -2.0432479670568999e-08
131 143 -2.119288363714742e-12
132 143 -1.3478455040891194e-07
133 143 -2.4070706448730852e-07
134 143 22181188.37680155
135 143 2.0376253536083963e-25
136 143 -2.2426059182376268e-11
137 143 -4.2732844697766762e-11
138 143 -1.5080095585856853e-06
139 143 2.7089562157219778e-07
140 143 9.0063602611692732e-07
141 143 234718715.74088985
142 143 1.4434162756271672e-06
143 143 447256396.92593527
144 143 2.2725011597839149e-06
109 144 1.4314910035075055e-54
110 144 4.3477409055416261e-42
111 144 1.7657253311488228e-44
112 144 -2.9245908371484006e-38
113 144 -4.2899189898960092e-42
114 144 3.6642332820327141e-38
115 144 1.0246224961836029e-37
116 144 4.4899742206486487e-23
117 144 6.6025042893749495e-30
118 144 3.7921296926123533e-32
119 144 -6.2809473006069258e-26
120 144 -9.2131708672389887e-30
121 144 7.8694276988222695e-26
122 144 2.2005129127124371e-25
123 144 9.6428160489196043e-11
124 144 1.0889994898400606e-34
125 144 -2.5508483585479125e-28
126 144 -3.7416970178124388e-32
127 144 3.1959696153337483e-28
128 144 8.9368282883277913e-28
129 144 3.9161865739247969e-13
130 144 2.9875254345905267e-22
131 144 6.197415090919051e-26
132 144 -5.2935206217653685e-22
133 144 -1.4802169773600636e-21
134 144 -6.4864241162651811e-07
135 144 6.4280546977862657e-30
136 144 -7.7647698099401143e-26
137 144 -2.171247628791362e-25
138 144 -9.5145733343051822e-11
139 144 4.6897275331307513e-22
140 144 1.8545706442686878e-21
141 144 8.1268705441794703e-07
142 144 3.666985182278907e-21
143 144 2.2725011597839149e-06
144 144 704156311.59025085
145 145 702683589.97740519
146 145 5.7004483192192214e-07
147 145 3.1345244181442837e-06
148 145 -1.4822307097540869e-09
149 145 5.699353936152215e-06
150 145 5.8234598378779608e-12
151 145 1.4947961838952634e-09
152 145 1.7161118394210736e-21
153 145 2.3122150213536454e-22
154 145 1.798066959873287e-21
155 145 -8.5025659736164706e-25
156 145 3.2693380679695037e-21
157 145 3.3405293211390852e-27
158 145 8.5746456924969746e-25
159 145 9.8441855486874963e-37
160 145 6.9912286753833887e-21
161 145 -4.675334143689588e-24
162 145 1.7977217635090649e-20
163 145 1.8368679339367462e-26
164 145 4.7149688577036014e-24
165 145 5.4130549478133735e-36
166 145 1.5632981246998726e-27
167 145 -8.50093363459565e-24
168 145 -8.6860451482954779e-30
169 145 -2.2295795802285988e-27
170 145 -2.5596853643224573e-39
171 145 2.3113272995729285e-20
172 145 3.3398879998746558e-26
173 145 8.5729995154726501e-24
174 145 9.8422956429520764e-36
175 145 2.4130835675604764e-32
176 145 8.759680294957706e-30
177 145 1.0056615895651562e-41
178 145 1.5899159047244076e-27
179 145 2.5813848609280012e-39
180 145 2.0955661178140486e-51
145 146 5.7004483192192214e-07
146 146 459344507.22073442
147 146 234230063.14849621
148 146 -4.6075054129577061e-07
149 146 9109037.0831055976
150 146 -1.4162780826212472e-06
151 146 -2.3724083474721699e-06
152 146 -2.686087020730302e-07
153 146 3.7263850493693952e-07
154 146 1.5832519859254264e-06
155 146 -6.8514031854236523e-10
156 146 2.6396715197083982e-06
157 146 2.6918124829559025e-12
158 146 6.9094853240317355e-10
159 146 6.3916574190104406e-22
160 146 1.0448512856633625e-06
161 146 -3.4936840988771649e-10
162 146 1.3720954509711307e-06
163 146 1.3726155338610613e-12
164 146 3.5233014835260918e-10
165 146 -4.4276519657154683e-22
166 146 9.719005987693118e-25
167 146 -1.3586683789266592e-11
168 146 2.1097649963770148e-24
169 146 2.8455280950121567e-24
170 146 4.0064624439428492e-25
171 146 7.3881939317557883e-08
172 146 5.3380013516785006e-14
173 146 1.37018636317683e-11
174 146 -1.5248020879745353e-21
175 146 -1.173734330935043e-26
176 146 -2.144275866124301e-24
177 146 -1.574078381795033e-27
178 146 -5.0467479175893344e-24
179 146 -4.0404268598588646e-25
180 146 -6.5600304372253398e-37
145 147 3.1345244181442837e-06
146 147 234230063.14849621
147 147 234227868.54442242
148 147 -9.1206765310997505e-07
149 147 234225671.33232334
150 147 -8.4199133435044935e-07
151 147 -7.7214535530272468e-07
152 147 -7.3142633058439952e-09
153 147 1.9001672855749932e-07
154 147 8.7318228782839872e-07
155 147 -3.4936840988678648e-10
156 147 1.477722820044442e-06
157 147 1.3726155378453704e-12
158 147 3.5233014835964957e-10
159 147 4.0029953501188465e-22
160 147 1.0448414959939356e-06
161 147 -3.4936513650345556e-10
162 147 2.0821582119895398e-06
163 147 1.3726026750362107e-12
164 147 3.5232684722214707e-10
165 147 3.8142039450366702e-22
166 147 1.9239024563764361e-24
167 147 -3.4936185923009651e-10
168 147 1.2505365513292975e-24
169 147 -2.2023533554186858e-25
170 147 1.090966934788037e-26
171 147 1.8997668664764136e-06
172 147 1.3725897969434218e-12
173 147 3.523235421616385e-10
174 147 3.6253867388712058e-22
175 147 -6.9779667397509331e-27
176 147 -1.2710528548736977e-24
177 147 -4.2862439050972855e-29
178 147 -1.6425599615270342e-24
179 147 -1.1002155066539624e-26
180 147 -1.7863080958252648e-38
145 148 -1.4822307097540869e-09
146 148 -4.6075054129577061e-07
147 148 -9.1206765310997505e-07
148 148 459348886.13692576
149 148 -1.3626162255859784e-06
150 148 234225665.28818896
151 148 9109029.0406617504
152 148 2.3115461609071177e-07
153 148 -3.7377914624262696e-22
154 148 -1.976517101350225e-21
155 148 2.6349772566339737e-07
156 148 -3.424152048077463e-21
157 148 1.3435959454364859e-07
158 148 5.2252405691057655e-09
159 148 1.3259793907139652e-22
160 148 -4.0685429400067165e-21
161 148 1.4489036808433515e-06
162 148 -9.5289570917218519e-21
163 148 7.3880755744965063e-07
164 148 2.8732203569531713e-08
165 148 7.2912068409354529e-22
166 148 -9.6894396743401633e-10
167 148 2.63447138861621e-06
168 148 -3.4667001206494204e-10
169 148 6.773684474035077e-10
170 148 7.9291136525214447e-22
171 148 -1.1051961735733769e-20
172 148 1.3433379992944909e-06
173 148 5.2242374173395121e-08
174 148 1.3257248266321415e-21
175 148 1.9411350631510747e-12
176 148 3.5237691304895653e-10
177 148 4.0448899841359282e-22
178 148 1.9377344288643689e-11
179 148 1.6078216281482515e-23
180 148 5.6453171678999772e-37
145 149 5.699353936152215e-06
146 149 9109037.0831055976
147 149 234225671.33232334
148 149 -1.3626162255859784e-06
149 149 459348890.18265086
150 149 -2.6741751451743853e-07
151 149 8.2792275301012617e-07
152 149 2.5401272862522051e-07
153 149 7.3896126038413706e-09
154 149 1.6309182694821764e-07
155 149 -1.3586683787405851e-11
156 149 3.157401482828179e-07
157 149 5.3380021486066143e-14
158 149 1.370186364584966e-11
159 149 1.6144063515714365e-22
160 149 1.0448316946906541e-06
161 149 -3.4936185922916361e-10
162 149 2.792241727563592e-06
163 149 1.3725898009289325e-12
164 149 3.5232354216867838e-10
165 149 1.2057086620663129e-21
166 149 2.8742831562084871e-24
167 149 -6.8514685600465067e-10
168 149 3.9088442531977738e-25
169 149 -3.2845520353732694e-24
170 149 -3.788754607257813e-25
171 149 3.7257052002791532e-06
172 149 2.6918381669035773e-12
173 149 6.9095512528468709e-10
174 149 2.2500775066637048e-21
175 149 -2.2162110770048359e-27
176 149 -3.9739917104358507e-25
177 149 1.488544269037538e-27
178 149 1.7612134243798e-24
179 149 3.8208734250083092e-25
180 149 6.2035638397562397e-37
145 150 5.8234598378779608e-12
146 150 -1.4162780826212472e-06
147 150 -8.4199133435044935e-07
148 150 234225665.28818896
149 150 -2.6741751451743853e-07
150 150 234227860.95449546
151 150 234230054.01279634
152 150 -1.6529526305014579e-06
153 150 -1.1489410045062343e-21
154 150 -4.9502967529024097e-21
155 150 1.3435959454364857e-07
156 150 -8.2760796014880455e-21
157 150 1.3436085405051918e-07
158 150 1.343621120613514e-07
159 150 -9.4818834204516598e-22
160 150 -3.7559471239211882e-21
161 150 7.3880755744965053e-07
162 150 -5.6725169686890234e-21
163 150 7.3881448314184111e-07
164 150 7.388214006077158e-07
165 150 -5.213834675282864e-21
166 150 -4.9407226674227418e-10
167 150 1.3433379992944907e-06
168 150 -3.4799253541338711e-10
169 150 2.9551368146364626e-12
170 150 4.0695312337671455e-22
171 150 -2.1689808124207906e-21
172 150 1.3433505919451712e-06
173 150 1.34336316963834e-06
174 150 -9.4800630701778351e-21
175 150 1.9411532596405553e-12
176 150 3.5369945129256484e-10
177 150 4.0448174905245919e-22
178 150 4.9827005480968706e-10
179 150 4.0200884233994955e-22
180 150 -4.0368831998723223e-36
145 151 1.4947961838952634e-09
146 151 -2.3724083474721699e-06
147 151 -7.7214535530272468e-07
148 151 9109029.0406617504
149 151 8.2792275301012617e-07
150 151 234230054.01279634
151 151 459344496.9917177
152 151 -3.5364652919148878e-06
153 151 -1.9245918160256765e-21
154 151 -7.9261096788339842e-21
155 151 5.2252405691058267e-09
156 151 -1.3131382708065402e-20
157 151 1.3436211206135142e-07
158 151 2.6349520790442412e-07
159 151 -2.0286335494222692e-21
160 151 -3.4443788050910148e-21
161 151 2.8732203569532024e-08
162 151 -1.8169513738618193e-21
163 151 7.3882140060771601e-07
164 151 1.4488898363586045e-06
165 151 -1.11549145611792e-20
166 151 -1.9214455514102655e-11
167 151 5.224237417339569e-08
168 151 -3.4931501628530049e-10
169 151 -6.7143845173701283e-10
170 151 2.1005365683057331e-23
171 151 6.715148298293514e-21
172 151 1.3433631696383402e-06
173 151 2.6344462158601198e-06
174 151 -2.0282440884393169e-20
175 151 1.9411714345163029e-12
176 151 3.5502194704194757e-10
177 151 4.0447449867186205e-22
178 151 9.7714876366842064e-10
179 151 7.8792899623870444e-22
180 151 -8.6368460054005081e-36
145 152 1.7161118394210736e-21
146 152 -2.686087020730302e-07
147 152 -7.3142633058439952e-09
148 152 2.3115461609071177e-07
149 152 2.5401272862522051e-07
150 152 -1.6529526305014579e-06
151 152 -3.5364652919148878e-06
152 152 702683589.97650599
153 152 -2.179060455974396e-22
154 152 -8.5145613849555193e-22
155 152 1.3299858511990087e-22
156 152 -1.3948225048042745e-21
157 152 -9.4818991772692177e-22
158 152 -2.0290375951191125e-21
159 152 4.0308256623182098e-07
160 152 -3.2627397626318716e-23
161 152 7.2913159268612336e-22
162 152 7.5927202742617226e-22
163 152 -5.2138347269618538e-21
164 152 -1.1154925579890596e-20
165 152 2.2164434718618034e-06
166 152 -4.8759423878975628e-25
167 152 1.3253459492136458e-21
168 152 2.4668341534073651e-24
169 152 5.6225574968752849e-24
170 152 -1.0480953861487226e-09
171 152 2.0602565154921428e-21
172 152 -9.4800615976642782e-21
173 152 -2.0282058827154318e-20
174 152 4.0300518166303148e-06
175 152 -1.3698773404153094e-26
176 152 -2.5071045357954021e-24
177 152 4.1178079413257485e-12
178 152 -7.5230087995201795e-24
179 152 1.0569805181227614e-09
180 152 1.7161118394188772e-21
145 153 2.3122150213536454e-22
146 153 3.7263850493693952e-07
147 153 1.9001672855749932e-07
148 153 -3.7377914624262696e-22
149 153 7.3896126038413706e-09
150 153 -1.1489410045062343e-21
151 153 -1.9245918160256765e-21
152 153 -2.179060455974396e-22
153 153 300273664.16888136
154 153 216539110.97864389
155 153 -4.259509272806839e-07
156 153 8421048.798491301
157 153 -1.3093092867200218e-06
158 153 -2.1932248471207209e-06
159 153 -2.4832119654575094e-07
160 153 78077420.997283667
161 153 -2.1720192802299294e-07
162 153 4294081.5898323869
163 153 -6.6764616118936366e-07
164 153 -1.1183745236188787e-06
165 153 -1.2662454570305982e-07
166 153 3.0211472749943091e-22
167 153 -8.4468252720794168e-09
168 153 1.3133170269736896e-21
169 153 2.1999382154549281e-21
170 153 2.4908129720747343e-22
171 153 118082.38838203264
172 153 -2.5964274435649256e-08
173 153 -4.349277317995859e-08
174 153 -4.9243366412334792e-09
175 153 2.8545473893560178e-21
176 153 6.7622802328291362e-21
177 153 7.6563856231990868e-22
178 153 8.0097521095328409e-21
179 153 1.2825216591875347e-21
180 153 1.0267869615637089e-22
145 154 1.798066959873287e-21
146 154 1.5832519859254264e-06
147 154 8.7318228782839872e-07
148 154 -1.976517101350225e-21
149 154 1.6309182694821764e-07
150 154 -4.9502967529024097e-21
151 154 -7.9261096788339842e-21
152 154 -8.5145613849555193e-22
153 154 216539110.97864389
154 154 231192260.14894265
155 154 -7.4980389832374929e-07
156 154 156149777.0444842
157 154 -1.0225071561905196e-06
158 154 -1.2955618969357287e-06
159 154 -9.4318411398846235e-08
160 154 110417113.13347444
161 154 -4.5760892354464546e-07
162 154 81112302.806828961
163 154 -7.5275911878197822e-07
164 154 -1.0481870024906382e-06
165 154 -9.1974346685882254e-08
166 154 8.4576185516075468e-22
167 154 -1.6540540377490584e-07
168 154 2.3903922248842962e-21
169 154 3.5856299194253535e-21
170 154 3.5344408610708918e-22
171 154 4294001.0757569512
172 154 -4.8300318923682628e-07
173 154 -8.0080486660314791e-07
174 154 -8.9630212463725304e-08
175 154 2.4000005574749665e-21
176 154 4.3990209213860769e-21
177 154 3.3660275216446448e-22
178 154 3.6867500366669236e-21
179 154 3.198557419409842e-22
180 154 3.9540836722905625e-24
145 155 -8.5025659736164706e-25
146 155 -6.8514031854236523e-10
147 155 -3.4936840988678648e-10
148 155 2.6349772566339737e-07
149 155 -1.3586683787405851e-11
150 155 1.3435959454364857e-07
151 155 5.2252405691058267e-09
152 155 1.3299858511990087e-22
153 155 -4.259509272806839e-07
154 155 -7.4980389832374929e-07
155 155 300276526.66791904
156 155 -8.9671550829743113e-07
157 155 153113398.88229266
158 155 5954575.452767686
159 155 1.5110585295353257e-07
160 155 -4.2995685739660523e-07
161 155 153117733.41754454
162 155 -4.6603300176197753e-07
163 155 78075955.030079961
164 155 3036371.5302989981
165 155 7.7052262350021627e-08
166 155 -4.2595498785696786e-07
167 155 5954637.474939541
168 155 -1.0794123736452916e-06
169 155 -1.5568317483686021e-06
170 155 -1.7559127587980149e-07
171 155 -2.4980504934527273e-08
172 155 3036317.200738668
173 155 118082.28412611962
174 155 2.9965065357074905e-09
175 155 -6.6763362558862942e-07
176 155 -8.0915485976334563e-07
177 155 -8.9535393799755297e-08
178 155 -4.3492734779831007e-08
179 155 -3.4820287575477839e-09
180 155 -1.2496196199671945e-22
145 156 3.2693380679695037e-21
146 156 2.6396715197083982e-06
147 156 1.477722820044442e-06
148 156 -3.424152048077463e-21
149 156 3.157401482828179e-07
150 156 -8.2760796014880455e-21
151 156 -1.3131382708065402e-20
152 156 -1.3948225048042745e-21
153 156 8421048.798491301
154 156 156149777.0444842
155 156 -8.9671550829743113e-07
156 156 300394611.70099294
157 156 -1.9317043679240863e-07
158 156 5.1045935681579032e-07
159 156 1.625661772374549e-07
160 156 110416077.34803
161 156 -6.0779174893081664e-07
162 156 156154052.04522234
163 156 -5.6122828486763398e-07
164 156 -5.1481853895729974e-07
165 156 -4.863691355681417e-09
166 156 1.2635562922617067e-21
167 156 -3.1885954741026648e-07
168 156 2.9217364418153883e-21
169 156 4.0576103934590658e-21
170 156 3.5431889346078086e-22
171 156 8421129.1502438542
172 156 -9.2929689950421533e-07
173 156 -1.5401264208362695e-06
174 156 -1.7229845630792915e-07
175 156 7.6224321764016475e-22
176 156 -7.6584299557580239e-22
177 156 -4.0974628250796608e-22
178 156 -3.9530694823913974e-21
179 156 -1.1740834503961653e-21
180 156 -1.3731903553546758e-22
145 157 3.3405293211390852e-27
146 157 2.6918124829559025e-12
147 157 1.3726155378453704e-12
148 157 1.3435959454364859e-07
149 157 5.3380021486066143e-14
150 157 1.3436085405051918e-07
151 157 1.3436211206135142e-07
152 157 -9.4818991772692177e-22
153 157 -1.3093092867200218e-06
154 157 -1.0225071561905196e-06
155 157 153113398.88229266
156 157 -1.9317043679240863e-07
157 157 153114834.19012105
158 157 153116267.79309526
159 157 -1.0805357095948731e-06
160 157 -3.9692225097821044e-07
161 157 78075955.030079946
162 157 -1.0005493113586676e-07
163 157 78076686.925722554
164 157 78077417.952021778
165 157 -5.5098938490406286e-07
166 157 -2.1719784987979866e-07
167 157 3036317.200738667
168 157 -6.2567177621226847e-07
169 157 -9.443803116526364e-07
170 157 -8.9535393799753736e-08
171 157 -4.9024994098909834e-09
172 157 3036345.663628784
173 157 3036374.0927107679
174 157 -2.1427577109547707e-08
175 157 -6.6763988408577131e-07
176 157 -1.2628998840816036e-06
177 157 -8.9536233117881575e-08
178 157 -1.1183744799987988e-06
179 157 -8.9537071439069927e-08
180 157 8.9358459410579956e-22
145 158 8.5746456924969746e-25
146 158 6.9094853240317355e-10
147 158 3.5233014835964957e-10
148 158 5.2252405691057655e-09
149 158 1.370186364584966e-11
150 158 1.343621120613514e-07
151 158 2.6349520790442412e-07
152 158 -2.0290375951191125e-21
153 158 -2.1932248471207209e-06
154 158 -1.2955618969357287e-06
155 158 5954575.452767686
156 158 5.1045935681579032e-07
157 158 153116267.79309526
158 158 300273657.48216963
159 158 -2.3117885916050901e-06
160 158 -3.6399622876241844e-07
161 158 3036371.5302990316
162 158 2.6596734135338843e-07
163 158 78077417.952021793
164 158 153116270.35540122
165 158 -1.1788328352371578e-06
166 158 -8.4468178143079227e-09
167 158 118082.2841261209
168 158 -1.7194444851383023e-07
169 158 -3.3194679012085689e-07
170 158 -3.4820287575447225e-09
171 158 1.5178101337361021e-08
172 158 3036374.0927107683
173 158 5954580.5775151039
174 158 -4.5843953020454957e-08
175 158 -6.6764613514909012e-07
176 158 -1.7166316334065145e-06
177 158 -8.9537071439068405e-08
178 158 -2.1932247982803988e-06
179 158 -1.7558959807968936e-07
180 158 1.9118097180354896e-21
145 159 9.8441855486874963e-37
146 159 6.3916574190104406e-22
147 159 4.0029953501188465e-22
148 159 1.3259793907139652e-22
149 159 1.6144063515714365e-22
150 159 -9.4818834204516598e-22
151 159 -2.0286335494222692e-21
152 159 4.0308256623182098e-07
153 159 -2.4832119654575094e-07
154 159 -9.4318411398846235e-08
155 159 1.5110585295353257e-07
156 159 1.625661772374549e-07
157 159 -1.0805357095948731e-06
158 159 -2.3117885916050901e-06
159 159 459344507.22014654
160 159 -3.4480091657624966e-09
161 159 7.7052262236231578e-08
162 159 8.457688839279588e-08
163 159 -5.5098938583578195e-07
164 159 -1.1788328369868058e-06
165 159 234230063.14819646
166 159 -2.143500605229391e-22
167 159 2.9965065312816039e-09
168 159 6.1794470617863728e-22
169 159 1.5384380329932158e-21
170 159 -4.6075054129518108e-07
171 159 4.656752283645729e-09
172 159 -2.1427577145782188e-08
173 159 -4.5843953088498027e-08
174 159 9109037.0830939412
175 159 4.7115535273910123e-21
176 159 1.2708560499925403e-20
177 159 -1.4162780826194341e-06
178 159 1.6885504101592654e-20
179 159 -2.3724083474691324e-06
180 159 -3.798700694426273e-07
145 160 6.9912286753833887e-21
146 160 1.0448512856633625e-06
147 160 1.0448414959939356e-06
148 160 -4.0685429400067165e-21
149 160 1.0448316946906541e-06
150 160 -3.7559471239211882e-21
151 160 -3.4443788050910148e-21
152 160 -3.2627397626318716e-23
153 160 78077420.997283667
154 160 110417113.13347444
155 160 -4.2995685739660523e-07
156 160 110416077.34803
157 160 -3.9692225097821044e-07
158 160 -3.6399622876241844e-07
159 160 -3.4480091657624966e-09
160 160 78075957.921014398
161 160 -4.2995282452270126e-07
162 160 110415042.81142993
163 160 -3.9691853032306006e-07
164 160 -3.6399281930729871e-07
165 160 -3.4479768654520901e-09
166 160 1.1838435046936082e-21
167 160 -4.2994879128125164e-07
168 160 1.5455742080449993e-21
169 160 1.4173636916801318e-21
170 160 1.3426191286259997e-23
171 160 78074493.119786143
172 160 -3.96914806965107e-07
173 160 -3.6398940481426026e-07
174 160 -3.4479445211519299e-09
175 160 1.0089169823135425e-21
176 160 1.3084642810742623e-21
177 160 1.2394625198926259e-23
178 160 8.484735636629026e-22
179 160 1.1366449852422892e-23
180 160 7.6134477124954865e-26
145 161 -4.675334143689588e-24
146 161 -3.4936840988771649e-10
147 161 -3.4936513650345556e-10
148 161 1.4489036808433515e-06
149 161 -3.4936185922916361e-10
150 161 7.3880755744965053e-07
151 161 2.8732203569532024e-08
152 161 7.2913159268612336e-22
153 161 -2.1720192802299294e-07
154 161 -4.5760892354464546e-07
155 161 153117733.41754454
156 161 -6.0779174893081664e-07
157 161 78075955.030079946
158 161 3036371.5302990316
159 161 7.7052262236231578e-08
160 161 -4.2995282452270126e-07
161 161 153116298.7904219
162 161 -7.5822512765154091e-07
163 161 78075223.502253547
164 161 3036343.0812039487
165 161 7.7051540413620065e-08
166 161 -8.4318895212279763e-07
167 161 153114862.45841601
168 161 -8.5443497325396414e-07
169 161 -5.1657981602360512e-07
170 161 -4.7813820478714642e-09
171 161 -6.4233743755000987e-07
172 161 78074491.105093539
173 161 3036314.5983005418
174 161 7.70508176192835e-08
175 161 -3.9691479672282055e-07
176 161 -2.6829427319856942e-07
177 161 -2.4380648891481589e-09
178 161 -1.4155536581820991e-08
179 161 -9.4816269818255476e-11
180 161 -3.4027367177790624e-24
145 162 1.7977217635090649e-20
146 162 1.3720954509711307e-06
147 162 2.0821582119895398e-06
148 162 -9.5289570917218519e-21
149 162 2.792241727563592e-06
150 162 -5.6725169686890234e-21
151 162 -1.8169513738618193e-21
152 162 7.5927202742617226e-22
153 162 4294081.5898323869
154 162 81112302.806828961
155 162 -4.6603300176197753e-07
156 162 156154052.04522234
157 162 -1.0005493113586676e-07
158 162 2.6596734135338843e-07
159 162 8.457688839279588e-08
160 162 110415042.81142993
161 162 -7.5822512765154091e-07
162 162 231190793.25878313
163 162 -3.6980032505021926e-07
164 162 1.8594880727891017e-08
165 162 8.2232846476155141e-08
166 162 2.5012424701975172e-21
167 162 -1.050425787141212e-06
168 162 1.9798582661548419e-21
169 162 4.2268842938024161e-22
170 162 -3.155193355901202e-22
171 162 216537116.99673826
172 162 -6.3955361737650252e-07
173 162 -2.2878483527424113e-07
174 162 7.9888735069164607e-08
175 162 4.5316113537009268e-22
176 162 -6.9820698644838202e-22
177 162 -3.0158745305292733e-22
178 162 -1.2866015428034442e-21
179 162 -2.8774030942525957e-22
180 162 -3.7392220544585415e-24
145 163 1.8368679339367462e-26
146 163 1.3726155338610613e-12
147 163 1.3726026750362107e-12
148 163 7.3880755744965063e-07
149 163 1.3725898009289325e-12
150 163 7.3881448314184111e-07
151 163 7.3882140060771601e-07
152 163 -5.2138347269618538e-21
153 163 -6.6764616118936366e-07
154 163 -7.5275911878197822e-07
155 163 78075955.030079961
156 163 -5.6122828486763398e-07
157 163 78076686.925722554
158 163 78077417.952021793
159 163 -5.5098938583578195e-07
160 163 -3.9691853032306006e-07
161 163 78075223.502253547
162 163 -3.6980032505021926e-07
163 163 78075955.391038686
164 163 78076686.410488605
165 163 -5.5098422244313698e-07
166 163 -4.299487801865314e-07
167 163 78074491.105093524
168 163 -5.8468369227474193e-07
169 163 -5.6140476428220613e-07
170 163 -2.4380648891457361e-09
171 163 -1.2606065877344536e-07
172 163 78075222.987013087
173 163 78075953.999605551
174 163 -5.5097905384724156e-07
175 163 -3.9691851746129997e-07
176 163 -5.3804818560495396e-07
177 163 -2.4380877439296564e-09
178 163 -3.6399621555045237e-07
179 163 -2.4381105715667349e-09
180 163 2.4332469338832313e-23
145 164 4.7149688577036014e-24
146 164 3.5233014835260918e-10
147 164 3.5232684722214707e-10
148 164 2.8732203569531713e-08
149 164 3.5232354216867838e-10
150 164 7.388214006077158e-07
151 164 1.4488898363586045e-06
152 164 -1.1154925579890596e-20
153 164 -1.1183745236188787e-06
154 164 -1.0481870024906382e-06
155 164 3036371.5302989981
156 164 -5.1481853895729974e-07
157 164 78077417.952021778
158 164 153116270.35540122
159 164 -1.1788328369868058e-06
160 164 -3.6399281930729871e-07
161 164 3036343.0812039487
162 164 1.8594880727891017e-08
163 164 78076686.410488605
164 164 153114835.74198663
165 164 -1.1788217902358984e-06
166 164 -1.6720695060882991e-08
167 164 3036314.5983005748
168 164 -3.1494029791555792e-07
169 164 -6.0622840476320255e-07
170 164 -9.4816269813412256e-11
171 164 3.9028285238700093e-07
172 164 78075953.999605566
173 164 153113399.42370507
174 164 -1.1788107321089714e-06
175 164 -3.9692223378029791e-07
176 164 -8.0779420826538927e-07
177 164 -2.4381105715643146e-09
178 164 -7.138266660254326e-07
179 164 -4.781336361068558e-09
180 164 5.2058922739521159e-23
145 165 5.4130549478133735e-36
146 165 -4.4276519657154683e-22
147 165 3.8142039450366702e-22
148 165 7.2912068409354529e-22
149 165 1.2057086620663129e-21
150 165 -5.213834675282864e-21
151 165 -1.11549145611792e-20
152 165 2.2164434718618034e-06
153 165 -1.2662454570305982e-07
154 165 -9.1974346685882254e-08
155 165 7.7052262350021627e-08
156 165 -4.863691355681417e-09
157 165 -5.5098938490406286e-07
158 165 -1.1788328352371578e-06
159 165 234230063.14819646
160 165 -3.4479768654520901e-09
161 165 7.7051540413620065e-08
162 165 8.2232846476155141e-08
163 165 -5.5098422244313698e-07
164 165 -1.1788217902358984e-06
165 165 234227868.54412267
166 165 -4.2431150725363835e-22
167 165 7.7050817505495582e-08
168 165 1.8685144556156969e-21
169 165 4.3362484686448616e-21
170 165 -9.1206765310880784e-07
171 165 1.1974162800239487e-07
172 165 -5.5097905477894318e-07
173 165 -1.1788107338585866e-06
174 165 234225671.33202359
175 165 2.8010651933900158e-21
176 165 6.053923691195274e-21
177 165 -8.4199133434937182e-07
178 165 5.495708012443175e-21
179 165 -7.7214535530173651e-07
180 165 -1.0343930365879211e-08
145 166 1.5632981246998726e-27
146 166 9.719005987693118e-25
147 166 1.9239024563764361e-24
148 166 -9.6894396743401633e-10
149 166 2.8742831562084871e-24
150 166 -4.9407226674227418e-10
151 166 -1.9214455514102655e-11
152 166 -4.8759423878975628e-25
153 166 3.0211472749943091e-22
154 166 8.4576185516075468e-22
155 166 -4.2595498785696786e-07
156 166 1.2635562922617067e-21
157 166 -2.1719784987979866e-07
158 166 -8.4468178143079227e-09
159 166 -2.143500605229391e-22
160 166 1.1838435046936082e-21
161 166 -8.4318895212279763e-07
162 166 2.5012424701975172e-21
163 166 -4.299487801865314e-07
164 166 -1.6720695060882991e-08
165 166 -4.2431150725363835e-22
166 166 300279389.19424474
167 166 -1.2597124165950721e-06
168 166 216537109.50189734
169 166 8421121.6409903765
170 166 2.1369798375732263e-07
171 166 2.6423314913187042e-21
172 166 -6.4233742097465432e-07
173 166 -2.498048287903377e-08
174 166 -6.3391541556048825e-22
175 166 78074489.090400994
176 166 4293997.1737425253
177 166 1.0896630845727838e-07
178 166 118082.17987029863
179 166 4.2376964410360303e-09
180 166 7.6040564063496149e-23
145 167 -8.50093363459565e-24
146 167 -1.3586683789266592e-11
147 167 -3.4936185923009651e-10
148 167 2.63447138861621e-06
149 167 -6.8514685600465067e-10
150 167 1.3433379992944907e-06
151 167 5.224237417339569e-08
152 167 1.3253459492136458e-21
153 167 -8.4468252720794168e-09
154 167 -1.6540540377490584e-07
155 167 5954637.474939541
156 167 -3.1885954741026648e-07
157 167 3036317.200738667
158 167 118082.2841261209
159 167 2.9965065312816039e-09
160 167 -4.2994879128125164e-07
161 167 153114862.45841601
162 167 -1.050425787141212e-06
163 167 78074491.105093524
164 167 3036314.5983005748
165 167 7.7050817505495582e-08
166 167 -1.2597124165950721e-06
167 167 300279391.8389619
168 167 -6.2901373303898266e-07
169 167 5.2355468226554694e-07
170 167 1.6604979200147222e-07
171 167 -1.2597124276900162e-06
172 167 153114859.85588798
173 167 5954632.2699866323
174 167 1.5110729477157572e-07
175 167 -1.2606064229472597e-07
176 167 2.7250507405681984e-07
177 167 8.4670114974256786e-08
178 167 1.5178088861988952e-08
179 167 3.2928182111374737e-09
180 167 1.1817163292244239e-22
145 168 -8.6860451482954779e-30
146 168 2.1097649963770148e-24
147 168 1.2505365513292975e-24
148 168 -3.4667001206494204e-10
149 168 3.9088442531977738e-25
150 168 -3.4799253541338711e-10
151 168 -3.4931501628530049e-10
152 168 2.4668341534073651e-24
153 168 1.3133170269736896e-21
154 168 2.3903922248842962e-21
155 168 -1.0794123736452916e-06
156 168 2.9217364418153883e-21
157 168 -6.2567177621226847e-07
158 168 -1.7194444851383023e-07
159 168 6.1794470617863728e-22
160 168 1.5455742080449993e-21
161 168 -8.5443497325396414e-07
162 168 1.9798582661548419e-21
163 168 -5.8468369227474193e-07
164 168 -3.1494029791555792e-07
165 168 1.8685144556156969e-21
166 168 216537109.50189734
167 168 -6.2901373303898266e-07
168 168 231190782.91923773
169 168 156154041.96542662
170 168 -1.003495194675511e-06
171 168 7.3336239394972472e-22
172 168 -5.4334374828967016e-07
173 168 -4.5767624413905029e-07
174 168 3.1173707573378604e-21
175 168 110415036.38430528
176 168 81112294.96768944
177 168 -4.7392750171252639e-07
178 168 4294077.6310700225
179 168 5.5624701153780232e-08
180 168 -7.6898552504431317e-22
145 169 -2.2295795802285988e-27
146 169 2.8455280950121567e-24
147 169 -2.2023533554186858e-25
148 169 6.773684474035077e-10
149 169 -3.2845520353732694e-24
150 169 2.9551368146364626e-12
151 169 -6.7143845173701283e-10
152 169 5.6225574968752849e-24
153 169 2.1999382154549281e-21
154 169 3.5856299194253535e-21
155 169 -1.5568317483686021e-06
156 169 4.0576103934590658e-21
157 169 -9.443803116526364e-07
158 169 -3.3194679012085689e-07
159 169 1.5384380329932158e-21
160 169 1.4173636916801318e-21
161 169 -5.1657981602360512e-07
162 169 4.2268842938024161e-22
163 169 -5.6140476428220613e-07
164 169 -6.0622840476320255e-07
165 169 4.3362484686448616e-21
166 169 8421121.6409903765
167 169 5.2355468226554694e-07
168 169 156154041.96542662
169 169 300394602.16101378
170 169 -2.308814125920196e-06
171 169 -2.270484461440479e-21
172 169 -1.7823801223993699e-07
173 169 -8.8001015195713984e-07
174 169 7.1301268649255587e-21
175 169 110416070.19220118
176 169 156149766.88452351
177 169 -1.1017584423453142e-06
178 169 8421041.1759521179
179 169 1.0526193704414661e-07
180 169 -1.6452320345557304e-21
145 170 -2.5596853643224573e-39
146 170 4.0064624439428492e-25
147 170 1.090966934788037e-26
148 170 7.9291136525214447e-22
149 170 -3.788754607257813e-25
150 170 4.0695312337671455e-22
151 170 2.1005365683057331e-23
152 170 -1.0480953861487226e-09
153 170 2.4908129720747343e-22
154 170 3.5344408610708918e-22
155 170 -1.7559127587980149e-07
156 170 3.5431889346078086e-22
157 170 -8.9535393799753736e-08
158 170 -3.4820287575447225e-09
159 170 -4.6075054129518108e-07
160 170 1.3426191286259997e-23
161 170 -4.7813820478714642e-09
162 170 -3.155193355901202e-22
163 170 -2.4380648891457361e-09
164 170 -9.4816269813412256e-11
165 170 -9.1206765310880784e-07
166 170 2.1369798375732263e-07
167 170 1.6604979200147222e-07
168 170 -1.003495194675511e-06
169 170 -2.308814125920196e-06
170 170 459348886.13633788
171 170 -6.9660120628983811e-22
172 170 8.4670114965922578e-08
173 170 3.292818210819814e-09
174 170 -1.3626162255842346e-06
175 170 -7.7920203174477717e-07
176 170 -1.20023826166687e-06
177 170 234225665.28788921
178 170 -6.4833082968835281e-08
179 170 9109029.0406500939
180 170 3.269019930802123e-07
145 171 2.3113272995729285e-20
146 171 7.3881939317557883e-08
147 171 1.8997668664764136e-06
148 171 -1.1051961735733769e-20
149 171 3.7257052002791532e-06
150 171 -2.1689808124207906e-21
151 171 6.715148298293514e-21
152 171 2.0602565154921428e-21
153 171 118082.38838203264
154 171 4294001.0757569512
155 171 -2.4980504934527273e-08
156 171 8421129.1502438542
157 171 -4.9024994098909834e-09
158 171 1.5178101337361021e-08
159 171 4.656752283645729e-09
160 171 78074493.119786143
161 171 -6.4233743755000987e-07
162 171 216537116.99673826
163 171 -1.2606065877344536e-07
164 171 3.9028285238700093e-07
165 171 1.1974162800239487e-07
166 171 2.6423314913187042e-21
167 171 -1.2597124276900162e-06
168 171 7.3336239394972472e-22
169 171 -2.270484461440479e-21
170 171 -6.9660120628983811e-22
171 171 300279394.48367906
172 171 -2.4722233604309658e-07
173 171 7.653986218208144e-07
174 171 2.3482986994598322e-07
175 171 1.0177002578498227e-22
176 171 -4.4558940151353751e-22
177 171 -1.3671007266489303e-22
178 171 9.7548326832836281e-22
179 171 4.232534279932204e-22
180 171 9.1822930297411167e-23
145 172 3.3398879998746558e-26
146 172 5.3380013516785006e-14
147 172 1.3725897969434218e-12
148 172 1.3433379992944909e-06
149 172 2.6918381669035773e-12
150 172 1.3433505919451712e-06
151 172 1.3433631696383402e-06
152 172 -9.4800615976642782e-21
153 172 -2.5964274435649256e-08
154 172 -4.8300318923682628e-07
155 172 3036317.200738668
156 172 -9.2929689950421533e-07
157 172 3036345.663628784
158 172 3036374.0927107683
159 172 -2.1427577145782188e-08
160 172 -3.96914806965107e-07
161 172 78074491.105093539
162 172 -6.3955361737650252e-07
163 172 78075222.987013087
164 172 78075953.999605566
165 172 -5.5097905477894318e-07
166 172 -6.4233742097465432e-07
167 172 153114859.85588798
168 172 -5.4334374828967016e-07
169 172 -1.7823801223993699e-07
170 172 8.4670114965922578e-08
171 172 -2.4722233604309658e-07
172 172 153116295.17741176
173 172 153117728.79406509
174 172 -1.0805460198234497e-06
175 172 -1.2606182400598088e-07
176 172 1.8683424300253408e-07
177 172 8.4670908684538532e-08
178 172 3.9029017890763248e-07
179 172 8.4671701452050346e-08
180 172 -8.4502795052619615e-22
145 173 8.5729995154726501e-24
146 173 1.37018636317683e-11
147 173 3.523235421616385e-10
148 173 5.2242374173395121e-08
149 173 6.9095512528468709e-10
150 173 1.34336316963834e-06
151 173 2.6344462158601198e-06
152 173 -2.0282058827154318e-20
153 173 -4.349277317995859e-08
154 173 -8.0080486660314791e-07
155 173 118082.28412611962
156 173 -1.5401264208362695e-06
157 173 3036374.0927107679
158 173 5954580.5775151039
159 173 -4.5843953088498027e-08
160 173 -3.6398940481426026e-07
161 173 3036314.5983005418
162 173 -2.2878483527424113e-07
163 173 78075953.999605551
164 173 153113399.42370507
165 173 -1.1788107338585866e-06
166 173 -2.498048287903377e-08
167 173 5954632.2699866323
168 173 -4.5767624413905029e-07
169 173 -8.8001015195713984e-07
170 173 3.292818210819814e-09
171 173 7.653986218208144e-07
172 173 153117728.79406509
173 173 300276522.62583536
174 173 -2.3118106501715838e-06
175 173 -1.2606300431360288e-07
176 173 1.011659137585419e-07
177 173 8.4671701452053668e-08
178 173 7.6539130158480754e-07
179 173 1.6604820537163037e-07
180 173 -1.807923568158917e-21
145 174 9.8422956429520764e-36
146 174 -1.5248020879745353e-21
147 174 3.6253867388712058e-22
148 174 1.3257248266321415e-21
149 174 2.2500775066637048e-21
150 174 -9.4800630701778351e-21
151 174 -2.0282440884393169e-20
152 174 4.0300518166303148e-06
153 174 -4.9243366412334792e-09
154 174 -8.9630212463725304e-08
155 174 2.9965065357074905e-09
156 174 -1.7229845630792915e-07
157 174 -2.1427577109547707e-08
158 174 -4.5843953020454957e-08
159 174 9109037.0830939412
160 174 -3.4479445211519299e-09
161 174 7.70508176192835e-08
162 174 7.9888735069164607e-08
163 174 -5.5097905384724156e-07
164 174 -1.1788107321089714e-06
165 174 234225671.33202359
166 174 -6.3391541556048825e-22
167 174 1.5110729477157572e-07
168 174 3.1173707573378604e-21
169 174 7.1301268649255587e-21
170 174 -1.3626162255842346e-06
171 174 2.3482986994598322e-07
172 174 -1.0805460198234497e-06
173 174 -2.3118106501715838e-06
174 174 459348890.18206304
175 174 8.8962185411981782e-22
176 174 -6.0169945739465903e-22
177 174 -2.6741751451709686e-07
178 174 -5.8927010000829395e-21
179 174 8.2792275300906537e-07
180 174 3.5922824583672372e-07
145 175 2.4130835675604764e-32
146 175 -1.173734330935043e-26
147 175 -6.9779667397509331e-27
148 175 1.9411350631510747e-12
149 175 -2.2162110770048359e-27
150 175 1.9411532596405553e-12
151 175 1.9411714345163029e-12
152 175 -1.3698773404153094e-26
153 175 2.8545473893560178e-21
154 175 2.4000005574749665e-21
155 175 -6.6763362558862942e-07
156 175 7.6224321764016475e-22
157 175 -6.6763988408577131e-07
158 175 -6.6764613514909012e-07
159 175 4.7115535273910123e-21
160 175 1.0089169823135425e-21
161 175 -3.9691479672282055e-07
162 175 4.5316113537009268e-22
163 175 -3.9691851746129997e-07
164 175 -3.9692223378029791e-07
165 175 2.8010651933900158e-21
166 175 78074489.090400994
167 175 -1.2606064229472597e-07
168 175 110415036.38430528
169 175 110416070.19220118
170 175 -7.7920203174477717e-07
171 175 1.0177002578498227e-22
172 175 -1.2606182400598088e-07
173 175 -1.2606300431360288e-07
174 175 8.8962185411981782e-22
175 175 78075952.861063063
176 175 110417105.24890476
177 175 -7.7920933478315488e-07
178 175 78077414.906759992
179 175 -7.7921663046306589e-07
180 175 3.8883110942857579e-21
145 176 8.759680294957706e-30
146 176 -2.144275866124301e-24
147 176 -1.2710528548736977e-24
148 176 3.5237691304895653e-10
149 176 -3.9739917104358507e-25
150 176 3.5369945129256484e-10
151 176 3.5502194704194757e-10
152 176 -2.5071045357954021e-24
153 176 6.7622802328291362e-21
154 176 4.3990209213860769e-21
155 176 -8.0915485976334563e-07
156 176 -7.6584299557580239e-22
157 176 -1.2628998840816036e-06
158 176 -1.7166316334065145e-06
159 176 1.2708560499925403e-20
160 176 1.3084642810742623e-21
161 176 -2.6829427319856942e-07
162 176 -6.9820698644838202e-22
163 176 -5.3804818560495396e-07
164 176 -8.0779420826538927e-07
165 176 6.053923691195274e-21
166 176 4293997.1737425253
167 176 2.7250507405681984e-07
168 176 81112294.96768944
169 176 156149766.88452351
170 176 -1.20023826166687e-06
171 176 -4.4558940151353751e-22
172 176 1.8683424300253408e-07
173 176 1.011659137585419e-07
174 176 -6.0169945739465903e-22
175 176 110417105.24890476
176 176 231192245.68720886
177 176 -1.7298111154510875e-06
178 176 216539097.71089625
179 176 -2.2593684747917375e-06
180 176 1.1764812078150121e-20
145 177 1.0056615895651562e-41
146 177 -1.574078381795033e-27
147 177 -4.2862439050972855e-29
148 177 4.0448899841359282e-22
149 177 1.488544269037538e-27
150 177 4.0448174905245919e-22
151 177 4.0447449867186205e-22
152 177 4.1178079413257485e-12
153 177 7.6563856231990868e-22
154 177 3.3660275216446448e-22
155 177 -8.9535393799755297e-08
156 177 -4.0974628250796608e-22
157 177 -8.9536233117881575e-08
158 177 -8.9537071439068405e-08
159 177 -1.4162780826194341e-06
160 177 1.2394625198926259e-23
161 177 -2.4380648891481589e-09
162 177 -3.0158745305292733e-22
163 177 -2.4380877439296564e-09
164 177 -2.4381105715643146e-09
165 177 -8.4199133434937182e-07
166 177 1.0896630845727838e-07
167 177 8.4670114974256786e-08
168 177 -4.7392750171252639e-07
169 177 -1.1017584423453142e-06
170 177 234225665.28788921
171 177 -1.3671007266489303e-22
172 177 8.4670908684538532e-08
173 177 8.4671701452053668e-08
174 177 -2.6741751451709686e-07
175 177 -7.7920933478315488e-07
176 177 -1.7298111154510875e-06
177 177 234227860.95419571
178 177 -1.6671213208145811e-06
179 177 234230054.01249656
180 177 -2.3376280280124538e-06
145 178 1.5899159047244076e-27
146 178 -5.0467479175893344e-24
147 178 -1.6425599615270342e-24
148 178 1.9377344288643689e-11
149 178 1.7612134243798e-24
150 178 4.9827005480968706e-10
151 178 9.7714876366842064e-10
152 178 -7.5230087995201795e-24
153 178 8.0097521095328409e-21
154 178 3.6867500366669236e-21
155 178 -4.3492734779831007e-08
156 178 -3.9530694823913974e-21
157 178 -1.1183744799987988e-06
158 178 -2.1932247982803988e-06
159 178 1.6885504101592654e-20
160 178 8.484735636629026e-22
161 178 -1.4155536581820991e-08
162 178 -1.2866015428034442e-21
163 178 -3.6399621555045237e-07
164 178 -7.138266660254326e-07
165 178 5.495708012443175e-21
166 178 118082.17987029863
167 178 1.5178088861988952e-08
168 178 4294077.6310700225
169 178 8421041.1759521179
170 178 -6.4833082968835281e-08
171 178 9.7548326832836281e-22
172 178 3.9029017890763248e-07
173 178 7.6539130158480754e-07
174 178 -5.8927010000829395e-21
175 178 78077414.906759992
176 178 216539097.71089625
177 178 -1.6671213208145811e-06
178 178 300273650.79545796
179 178 -3.2693627067827737e-06
180 178 1.7798319100237991e-20
145 179 2.5813848609280012e-39
146 179 -4.0404268598588646e-25
147 179 -1.1002155066539624e-26
148 179 1.6078216281482515e-23
149 179 3.8208734250083092e-25
150 179 4.0200884233994955e-22
151 179 7.8792899623870444e-22
152 179 1.0569805181227614e-09
153 179 1.2825216591875347e-21
154 179 3.198557419409842e-22
155 179 -3.4820287575477839e-09
156 179 -1.1740834503961653e-21
157 179 -8.9537071439069927e-08
158 179 -1.7558959807968936e-07
159 179 -2.3724083474691324e-06
160 179 1.1366449852422892e-23
161 179 -9.4816269818255476e-11
162 179 -2.8774030942525957e-22
163 179 -2.4381105715667349e-09
164 179 -4.781336361068558e-09
165 179 -7.7214535530173651e-07
166 179 4.2376964410360303e-09
167 179 3.2928182111374737e-09
168 179 5.5624701153780232e-08
169 179 1.0526193704414661e-07
170 179 9109029.0406500939
171 179 4.232534279932204e-22
172 179 8.4671701452050346e-08
173 179 1.6604820537163037e-07
174 179 8.2792275300906537e-07
175 179 -7.7921663046306589e-07
176 179 -2.2593684747917375e-06
177 179 234230054.01249656
178 179 -3.2693627067827737e-06
179 179 459344496.99112982
180 179 -5.0013171786813611e-06
145 180 2.0955661178140486e-51
146 180 -6.5600304372253398e-37
147 180 -1.7863080958252648e-38
148 180 5.6453171678999772e-37
149 180 6.2035638397562397e-37
150 180 -4.0368831998723223e-36
151 180 -8.6368460054005081e-36
152 180 1.7161118394188772e-21
153 180 1.0267869615637089e-22
154 180 3.9540836722905625e-24
155 180 -1.2496196199671945e-22
156 180 -1.3731903553546758e-22
157 180 8.9358459410579956e-22
158 180 1.9118097180354896e-21
159 180 -3.798700694426273e-07
160 180 7.6134477124954865e-26
161 180 -3.4027367177790624e-24
162 180 -3.7392220544585415e-24
163 180 2.4332469338832313e-23
164 180 5.2058922739521159e-23
165 180 -1.0343930365879211e-08
166 180 7.6040564063496149e-23
167 180 1.1817163292244239e-22
168 180 -7.6898552504431317e-22
169 180 -1.6452320345557304e-21
170 180 3.269019930802123e-07
171 180 9.1822930297411167e-23
172 180 -8.4502795052619615e-22
173 180 -1.807923568158917e-21
174 180 3.5922824583672372e-07
175 180 3.8883110942857579e-21
176 180 1.1764812078150121e-20
177 180 -2.3376280280124538e-06
178 180 1.7798319100237991e-20
179 180 -5.0013171786813611e-06
180 180 702683589.97560668
181 181 679168760.46595037
182 181 -1.9558179130158133e-06
183 181 -3.4476796228070064e-06
184 181 1.1922336466770108e-09
185 181 -4.9393923712901724e-06
186 181 4.412387737194464e-12
187 181 -1.1828952959281731e-09
188 181 2.5848838139272344e-23
189 181 2.8161069321336273e-21
190 181 7.0204123582540186e-21
191 181 -2.427711603969437e-24
192 181 1.0057944774299659e-20
193 181 -8.9848201656243376e-27
194 181 2.4086961848541673e-24
195 181 -5.2635256918596128e-38
196 181 8.7507667264935857e-21
197 181 -4.2795250883817154e-24
198 181 1.7729958916370137e-20
199 181 -1.5838274715381464e-26
200 181 4.246005059463604e-24
201 181 -9.278445683097092e-38
202 181 1.0464417321650536e-27
203 181 -6.1311536705627416e-24
204 181 5.4769949899282046e-30
205 181 -1.4683006107544881e-27
206 181 3.2085565779012187e-41
207 181 1.7961365729499499e-20
208 181 -2.269104495268018e-26
209 181 6.0831304801165414e-24
210 181 -1.3292964787489904e-37
211 181 1.4333083819982437e-32
212 181 -5.4340955965013118e-30
213 181 1.1874682230186518e-43
214 181 1.0301131048555865e-27
215 181 -3.1834250721720834e-41
216 181 4.9189720732436294e-55
181 182 -1.9558179130158133e-06
182 182 484782669.26808208
183 182 226385831.07747594
184 182 -4.094297089175483e-06
185 182 -31999745.202881828
186 182 -2.84040369450651e-06
187 182 -1.5839944421416152e-06
188 182 -6.0278578702201383e-10
189 182 -1.3960398117010718e-06
190 182 -2.2011114280667516e-06
191 182 6.0174953085839271e-10
192 182 -2.4278721687002349e-06
193 182 2.2270401989420605e-12
194 182 -5.9703623643705697e-10
195 182 1.4273977521620553e-23
196 182 -1.1492074755655271e-06
197 182 2.8100750353714189e-10
198 182 -1.0493434824989759e-06
199 182 1.0399925201016858e-12
200 182 -2.7880646965207908e-10
201 182 8.2562293057142634e-24
202 182 -7.1872545284000578e-24
203 182 -3.9720544635022579e-11
204 182 -3.544536271003027e-24
205 182 3.0761739375160175e-24
206 182 -7.4822407563503327e-28
207 182 2.327246283087368e-07
208 182 -1.4700342271726864e-13
209 182 3.9409427477615826e-11
210 182 2.2386906865810419e-24
211 182 -1.8453384725357531e-26
212 182 3.4908350065522276e-24
213 182 -2.7691340836230061e-30
214 182 2.7588129540884912e-24
215 182 7.4236349699959424e-28
216 182 -2.294173870820592e-41
181 183 -3.4476796228070064e-06
182 183 226385831.07747594
183 183 226389586.6420545
184 183 2.2274267263756522e-07
185 183 226393339.18917543
186 183 -4.4870003620524044e-08
187 183 -3.1222338253853694e-07
188 183 5.133819206373591e-12
189 183 -6.5192848883469439e-07
190 183 -1.2736031016161412e-06
191 183 2.8100750352199197e-10
192 183 -1.6252049765459582e-06
193 183 1.0399925099974189e-12
194 183 -2.7880646965712907e-10
195 183 6.0820746522490546e-24
196 183 -1.1492265400222912e-06
197 183 2.81012165217219e-10
198 183 -1.9768652953129648e-06
199 183 1.0400097627326766e-12
200 183 -2.7881109483877998e-10
201 183 6.0742017187475239e-24
202 183 3.910093106860172e-25
203 183 2.8101682316694563e-10
204 183 -5.4672842952928434e-26
205 183 -6.618753954500938e-25
206 183 6.3724912164753634e-30
207 183 -1.6464914136138097e-06
208 183 1.0400270016060475e-12
209 183 -2.7881571630426775e-10
210 183 6.0663295002382215e-24
211 183 -2.9150907000970235e-28
212 183 5.3825529918176018e-26
213 183 2.3584220015259596e-32
214 183 5.4379351934596798e-25
215 183 -6.3225777155754558e-30
216 183 1.9539070320430547e-43
181 184 1.1922336466770108e-09
182 184 -4.094297089175483e-06
183 184 2.2274267263756522e-07
184 184 484775168.12973052
185 184 4.5369541162970671e-06
186 184 226393340.00195441
187 184 -31999747.018179361
188 184 4.4174584523043255e-06
189 184 1.1790441328911717e-20
190 184 1.4242922858642414e-20
191 184 -9.8713394330466762e-07
192 184 1.1816767621236802e-20
193 184 -4.609983455139313e-07
194 184 6.5160178440397992e-08
195 184 -8.995145519171392e-21
196 184 -1.1307134615201193e-21
197 184 -1.7401014474117422e-06
198 184 -1.7430877224930135e-20
199 184 -8.1263935226227473e-07
200 184 1.1486315670410377e-07
201 184 -1.5856476057533796e-20
202 184 8.5098917995175577e-10
203 184 -2.4929937682604905e-06
204 184 2.8324382991069866e-10
205 184 -6.3674754528959606e-10
206 184 1.8529629177541471e-23
207 184 -3.2995917738555614e-20
208 184 -1.1642452479115281e-06
209 184 1.645611721615344e-07
210 184 -2.2717121497026047e-20
211 184 1.4708202958595906e-12
212 184 -2.7896272075251847e-10
213 184 6.1130239200076082e-24
214 184 5.5733349974352444e-11
215 184 -6.3015223167912196e-24
216 184 1.6812635557948292e-37
181 185 -4.9393923712901724e-06
182 185 -31999745.202881828
183 185 226393339.18917543
184 185 4.5369541162970671e-06
185 185 484775164.68836498
186 185 2.7501917815274941e-06
187 185 9.6142971102512608e-07
188 185 6.1338613108365708e-10
189 185 9.2150402849507584e-08
190 185 -3.4613519367080301e-07
191 185 -3.9720544665316233e-11
192 185 -8.2257277347088625e-07
193 185 -1.470034429244016e-13
194 185 3.9409427467512234e-11
195 185 -2.1102026140401138e-24
196 185 -1.149245589161468e-06
197 185 2.810168231518057e-10
198 185 -2.9043466787907031e-06
199 185 1.0400269915034811e-12
200 185 -2.7881571630932441e-10
201 185 3.8909798029742615e-24
202 185 7.9643084975401325e-24
203 185 6.0174021556524649e-10
204 185 3.4345918271010781e-24
205 185 -4.3941055606996813e-24
206 185 7.6138203790573219e-28
207 185 -3.5256255729575671e-06
208 185 2.2270057037714567e-12
209 185 -5.9702699414694674e-10
210 185 9.8919543484156942e-24
211 185 1.7867300733060273e-26
212 185 -3.3825941232565148e-24
213 185 2.8178309381233418e-30
214 185 -1.6745038181040144e-24
215 185 -7.5541839754134226e-28
216 185 2.3345182732459959e-41
181 186 4.412387737194464e-12
182 186 -2.84040369450651e-06
183 186 -4.4870003620524044e-08
184 186 226393340.00195441
185 186 2.7501917815274941e-06
186 186 226389587.42398182
187 186 226385831.82857335
188 186 3.2776953949893933e-06
189 186 8.1795757801956489e-21
190 186 1.0287002199367267e-20
191 186 -4.6099834551393109e-07
192 186 9.0068578090622402e-21
193 186 -4.6099070424569976e-07
194 186 -4.6098305683314908e-07
195 186 -6.6742782900579039e-21
196 186 2.277746588157229e-22
197 186 -8.1263935226227442e-07
198 186 -9.6410712282962173e-21
199 186 -8.1262588237604518e-07
200 186 -8.1261240165872338e-07
201 186 -1.1765294255892101e-20
202 186 3.9741780400609323e-10
203 186 -1.1642452479115277e-06
204 186 2.8205219319371592e-10
205 186 2.191787147910542e-12
206 186 1.0161258176488644e-23
207 186 -2.0001326307611929e-20
208 186 -1.1642259499892837e-06
209 186 -1.1642066365496422e-06
210 186 -1.6855801887480248e-20
211 186 1.4707959163091857e-12
212 186 -2.7777110328953021e-10
213 186 6.107686979417369e-24
214 186 -3.9429189197554593e-10
215 186 2.0558682898051146e-24
216 186 1.2474751882991941e-37
181 187 -1.1828952959281731e-09
182 187 -1.5839944421416152e-06
183 187 -3.1222338253853694e-07
184 187 -31999747.018179361
185 187 9.6142971102512608e-07
186 187 226385831.82857335
187 187 484782672.58510834
188 187 2.1374417751520213e-06
189 187 4.5614652582038287e-21
190 187 6.3215228640466855e-21
191 187 6.5160178440397886e-08
192 187 6.1880817032241602e-21
193 187 -4.6098305683314908e-07
194 187 -9.8714922441458524e-07
195 187 -4.3524121423754588e-21
196 187 1.5849465023014856e-21
197 187 1.1486315670410359e-07
198 187 -1.845421172743131e-21
199 187 -8.1261240165872338e-07
200 187 -1.7401283846695134e-06
201 187 -7.6723515790829815e-21
202 187 -5.6173336144100225e-11
203 187 1.6456117216153414e-07
204 187 2.8086050100910178e-10
205 187 6.4115896467251137e-10
206 187 1.7919752505535563e-24
207 187 -6.9921924875925511e-21
208 187 -1.1642066365496422e-06
209 187 -2.4930323605022577e-06
210 187 -1.0991959522249369e-20
211 187 1.4707715171552631e-12
212 187 -2.7657943037438586e-10
213 187 6.102347704029229e-24
214 187 -8.4433674857923882e-10
215 187 1.0414166133000115e-23
216 187 8.1350011505415056e-38
181 188 2.5848838139272344e-23
182 188 -6.0278578702201383e-10
183 188 5.133819206373591e-12
184 188 4.4174584523043255e-06
185 188 6.1338613108365708e-10
186 188 3.2776953949893933e-06
187 188 2.1374417751520213e-06
188 188 679168760.46388566
189 188 1.7358561064413178e-24
190 188 2.1532469526695576e-24
191 188 -8.9951463023294396e-21
192 188 1.8508516927948648e-24
193 188 -6.6742782727155186e-21
194 188 -4.352411324854939e-21
195 188 -1.3829721090553986e-06
196 188 -2.6060921371909272e-26
197 188 -1.5856476112742263e-20
198 188 -2.2281518209755278e-24
199 188 -1.1765294220416304e-20
200 188 -7.6723514529201498e-21
201 188 -2.4378776406381014e-06
202 188 7.7545419145537859e-24
203 188 -2.2717120823869295e-20
204 188 4.0888209160132913e-24
205 188 -2.787183415757743e-24
206 188 8.4303649632151772e-10
207 188 -4.4609748751655784e-24
208 188 -1.685580183387104e-20
209 188 -1.0991960087859695e-20
210 188 -3.4926778406697643e-06
211 188 2.1294358288223228e-26
212 188 -4.0268410403596272e-24
213 188 3.1200292901850864e-12
214 188 -3.7227415697880994e-24
215 188 -8.3643328518193634e-10
216 188 2.5848838139193762e-23
181 189 2.8161069321336273e-21
182 189 -1.3960398117010718e-06
183 189 -6.5192848883469439e-07
184 189 1.1790441328911717e-20
185 189 9.2150402849507584e-08
186 189 8.1795757801956489e-21
187 189 4.5614652582038287e-21
188 189 1.7358561064413178e-24
189 189 346032164.76189637
190 189 228524950.66158232
191 189 -4.1329840999522642e-06
192 189 -32302110.776398983
193 189 -2.8672426673378426e-06
194 189 -1.5989616046896156e-06
195 189 -6.084815095674698e-10
196 189 75460691.798425078
197 189 -1.9300381379357409e-06
198 189 -15084574.299474122
199 189 -1.3389569291453485e-06
200 189 -7.4668975333864301e-07
201 189 -2.8415123099735425e-10
202 189 2.4682037264096519e-20
203 189 2.7281181137459018e-07
204 189 2.4215682719361578e-20
205 189 1.3504244806581164e-20
206 189 5.1390122448076172e-24
207 189 1507701.4030310295
208 189 1.8926220058189501e-07
209 189 1.0554495278576893e-07
210 189 4.0164912034131403e-11
211 189 1.1879069853317714e-20
212 189 9.3685206531649113e-21
213 189 3.5651710289556185e-24
214 189 3.694278268944785e-21
215 189 1.9881720003645981e-24
216 189 5.349932537922803e-28
181 190 7.0204123582540186e-21
182 190 -2.2011114280667516e-06
183 190 -1.2736031016161412e-06
184 190 1.4242922858642414e-20
185 190 -3.4613519367080301e-07
186 190 1.0287002199367267e-20
187 190 6.3215228640466855e-21
188 190 2.1532469526695576e-24
189 190 228524950.66158232
190 190 237054914.75935459
191 190 -1.2057519566243246e-06
192 190 150930496.70643681
193 190 -9.7881320490291287e-07
194 190 -7.50850764471874e-07
195 190 -1.9726080258218847e-10
196 190 106719304.12813906
197 190 -1.2905193695090054e-06
198 190 64796612.7349893
199 190 -9.6175765049594367e-07
200 190 -6.3207088123877434e-07
201 190 -1.9921735083509641e-10
202 190 -1.8989786202172322e-21
203 190 -1.3752830707059554e-06
204 190 -6.6105511796680775e-22
205 190 1.3627130467240952e-21
206 190 -2.2864051956055072e-25
207 190 -15085074.581087334
208 190 -9.4470282749946496e-07
209 190 -5.1329616822592041e-07
210 190 -2.0117381128141617e-10
211 190 2.6538322638185219e-22
212 190 1.4104215938471277e-21
213 190 1.8353143034456583e-26
214 190 1.0298082675256809e-21
215 190 2.6513568756721312e-25
216 190 -6.4437824587603173e-30
181 191 -2.427711603969437e-24
182 191 6.0174953085839271e-10
183 191 2.8100750352199197e-10
184 191 -9.8713394330466762e-07
185 191 -3.9720544665316233e-11
186 191 -4.6099834551393109e-07
187 191 6.5160178440397886e-08
188 191 -8.9951463023294396e-21
189 191 -4.1329840999522642e-06
190 191 -1.2057519566243246e-06
191 191 346026810.5376088
192 191 3.4313315385368397e-06
193 191 161596902.06505933
194 191 -22841042.87236879
195 191 3.1531298618913799e-06
196 191 1.0500014538422154e-07
197 191 161589041.94515616
198 191 1.5017981977875046e-06
199 191 75463194.73172754
200 191 -10666405.383559605
201 191 1.4724617226049108e-06
202 191 -4.1329201494699059e-06
203 191 -22840688.152666133
204 191 -3.3922036843373357e-06
205 191 -9.3771200621469879e-07
206 191 -4.3025474414844654e-10
207 191 -3.023070001106498e-07
208 191 -10666758.569286602
209 191 1507701.488560668
210 191 -2.0813316681567539e-07
211 191 -1.3390013406105581e-06
212 191 -3.9417830770601832e-07
213 191 -2.0093192676963455e-10
214 191 1.0554495877317575e-07
215 191 2.8400883265932246e-11
216 191 -5.5446325908637177e-24
181 192 1.0057944774299659e-20
182 192 -2.4278721687002349e-06
183 192 -1.6252049765459582e-06
184 192 1.1816767621236802e-20
185 192 -8.2257277347088625e-07
186 192 9.0068578090622402e-21
187 192 6.1880817032241602e-21
188 192 1.8508516927948648e-24
189 192 -32302110.776398983
190 192 150930496.70643681
191 192 3.4313315385368397e-06
192 192 347534509.48423368
193 192 2.0968831168979705e-06
194 192 7.6088876617525461e-07
195 192 4.6622868416112149e-10
196 192 106721073.06646965
197 192 1.4750468280791411e-07
198 192 150922282.26706165
199 192 -3.0101539044622234e-08
200 192 -2.0753564513749626e-07
201 192 3.5267256925056336e-12
202 192 -3.8679517720711876e-20
203 192 -3.1361791799134802e-06
204 192 -3.5553584429108226e-20
205 192 -1.6377209697385906e-20
206 192 -7.7244374370182129e-24
207 192 -32301610.730129343
208 192 -2.1569935048966636e-06
209 192 -1.1759178555121135e-06
210 192 -4.5915506900982526e-10
211 192 -1.6265984160000746e-20
212 192 -1.0435016173454433e-20
213 192 -5.0061795363584847e-24
214 192 -3.1710894200446279e-21
215 192 -2.2838747566741976e-24
216 192 -7.6989988019381348e-28
181 193 -8.9848201656243376e-27
182 193 2.2270401989420605e-12
183 193 1.0399925099974189e-12
184 193 -4.609983455139313e-07
185 193 -1.470034429244016e-13
186 193 -4.6099070424569976e-07
187 193 -4.6098305683314908e-07
188 193 -6.6742782727155186e-21
189 193 -2.8672426673378426e-06
190 193 -9.7881320490291287e-07
191 193 161596902.06505933
192 193 2.0968831168979705e-06
193 193 161594223.51906005
194 193 161591542.81925052
195 193 2.3395804034633903e-06
196 193 -2.1151576508463463e-08
197 193 75463194.731727496
198 193 9.1882946220135597e-07
199 193 75461943.89315477
200 193 75460692.04878673
201 193 1.092547006291068e-06
202 193 -1.9301021547982323e-06
203 193 -10666758.569286598
204 193 -2.3115826279845142e-06
205 193 -1.8927499605625902e-06
206 193 -2.0093192677091913e-10
207 193 -1.8325118283414256e-07
208 193 -10666581.762657724
209 193 -10666404.813859206
210 193 -1.5443204045539734e-07
211 193 -1.3389791460224311e-06
212 193 -1.4747836762411652e-06
213 193 -2.0092859622200689e-10
214 193 -7.4668975581599214e-07
215 193 -2.0092526299500363e-10
216 193 -4.1140436081525615e-24
181 194 2.4086961848541673e-24
182 194 -5.9703623643705697e-10
183 194 -2.7880646965712907e-10
184 194 6.5160178440397992e-08
185 194 3.9409427467512234e-11
186 194 -4.6098305683314908e-07
187 194 -9.8714922441458524e-07
188 194 -4.352411324854939e-21
189 194 -1.5989616046896156e-06
190 194 -7.50850764471874e-07
191 194 -22841042.87236879
192 194 7.6088876617525461e-07
193 194 161591542.81925052
194 194 346032167.12955064
195 194 1.5256807872794577e-06
196 194 -1.4718106649595968e-07
197 194 -10666405.383559588
198 194 3.3518199217598718e-07
199 194 75460692.04878673
200 194 161591543.3887831
201 194 7.1246877184918024e-07
202 194 2.7281182685079443e-07
203 194 1507701.4885606654
204 194 -1.2309144667652897e-06
205 194 -2.8478295475402006e-06
206 194 2.8400883263349497e-11
207 194 -6.4062128893307663e-08
208 194 -10666404.813859206
209 194 -22841041.732915927
210 194 -1.0070780072972625e-07
211 194 -1.3389569335877072e-06
212 194 -2.5554361370343974e-06
213 194 -2.0092526299629838e-10
214 194 -1.5989616156301832e-06
215 194 -4.3026140459074559e-10
216 194 -2.6828388892711284e-24
181 195 -5.2635256918596128e-38
182 195 1.4273977521620553e-23
183 195 6.0820746522490546e-24
184 195 -8.995145519171392e-21
185 195 -2.1102026140401138e-24
186 195 -6.6742782900579039e-21
187 195 -4.3524121423754588e-21
188 195 -1.3829721090553986e-06
189 195 -6.084815095674698e-10
190 195 -1.9726080258218847e-10
191 195 3.1531298618913799e-06
192 195 4.6622868416112149e-10
193 195 2.3395804034633903e-06
194 195 1.5256807872794577e-06
195 195 484782669.26660836
196 195 2.4200654065075442e-12
197 195 1.4724617283234327e-06
198 195 2.0421676646707304e-10
199 195 1.0925470029989099e-06
200 195 7.1246875954633988e-07
201 195 226385831.07678771
202 195 -3.7660763830610863e-20
203 195 -2.081331676239912e-07
204 195 -3.8233831623291619e-20
205 195 -2.3187979288655616e-20
206 195 -4.0942970891630359e-06
207 195 -4.0871235731821188e-11
208 195 -1.5443203999004919e-07
209 195 -1.0070779899071389e-07
210 195 -31999745.202784549
211 195 -1.9385899402964464e-20
212 195 -1.6583578837492782e-20
213 195 -2.840403694497875e-06
214 195 -7.0499369890251736e-21
215 195 -1.5839944421367998e-06
216 195 -8.5246783520968049e-10
181 196 8.7507667264935857e-21
182 196 -1.1492074755655271e-06
183 196 -1.1492265400222912e-06
184 196 -1.1307134615201193e-21
185 196 -1.149245589161468e-06
186 196 2.277746588157229e-22
187 196 1.5849465023014856e-21
188 196 -2.6060921371909272e-26
189 196 75460691.798425078
190 196 106719304.12813906
191 196 1.0500014538422154e-07
192 196 106721073.06646965
193 196 -2.1151576508463463e-08
194 196 -1.4718106649595968e-07
195 196 2.4200654065075442e-12
196 196 75463195.48737517
197 196 1.0500190277097211e-07
198 196 106722843.485934
199 196 -2.1151922537813959e-08
200 196 -1.4718351390835608e-07
201 196 2.4201055808848958e-12
202 196 7.3051502221166905e-23
203 196 1.0500364324231526e-07
204 196 -2.0811185829605774e-23
205 196 -1.4481253198262378e-22
206 196 2.3811200556839226e-27
207 196 75465697.206187397
208 196 -2.1152273143984494e-08
209 196 -1.4718595356593733e-07
210 196 2.4201456956285313e-12
211 196 2.9643843210994934e-24
212 196 2.9171504307710044e-23
213 196 -4.7966051701860322e-28
214 196 1.4353345777701275e-22
215 196 -3.3376692001252546e-27
216 196 3.8806407446727237e-32
181 197 -4.2795250883817154e-24
182 197 2.8100750353714189e-10
183 197 2.81012165217219e-10
184 197 -1.7401014474117422e-06
185 197 2.810168231518057e-10
186 197 -8.1263935226227442e-07
187 197 1.1486315670410359e-07
188 197 -1.5856476112742263e-20
189 197 -1.9300381379357409e-06
190 197 -1.2905193695090054e-06
191 197 161589041.94515616
192 197 1.4750468280791411e-07
193 197 75463194.731727496
194 197 -10666405.383559588
195 197 1.4724617283234327e-06
196 197 1.0500190277097211e-07
197 197 161591722.58148098
198 197 1.5865668147779226e-06
199 197 75464446.607340813
200 197 -10666582.33091558
201 197 1.4724861495978123e-06
202 197 2.2484388891182296e-07
203 197 161594401.06401339
204 197 4.2221603435626227e-08
205 197 -2.3335268222580919e-07
206 197 3.6644030390825445e-12
207 197 2.1387761302908391e-06
208 197 75465697.477118224
209 197 -10666759.136100879
210 197 1.4725105569645258e-06
211 197 -2.1152273219923665e-08
212 197 -1.0196208905064543e-07
213 197 1.7113014386903e-12
214 197 2.080411594973588e-08
215 197 -2.4188526737824711e-13
216 197 4.7222648410291011e-26
181 198 1.7729958916370137e-20
182 198 -1.0493434824989759e-06
183 198 -1.9768652953129648e-06
184 198 -1.7430877224930135e-20
185 198 -2.9043466787907031e-06
186 198 -9.6410712282962173e-21
187 198 -1.845421172743131e-21
188 198 -2.2281518209755278e-24
189 198 -15084574.299474122
190 198 64796612.7349893
191 198 1.5017981977875046e-06
192 198 150922282.26706165
193 198 9.1882946220135597e-07
194 198 3.3518199217598718e-07
195 198 2.0421676646707304e-10
196 198 106722843.485934
197 198 1.5865668147779226e-06
198 198 237057418.64054653
199 198 9.0177367733628119e-07
200 198 2.1640038422511904e-07
201 198 2.0617334496488924e-10
202 198 2.1042877362811134e-21
203 198 1.6713317927464562e-06
204 198 6.0222427343080249e-22
205 198 -1.7703873531705638e-21
206 198 2.3546308142869559e-25
207 198 228528991.96598288
208 198 8.8471860369975574e-07
209 198 9.7623955700637249e-08
210 198 2.0812983562823217e-10
211 198 -2.5695459049085091e-22
212 198 -1.3278195166898991e-21
213 198 -1.9735375525945231e-26
214 198 -6.2505791606179354e-22
215 198 -2.7471476486215793e-25
216 198 6.5571001789054778e-30
181 199 -1.5838274715381464e-26
182 199 1.0399925201016858e-12
183 199 1.0400097627326766e-12
184 199 -8.1263935226227473e-07
185 199 1.0400269915034811e-12
186 199 -8.1262588237604518e-07
187 199 -8.1261240165872338e-07
188 199 -1.1765294220416304e-20
189 199 -1.3389569291453485e-06
190 199 -9.6175765049594367e-07
191 199 75463194.73172754
192 199 -3.0101539044622234e-08
193 199 75461943.89315477
194 199 75460692.04878673
195 199 1.0925470029989099e-06
196 199 -2.1151922537813959e-08
197 199 75464446.607340813
198 199 9.0177367733628119e-07
199 199 75463195.748017609
200 199 75461943.882882461
201 199 1.0925651307947867e-06
202 199 1.0500364361929076e-07
203 199 75465697.477118194
204 199 5.9290641911970033e-08
205 199 -2.9829860191056478e-08
206 199 1.7113014400571085e-12
207 199 1.2964742978157034e-06
208 199 75464446.597061247
209 199 75463194.71117565
210 199 1.0925832407361353e-06
211 199 -2.1151922610870614e-08
212 199 -1.1903088091881665e-07
213 199 1.7112730731251426e-12
214 199 -1.4718107277733756e-07
215 199 1.7112446833857072e-12
216 199 3.5038576798130103e-26
181 200 4.246005059463604e-24
182 200 -2.7880646965207908e-10
183 200 -2.7881109483877998e-10
184 200 1.1486315670410377e-07
185 200 -2.7881571630932441e-10
186 200 -8.1261240165872338e-07
187 200 -1.7401283846695134e-06
188 200 -7.6723514529201498e-21
189 200 -7.4668975333864301e-07
190 200 -6.3207088123877434e-07
191 200 -10666405.383559605
192 200 -2.0753564513749626e-07
193 200 75460692.04878673
194 200 161591543.3887831
195 200 7.1246875954633988e-07
196 200 -1.4718351390835608e-07
197 200 -10666582.33091558
198 200 2.1640038422511904e-07
199 200 75461943.882882461
200 200 161594224.06660491
201 200 7.1248059115107803e-07
202 200 -1.4841823667495506e-08
203 200 -10666759.13610086
204 200 7.6360423229354965e-08
205 200 1.7370183121120843e-07
206 200 -2.4188526464647602e-13
207 200 4.5322983616810626e-07
208 200 75463194.71117565
209 200 161596902.590601
210 200 7.1249240095660271e-07
211 200 -2.1151571719893952e-08
212 200 -1.3610041542983018e-07
213 200 1.7112446847512972e-12
214 200 -3.151735832521983e-07
215 200 3.6644597626365104e-12
216 200 2.2849261070654792e-26
181 201 -9.278445683097092e-38
182 201 8.2562293057142634e-24
183 201 6.0742017187475239e-24
184 201 -1.5856476057533796e-20
185 201 3.8909798029742615e-24
186 201 -1.1765294255892101e-20
187 201 -7.6723515790829815e-21
188 201 -2.4378776406381014e-06
189 201 -2.8415123099735425e-10
190 201 -1.9921735083509641e-10
191 201 1.4724617226049108e-06
192 201 3.5267256925056336e-12
193 201 1.092547006291068e-06
194 201 7.1246877184918024e-07
195 201 226385831.07678771
196 201 2.4201055808848958e-12
197 201 1.4724861495978123e-06
198 201 2.0617334496488924e-10
199 201 1.0925651307947867e-06
200 201 7.1248059115107803e-07
201 201 226389586.64136627
202 201 2.0488643121136419e-21
203 201 1.4725105626832372e-06
204 201 7.8312090251138846e-22
205 201 -1.329764254108885e-21
206 201 2.227426726368881e-07
207 201 2.8915778783393677e-10
208 201 1.0925832374438679e-06
209 201 7.1249238865335429e-07
210 201 226393339.1884872
211 201 -3.0624005245467648e-22
212 201 -1.6480147847739366e-21
213 201 -4.4870003620387638e-08
214 201 -1.3896230408617788e-21
215 201 -3.1222338253758779e-07
216 201 7.2603167484029401e-12
181 202 1.0464417321650536e-27
182 202 -7.1872545284000578e-24
183 202 3.910093106860172e-25
184 202 8.5098917995175577e-10
185 202 7.9643084975401325e-24
186 202 3.9741780400609323e-10
187 202 -5.6173336144100225e-11
188 202 7.7545419145537859e-24
189 202 2.4682037264096519e-20
190 202 -1.8989786202172322e-21
191 202 -4.1329201494699059e-06
192 202 -3.8679517720711876e-20
193 202 -1.9301021547982323e-06
194 202 2.7281182685079443e-07
195 202 -3.7660763830610863e-20
196 202 7.3051502221166905e-23
197 202 2.2484388891182296e-07
198 202 2.1042877362811134e-21
199 202 1.0500364361929076e-07
200 202 -1.4841823667495506e-08
201 202 2.0488643121136419e-21
202 202 346021456.39616823
203 202 4.5797529285400895e-06
204 202 228528994.40873128
205 202 -32301612.791856848
206 202 4.4591300165399876e-06
207 202 3.0307566913506264e-20
208 202 2.1387761379692995e-06
209 202 -3.0230701726007235e-07
210 202 4.1732476442008952e-20
211 202 75465697.748049036
212 202 -15085075.490998195
213 202 2.0824444078730153e-06
214 202 1507701.5740903113
215 202 -2.9434476398812587e-07
216 202 2.8732091806530088e-20
181 203 -6.1311536705627416e-24
182 203 -3.9720544635022579e-11
183 203 2.8101682316694563e-10
184 203 -2.4929937682604905e-06
185 203 6.0174021556524649e-10
186 203 -1.1642452479115277e-06
187 203 1.6456117216153414e-07
188 203 -2.2717120823869295e-20
189 203 2.7281181137459018e-07
190 203 -1.3752830707059554e-06
191 203 -22840688.152666133
192 203 -3.1361791799134802e-06
193 203 -10666758.569286598
194 203 1507701.4885606654
195 203 -2.081331676239912e-07
196 203 1.0500364324231526e-07
197 203 161594401.06401339
198 203 1.6713317927464562e-06
199 203 75465697.477118194
200 203 -10666759.13610086
201 203 1.4725105626832372e-06
202 203 4.5797529285400895e-06
203 203 346021453.93980002
204 203 3.475367317458962e-06
205 203 4.7248324675332053e-07
206 203 4.3782102792914634e-10
207 203 4.579752896028927e-06
208 203 161594400.49701563
209 203 -22840689.286240563
210 203 3.1530810505045318e-06
211 203 1.2964743319844369e-06
212 203 1.9090371899141044e-07
213 203 2.0446543336855463e-10
214 203 -6.4062130847035531e-08
215 203 -2.890032957555886e-11
216 203 5.6421382295565711e-24
181 204 5.4769949899282046e-30
182 204 -3.544536271003027e-24
183 204 -5.4672842952928434e-26
184 204 2.8324382991069866e-10
185 204 3.4345918271010781e-24
186 204 2.8205219319371592e-10
187 204 2.8086050100910178e-10
188 204 4.0888209160132913e-24
189 204 2.4215682719361578e-20
190 204 -6.6105511796680775e-22
191 204 -3.3922036843373357e-06
192 204 -3.5553584429108226e-20
193 204 -2.3115826279845142e-06
194 204 -1.2309144667652897e-06
195 204 -3.8233831623291619e-20
196 204 -2.0811185829605774e-23
197 204 4.2221603435626227e-08
198 204 6.0222427343080249e-22
199 204 5.9290641911970033e-08
200 204 7.6360423229354965e-08
201 204 7.8312090251138846e-22
202 204 228528994.40873128
203 204 3.475367317458962e-06
204 204 237057420.88765186
205 204 150922283.30687654
206 204 3.8120547649229899e-06
207 204 2.5981525884174704e-20
208 204 2.4290638136979103e-06
209 204 1.3827147934260005e-06
210 204 3.9783354066411686e-20
211 204 106722844.23769188
212 204 64796612.614340588
213 204 2.5650693993422732e-06
214 204 -15084575.205246627
215 204 1.3180296782741134e-06
216 204 3.0149378272116451e-20
181 205 -1.4683006107544881e-27
182 205 3.0761739375160175e-24
183 205 -6.618753954500938e-25
184 205 -6.3674754528959606e-10
185 205 -4.3941055606996813e-24
186 205 2.191787147910542e-12
187 205 6.4115896467251137e-10
188 205 -2.787183415757743e-24
189 205 1.3504244806581164e-20
190 205 1.3627130467240952e-21
191 205 -9.3771200621469879e-07
192 205 -1.6377209697385906e-20
193 205 -1.8927499605625902e-06
194 205 -2.8478295475402006e-06
195 205 -2.3187979288655616e-20
196 205 -1.4481253198262378e-22
197 205 -2.3335268222580919e-07
198 205 -1.7703873531705638e-21
199 205 -2.9829860191056478e-08
200 205 1.7370183121120843e-07
201 205 -1.329764254108885e-21
202 205 -32301612.791856848
203 205 4.7248324675332053e-07
204 205 150922283.30687654
205 205 347534514.47931677
206 205 1.3175240014954067e-06
207 205 9.082789176554769e-21
208 205 1.8327748465603568e-06
209 205 3.1931257145441787e-06
210 205 2.0531791193140896e-20
211 205 106721073.80368757
212 205 150930497.75180474
213 205 2.1849541310047438e-06
214 205 -32302112.829869855
215 205 3.0524220770232969e-06
216 205 1.9660930271981817e-20
181 206 3.2085565779012187e-41
182 206 -7.4822407563503327e-28
183 206 6.3724912164753634e-30
184 206 1.8529629177541471e-23
185 206 7.6138203790573219e-28
186 206 1.0161258176488644e-23
187 206 1.7919752505535563e-24
188 206 8.4303649632151772e-10
189 206 5.1390122448076172e-24
190 206 -2.2864051956055072e-25
191 206 -4.3025474414844654e-10
192 206 -7.7244374370182129e-24
193 206 -2.0093192677091913e-10
194 206 2.8400883263349497e-11
195 206 -4.0942970891630359e-06
196 206 2.3811200556839226e-27
197 206 3.6644030390825445e-12
198 206 2.3546308142869559e-25
199 206 1.7113014400571085e-12
200 206 -2.4188526464647602e-13
201 206 2.227426726368881e-07
202 206 4.4591300165399876e-06
203 206 4.3782102792914634e-10
204 206 3.8120547649229899e-06
205 206 1.3175240014954067e-06
206 206 484775168.1282568
207 206 5.7947624275125284e-24
208 206 2.0446543336622839e-10
209 206 -2.8900329566638482e-11
210 206 4.5369541162832748e-06
211 206 1.5451460379618797e-06
212 206 5.5806034246053957e-07
213 206 226393340.00126618
214 206 -1.4242234324881649e-07
215 206 -31999747.018082086
216 206 6.2472296544494487e-06
181 207 1.7961365729499499e-20
182 207 2.327246283087368e-07
183 207 -1.6464914136138097e-06
184 207 -3.2995917738555614e-20
185 207 -3.5256255729575671e-06
186 207 -2.0001326307611929e-20
187 207 -6.9921924875925511e-21
188 207 -4.4609748751655784e-24
189 207 1507701.4030310295
190 207 -15085074.581087334
191 207 -3.023070001106498e-07
192 207 -32301610.730129343
193 207 -1.8325118283414256e-07
194 207 -6.4062128893307663e-08
195 207 -4.0871235731821188e-11
196 207 75465697.206187397
197 207 2.1387761302908391e-06
198 207 228528991.96598288
199 207 1.2964742978157034e-06
200 207 4.5322983616810626e-07
201 207 2.8915778783393677e-10
202 207 3.0307566913506264e-20
203 207 4.579752896028927e-06
204 207 2.5981525884174704e-20
205 207 9.082789176554769e-21
206 207 5.7947624275125284e-24
207 207 346021451.48343182
208 207 2.7761353659810296e-06
209 207 9.7049923594758989e-07
210 207 6.1917243115235908e-10
211 207 1.11364881240891e-20
212 207 5.5057668319241638e-21
213 207 3.5126447383051877e-24
214 207 1.3609976533780795e-21
215 207 1.2279729138769242e-24
216 207 5.5397504671394551e-28
181 208 -2.269104495268018e-26
182 208 -1.4700342271726864e-13
183 208 1.0400270016060475e-12
184 208 -1.1642452479115281e-06
185 208 2.2270057037714567e-12
186 208 -1.1642259499892837e-06
187 208 -1.1642066365496422e-06
188 208 -1.685580183387104e-20
189 208 1.8926220058189501e-07
190 208 -9.4470282749946496e-07
191 208 -10666758.569286602
192 208 -2.1569935048966636e-06
193 208 -10666581.762657724
194 208 -10666404.813859206
195 208 -1.5443203999004919e-07
196 208 -2.1152273143984494e-08
197 208 75465697.477118224
198 208 8.8471860369975574e-07
199 208 75464446.597061247
200 208 75463194.71117565
201 208 1.0925832374438679e-06
202 208 2.1387761379692995e-06
203 208 161594400.49701563
204 208 2.4290638136979103e-06
205 208 1.8327748465603568e-06
206 208 2.0446543336622839e-10
207 208 2.7761353659810296e-06
208 208 161591721.99248102
209 208 161589041.33416954
210 208 2.3395441860638102e-06
211 208 1.296452842301833e-06
212 208 1.2371919597551484e-06
213 208 2.0446204425151515e-10
214 208 4.53214794863156e-07
215 208 2.0445865240528395e-10
216 208 4.1863914946985801e-24
181 209 6.0831304801165414e-24
182 209 3.9409427477615826e-11
183 209 -2.7881571630426775e-10
184 209 1.645611721615344e-07
185 209 -5.9702699414694674e-10
186 209 -1.1642066365496422e-06
187 209 -2.4930323605022577e-06
188 209 -1.0991960087859695e-20
189 209 1.0554495278576893e-07
190 209 -5.1329616822592041e-07
191 209 1507701.488560668
192 209 -1.1759178555121135e-06
193 209 -10666404.813859206
194 209 -22841041.732915927
195 209 -1.0070779899071389e-07
196 209 -1.4718595356593733e-07
197 209 -10666759.136100879
198 209 9.7623955700637249e-08
199 209 75463194.71117565
200 209 161596902.590601
201 209 7.1249238865335429e-07
202 209 -3.0230701726007235e-07
203 209 -22840689.286240563
204 209 1.3827147934260005e-06
205 209 3.1931257145441787e-06
206 209 -2.8900329566638482e-11
207 209 9.7049923594758989e-07
208 209 161589041.33416954
209 209 346026810.44882023
210 209 1.5256571692876918e-06
211 209 1.2964313353394449e-06
212 209 2.2835257996578307e-06
213 209 2.0445865240929931e-10
214 209 9.7051426643715216e-07
215 209 4.3782780549479904e-10
216 209 2.7300181955861132e-24
181 210 -1.3292964787489904e-37
182 210 2.2386906865810419e-24
183 210 6.0663295002382215e-24
184 210 -2.2717121497026047e-20
185 210 9.8919543484156942e-24
186 210 -1.6855801887480248e-20
187 210 -1.0991959522249369e-20
188 210 -3.4926778406697643e-06
189 210 4.0164912034131403e-11
190 210 -2.0117381128141617e-10
191 210 -2.0813316681567539e-07
192 210 -4.5915506900982526e-10
193 210 -1.5443204045539734e-07
194 210 -1.0070780072972625e-07
195 210 -31999745.202784549
196 210 2.4201456956285313e-12
197 210 1.4725105569645258e-06
198 210 2.0812983562823217e-10
199 210 1.0925832407361353e-06
200 210 7.1249240095660271e-07
201 210 226393339.1884872
202 210 4.1732476442008952e-20
203 210 3.1530810505045318e-06
204 210 3.9783354066411686e-20
205 210 2.0531791193140896e-20
206 210 4.5369541162832748e-06
207 210 6.1917243115235908e-10
208 210 2.3395441860638102e-06
209 210 1.5256571692876918e-06
210 210 484775164.68689126
211 210 1.8770198517438039e-20
212 210 1.3295146883304671e-20
213 210 2.7501917815191335e-06
214 210 4.2790673387336543e-21
215 210 9.6142971102220339e-07
216 210 8.674589855474319e-10
181 211 1.4333083819982437e-32
182 211 -1.8453384725357531e-26
183 211 -2.9150907000970235e-28
184 211 1.4708202958595906e-12
185 211 1.7867300733060273e-26
186 211 1.4707959163091857e-12
187 211 1.4707715171552631e-12
188 211 2.1294358288223228e-26
189 211 1.1879069853317714e-20
190 211 2.6538322638185219e-22
191 211 -1.3390013406105581e-06
192 211 -1.6265984160000746e-20
193 211 -1.3389791460224311e-06
194 211 -1.3389569335877072e-06
195 211 -1.9385899402964464e-20
196 211 2.9643843210994934e-24
197 211 -2.1152273219923665e-08
198 211 -2.5695459049085091e-22
199 211 -2.1151922610870614e-08
200 211 -2.1151571719893952e-08
201 211 -3.0624005245467648e-22
202 211 75465697.748049036
203 211 1.2964743319844369e-06
204 211 106722844.23769188
205 211 106721073.80368757
206 211 1.5451460379618797e-06
207 211 1.11364881240891e-20
208 211 1.296452842301833e-06
209 211 1.2964313353394449e-06
210 211 1.8770198517438039e-20
211 211 75463196.008660048
212 211 106719304.85080776
213 211 1.5451204310826159e-06
214 211 75460692.299148381
215 211 1.5450947989532299e-06
216 211 1.5818288071677707e-20
181 212 -5.4340955965013118e-30
182 212 3.4908350065522276e-24
183 212 5.3825529918176018e-26
184 212 -2.7896272075251847e-10
185 212 -3.3825941232565148e-24
186 212 -2.7777110328953021e-10
187 212 -2.7657943037438586e-10
188 212 -4.0268410403596272e-24
189 212 9.3685206531649113e-21
190 212 1.4104215938471277e-21
191 212 -3.9417830770601832e-07
192 212 -1.0435016173454433e-20
193 212 -1.4747836762411652e-06
194 212 -2.5554361370343974e-06
195 212 -1.6583578837492782e-20
196 212 2.9171504307710044e-23
197 212 -1.0196208905064543e-07
198 212 -1.3278195166898991e-21
199 212 -1.1903088091881665e-07
200 212 -1.3610041542983018e-07
201 212 -1.6480147847739366e-21
202 212 -15085075.490998195
203 212 1.9090371899141044e-07
204 212 64796612.614340588
205 212 150930497.75180474
206 212 5.5806034246053957e-07
207 212 5.5057668319241638e-21
208 212 1.2371919597551484e-06
209 212 2.2835257996578307e-06
210 212 1.3295146883304671e-20
211 212 106719304.85080776
212 212 237054916.92388383
213 212 1.8050276035278099e-06
214 212 228524952.98341206
215 212 3.0520491936844825e-06
216 212 1.4588148662737624e-20
181 213 1.1874682230186518e-43
182 213 -2.7691340836230061e-30
183 213 2.3584220015259596e-32
184 213 6.1130239200076082e-24
185 213 2.8178309381233418e-30
186 213 6.107686979417369e-24
187 213 6.102347704029229e-24
188 213 3.1200292901850864e-12
189 213 3.5651710289556185e-24
190 213 1.8353143034456583e-26
191 213 -2.0093192676963455e-10
192 213 -5.0061795363584847e-24
193 213 -2.0092859622200689e-10
194 213 -2.0092526299629838e-10
195 213 -2.840403694497875e-06
196 213 -4.7966051701860322e-28
197 213 1.7113014386903e-12
198 213 -1.9735375525945231e-26
199 213 1.7112730731251426e-12
200 213 1.7112446847512972e-12
201 213 -4.4870003620387638e-08
202 213 2.0824444078730153e-06
203 213 2.0446543336855463e-10
204 213 2.5650693993422732e-06
205 213 2.1849541310047438e-06
206 213 226393340.00126618
207 213 3.5126447383051877e-24
208 213 2.0446204425151515e-10
209 213 2.0445865240929931e-10
210 213 2.7501917815191335e-06
211 213 1.5451204310826159e-06
212 213 1.8050276035278099e-06
213 213 226389587.42329359
214 213 1.0075829858605038e-06
215 213 226385831.82788515
216 213 4.6353612809077481e-06
181 214 1.0301131048555865e-27
182 214 2.7588129540884912e-24
183 214 5.4379351934596798e-25
184 214 5.5733349974352444e-11
185 214 -1.6745038181040144e-24
186 214 -3.9429189197554593e-10
187 214 -8.4433674857923882e-10
188 214 -3.7227415697880994e-24
189 214 3.694278268944785e-21
190 214 1.0298082675256809e-21
191 214 1.0554495877317575e-07
192 214 -3.1710894200446279e-21
193 214 -7.4668975581599214e-07
194 214 -1.5989616156301832e-06
195 214 -7.0499369890251736e-21
196 214 1.4353345777701275e-22
197 214 2.080411594973588e-08
198 214 -6.2505791606179354e-22
199 214 -1.4718107277733756e-07
200 214 -3.151735832521983e-07
201 214 -1.3896230408617788e-21
202 214 1507701.5740903113
203 214 -6.4062130847035531e-08
204 214 -15084575.205246627
205 214 -32302112.829869855
206 214 -1.4242234324881649e-07
207 214 1.3609976533780795e-21
208 214 4.53214794863156e-07
209 214 9.7051426643715216e-07
210 214 4.2790673387336543e-21
211 214 75460692.299148381
212 214 228524952.98341206
213 214 1.0075829858605038e-06
214 214 346032169.49720496
215 214 2.1576384759858699e-06
216 214 6.7268366981877252e-21
181 215 -3.1834250721720834e-41
182 215 7.4236349699959424e-28
183 215 -6.3225777155754558e-30
184 215 -6.3015223167912196e-24
185 215 -7.5541839754134226e-28
186 215 2.0558682898051146e-24
187 215 1.0414166133000115e-23
188 215 -8.3643328518193634e-10
189 215 1.9881720003645981e-24
190 215 2.6513568756721312e-25
191 215 2.8400883265932246e-11
192 215 -2.2838747566741976e-24
193 215 -2.0092526299500363e-10
194 215 -4.3026140459074559e-10
195 215 -1.5839944421367998e-06
196 215 -3.3376692001252546e-27
197 215 -2.4188526737824711e-13
198 215 -2.7471476486215793e-25
199 215 1.7112446833857072e-12
200 215 3.6644597626365104e-12
201 215 -3.1222338253758779e-07
202 215 -2.9434476398812587e-07
203 215 -2.890032957555886e-11
204 215 1.3180296782741134e-06
205 215 3.0524220770232969e-06
206 215 -31999747.018082086
207 215 1.2279729138769242e-24
208 215 2.0445865240528395e-10
209 215 4.3782780549479904e-10
210 215 9.6142971102220339e-07
211 215 1.5450947989532299e-06
212 215 3.0520491936844825e-06
213 215 226385831.82788515
214 215 2.1576384759858699e-06
215 215 484782672.58363461
216 215 3.0227991471936229e-06
181 216 4.9189720732436294e-55
182 216 -2.294173870820592e-41
183 216 1.9539070320430547e-43
184 216 1.6812635557948292e-37
185 216 2.3345182732459959e-41
186 216 1.2474751882991941e-37
187 216 8.1350011505415056e-38
188 216 2.5848838139193762e-23
189 216 5.349932537922803e-28
190 216 -6.4437824587603173e-30
191 216 -5.5446325908637177e-24
192 216 -7.6989988019381348e-28
193 216 -4.1140436081525615e-24
194 216 -2.6828388892711284e-24
195 216 -8.5246783520968049e-10
196 216 3.8806407446727237e-32
197 216 4.7222648410291011e-26
198 216 6.5571001789054778e-30
199 216 3.5038576798130103e-26
200 216 2.2849261070654792e-26
201 216 7.2603167484029401e-12
202 216 2.8732091806530088e-20
203 216 5.6421382295565711e-24
204 216 3.0149378272116451e-20
205 216 1.9660930271981817e-20
206 216 6.2472296544494487e-06
207 216 5.5397504671394551e-28
208 216 4.1863914946985801e-24
209 216 2.7300181955861132e-24
210 216 8.674589855474319e-10
211 216 1.5818288071677707e-20
212 216 1.4588148662737624e-20
213 216 4.6353612809077481e-06
214 216 6.7268366981877252e-21
215 216 3.0227991471936229e-06
216 216 679168760.46182108
217 217 618184476.76004291
218 217 1.962334601027936e-05
219 217 -1.2708485588546892e-06
220 217 2.2712527961161319e-09
221 217 -2.2164702792777973e-05
222 217 -1.1591599366113869e-11
223 217 -2.2939590282086004e-09
224 217 -7.4118377086128122e-18
225 217 3.1145695428762713e-19
226 217 -2.8525533087988957e-20
227 217 5.0980658816804149e-23
228 217 -4.9751007584305157e-19
229 217 -2.6018564443176959e-25
230 217 -5.1490324087574876e-23
231 217 -1.6636649609169826e-31
232 217 1.3062897243939913e-21
233 217 -3.3016131271832897e-24
234 217 3.2219783647989012e-20
235 217 1.6850161592604244e-26
236 217 3.3346201064475784e-24
237 217 1.077423909709826e-32
238 217 4.1723704313168369e-27
239 217 -5.7583000894065852e-23
240 217 -3.0114506064122632e-29
241 217 -5.9596127233127957e-27
242 217 -1.9255654424601056e-35
243 217 3.973523020725046e-19
244 217 2.9388145511762708e-25
245 217 5.8158671284045023e-23
246 217 1.8791208892799087e-31
247 217 1.0867724839089349e-31
248 217 3.0415567647937206e-29
249 217 9.82734427466614e-38
250 217 4.2562117142439668e-27
251 217 1.9448157592546521e-35
252 217 4.4432803058025294e-44
217 218 1.962334601027936e-05
218 218 950610375.40119851
219 218 206057743.94966939
220 218 -0.00023012084292195381
221 218 -538483637.36013758
222 218 -7.2795121205505259e-06
223 218 0.0002155648812118503
224 218 -1.0832521249152185e-09
225 218 3.0175711326863594e-05
226 218 3.2433253837678923e-06
227 218 2.4696472808100955e-09
228 218 -3.618762686032674e-05
229 218 -1.2604128582562177e-11
230 218 -2.4943369081822028e-09
231 218 -8.0592878685164249e-18
232 218 -4.2360848061368221e-07
233 218 5.3532968036745418e-10
234 218 -4.4414072380895735e-06
235 218 -2.7321164629092782e-12
236 218 -5.4068149322313537e-10
237 218 -1.7469535488578217e-18
238 218 -8.4547999437062494e-22
239 218 -1.3989586926623539e-09
240 218 -1.586070916726986e-23
241 218 1.1638502644421565e-21
242 218 -2.8122942216713547e-27
243 218 1.930706808332612e-05
244 218 7.1397464912838684e-12
245 218 1.4129444021299814e-09
246 218 4.5652853918102144e-18
247 218 1.3649839369057054e-25
248 218 1.6242772796476582e-23
249 218 1.442453896392735e-29
250 218 -7.9991818625459342e-22
251 218 2.8405522777446846e-27
252 218 1.2987852735257373e-35
217 219 -1.2708485588546892e-06
218 219 206057743.94966939
219 219 206061493.45202205
220 219 5.4706883097038046e-07
221 219 206065239.30530307
222 219 -3.685961709459424e-07
223 219 -1.2844866246790389e-06
224 219 -5.9446031209779822e-13
225 219 6.5409963524390943e-06
226 219 4.3257306088416145e-06
227 219 5.353296800452178e-10
228 219 -5.9882440095704271e-07
229 219 -2.7321164817646906e-12
230 219 -5.4068149293861057e-10
231 219 -1.7469551368736603e-18
232 219 -4.2361618874910198e-07
233 219 5.3533942108752024e-10
234 219 -5.5238179044977573e-06
235 219 -2.7321661875496618e-12
236 219 -5.4069133134684076e-10
237 219 -1.7469869109029685e-18
238 219 2.0099689635069347e-24
239 219 5.3534915264968248e-10
240 219 -9.6485151301883049e-25
241 219 -4.7725156414878307e-24
242 219 -1.5490218772983635e-30
243 219 -7.3883686129789434e-06
244 219 -2.7322158449517917e-12
245 219 -5.407011601801558e-10
246 219 -1.7470186539957223e-18
247 219 6.9115600635624868e-27
248 219 9.8420224917477664e-25
249 219 1.1006894171474414e-32
250 219 4.766473116146237e-24
251 219 1.5707132539983301e-30
252 219 7.1273924259189546e-39
217 220 2.2712527961161319e-09
218 220 -0.00023012084292195381
219 220 5.4706883097038046e-07
220 220 950602812.78710234
221 220 0.00023121055747413904
222 220 206065239.89184627
223 220 -538483579.49573088
224 220 -3.5678573571556245e-06
225 220 -7.3048436068255972e-18
226 220 3.4679535713634967e-19
227 220 2.1337280355522203e-05
228 220 1.1024010751373558e-17
229 220 4.6253511308355313e-06
230 220 -1.2086830533204822e-05
231 220 -8.0084312472297763e-20
232 220 -1.1246507359376234e-21
233 220 -1.3818464993426384e-06
234 220 -3.4996970731215693e-19
235 220 -2.9954732570786288e-07
236 220 7.8276819642266148e-07
237 220 5.1864260580924101e-21
238 220 3.4925809005337344e-09
239 220 -2.4100603293576475e-05
240 220 5.2274512604078654e-10
241 220 -3.8932756174034275e-09
242 220 -8.0592087071785803e-18
243 220 -8.2899417271456843e-18
244 220 -5.2243655630138677e-06
245 220 1.3652157299515768e-05
246 220 9.0455775655557999e-20
247 220 -3.863936727475617e-12
248 220 -5.3356141621226748e-10
249 220 -1.7470186267335962e-18
250 220 1.9982049293770906e-09
251 220 4.56526679939414e-18
252 220 4.2777489071409447e-32
217 221 -2.2164702792777973e-05
218 221 -538483637.36013758
219 221 206065239.30530307
220 221 0.00023121055747413904
221 221 950602869.47815895
222 221 6.5423250563830354e-06
223 221 -0.00021812942468751737
224 221 1.0823566888718933e-09
225 221 -1.7093361502982941e-05
226 221 5.4081193982073751e-06
227 221 -1.3989586933068359e-09
228 221 3.4989440394562872e-05
229 221 7.1397464535759944e-12
230 221 1.4129444026990463e-09
231 221 4.565282222787806e-18
232 221 -4.2362388938284952e-07
233 221 5.3534915232745262e-10
234 221 -6.6062121298950129e-06
235 221 -2.7322158638070688e-12
236 221 -5.40701159895637e-10
237 221 -1.7470202424379545e-18
238 221 8.4948368189712746e-22
239 221 2.4696277800292188e-09
240 221 1.3931078497002163e-23
241 221 -1.1733721817081166e-21
242 221 2.8099586764792405e-27
243 221 -3.4083402071779712e-05
244 221 -1.2604029064114522e-11
245 221 -2.4943172124594589e-09
246 221 -8.0592273596108411e-18
247 221 -1.2267537252624558e-25
248 221 -1.4274440880818136e-23
249 221 -1.4406416527895117e-29
250 221 8.094346944821585e-22
251 221 -2.8381809723537356e-27
252 221 -1.2977116738348566e-35
217 222 -1.1591599366113869e-11
218 222 -7.2795121205505259e-06
219 222 -3.685961709459424e-07
220 222 206065239.89184627
221 222 6.5423250563830354e-06
222 222 206061492.41270962
223 222 206057741.28446713
224 222 -2.1501011454270283e-07
225 222 -2.3107727776333161e-19
226 222 2.3083546288448279e-21
227 222 4.6253511308355304e-06
228 222 3.3140661404601533e-19
229 222 4.6252670147232192e-06
230 222 4.6251828167028863e-06
231 222 -4.8261282540928017e-21
232 222 7.5775102751855999e-22
233 222 -2.9954732570786283e-07
234 222 -1.6526223176654585e-22
235 222 -2.9954187817409098e-07
236 222 -2.9953642533578593e-07
237 222 3.1255006834658437e-22
238 222 7.5709803445674069e-10
239 222 -5.2243655630138668e-06
240 222 5.3260720252615016e-10
241 222 -5.3714886429200139e-12
242 222 -1.7470192326273383e-18
243 222 -2.3457187392112433e-19
244 222 -5.2242705532928696e-06
245 222 -5.2241754510562048e-06
246 222 5.4511446893939802e-21
247 222 -3.8638664583594915e-12
248 222 -5.4342344505977612e-10
249 222 -1.7469869001050134e-18
250 222 -7.6463909030710894e-10
251 222 -1.746954536762916e-18
252 222 2.5779037400826727e-33
217 223 -2.2939590282086004e-09
218 223 0.0002155648812118503
219 223 -1.2844866246790389e-06
220 223 -538483579.49573088
221 223 -0.00021812942468751737
222 223 206057741.28446713
223 223 950610312.20605528
224 223 3.1380892866957168e-06
225 223 6.8427862667853173e-18
226 223 -3.4218816023853611e-19
227 223 -1.2086830533204822e-05
228 223 -1.0361354115096789e-17
229 223 4.6251828167028871e-06
230 223 2.1337448687871473e-05
231 223 7.0437715929782281e-20
232 223 2.6406162692933061e-21
233 223 7.8276819642266148e-07
234 223 3.4965001152904527e-19
235 223 -2.9953642533578599e-07
236 223 -1.381857400894462e-06
237 223 -4.561692472506848e-21
238 223 -1.978426152015848e-09
239 223 1.3652157299515768e-05
240 223 5.4246941864835409e-10
241 223 3.8825913775599023e-09
242 223 4.5652655902082881e-18
243 223 7.8209240872873347e-18
244 223 -5.2241754510562064e-06
245 223 -2.4100793426109945e-05
246 223 -7.9559879246492406e-20
247 223 -3.8637961208188507e-12
248 223 -5.5328561349773213e-10
249 223 -1.7469551425426982e-18
250 223 -3.5275248570172868e-09
251 223 -8.0592712521476712e-18
252 223 -3.7624704893962436e-32
217 224 -7.4118377086128122e-18
218 224 -1.0832521249152185e-09
219 224 -5.9446031209779822e-13
220 224 -3.5678573571556245e-06
221 224 1.0823566888718933e-09
222 224 -2.1501011454270283e-07
223 224 3.1380892866957168e-06
224 224 618184476.75947797
225 224 -3.4386226226731648e-23
226 224 1.5613292621845789e-24
227 224 -8.0084315150749251e-20
228 224 5.1758291883517767e-23
229 224 -4.8261281451853348e-21
230 224 7.0437718825457711e-20
231 224 1.3875801033425834e-05
232 224 1.2220772268376678e-27
233 224 5.1864260476320339e-21
234 224 -1.5582995619263507e-24
235 224 3.1255006222443746e-22
236 224 -4.5616924742910919e-21
237 224 -8.9862563382648073e-07
238 224 -1.3108556247022556e-23
239 224 9.045577831385356e-20
240 224 -5.1128139958483253e-25
241 224 1.7514443790613649e-23
242 224 1.6060182539211561e-09
243 224 -3.8807370981146632e-23
244 224 5.4511445682399693e-21
245 224 -7.9559882146505488e-20
246 224 -1.5672811647743388e-05
247 224 4.0316623148595102e-27
248 224 5.225640150041525e-25
249 224 -8.196498516569311e-12
250 224 -1.1644822098298263e-23
251 224 -1.6220739846089212e-09
252 224 -7.4118377086060376e-18
217 225 3.1145695428762713e-19
218 225 3.0175711326863594e-05
219 225 6.5409963524390943e-06
220 225 -7.3048436068255972e-18
221 225 -1.7093361502982941e-05
222 225 -2.3107727776333161e-19
223 225 6.8427862667853173e-18
224 225 -3.4386226226731648e-23
225 225 1461796793.3400178
226 225 448113877.03713351
227 225 -0.0005004439101982868
228 225 -1171040630.8119545
229 225 -1.5830758586173169e-05
230 225 0.00046878905311360585
231 225 -2.3557489284316245e-09
232 225 68684665.238057882
233 225 -0.00010847803240658794
234 225 -253839003.55250096
235 225 -3.4315325013173516e-06
236 225 0.00010161641106864947
237 225 -5.1064066000710708e-10
238 225 8.566310597874493e-17
239 225 0.00028348192280625066
240 225 3.8322614650683042e-18
241 225 -1.1348301559359517e-16
242 225 5.7027247245684907e-22
243 225 469058409.91726822
244 225 8.9675062320406591e-06
245 225 -0.00026555068302162253
246 225 1.3344397289517616e-09
247 225 8.57208466168123e-20
248 225 -3.5898572984559029e-18
249 225 1.803967568758592e-23
250 225 7.5168852921417538e-17
251 225 -5.3420071047298032e-22
252 225 1.8981957817566188e-27
217 226 -2.8525533087988957e-20
218 226 3.2433253837678923e-06
219 226 4.3257306088416145e-06
220 226 3.4679535713634967e-19
221 226 5.4081193982073751e-06
222 226 2.3083546288448279e-21
223 226 -3.4218816023853611e-19
224 226 1.5613292621845789e-24
225 226 448113877.03713351
226 226 385554792.21504676
227 226 -7.5864299710843726e-05
228 226 137384606.40427324
229 226 -2.9932669916710593e-06
230 226 6.987843986508935e-05
231 226 -3.6199160208939092e-10
232 226 97136552.606925264
233 226 -7.6524595126971549e-05
234 226 -110807383.18635674
235 226 -2.5493672096656083e-06
236 226 7.1426806402073538e-05
237 226 -3.612821935717693e-10
238 226 -2.8800155353120043e-19
239 226 -7.7184879228791794e-05
240 226 1.3076884070875734e-19
241 226 6.6892001967313029e-19
242 226 -7.3734586139872848e-25
243 226 -253848236.95265791
244 226 -2.1054740926539497e-06
245 226 7.2975148290641524e-05
246 226 -3.6057278947822863e-10
247 226 6.1383266467824355e-21
248 226 -1.1340620233542594e-19
249 226 6.5289566728569652e-25
250 226 -6.3343856126779993e-19
251 226 2.0435293129118536e-24
252 226 1.4731579619341823e-30
217 227 5.0980658816804149e-23
218 227 2.4696472808100955e-09
219 227 5.353296800452178e-10
220 227 2.1337280355522203e-05
221 227 -1.3989586933068359e-09
222 227 4.6253511308355304e-06
223 227 -1.2086830533204822e-05
224 227 -8.0084315150749251e-20
225 227 -0.0005004439101982868
226 227 -7.5864299710843726e-05
227 227 1461785163.9644911
228 227 0.00055599497598920935
229 227 316875888.0478369
230 227 -828050682.11137629
231 227 -5.4864564691748965e-06
232 227 2.5788602578766237e-07
233 227 316861840.37124163
234 227 7.6592247169196109e-05
235 227 68687163.839999214
236 227 -179491261.45382482
237 227 -1.1892641523496071e-06
238 227 -0.00050043992889925253
239 227 -828044183.50522876
240 227 -8.790229040227452e-05
241 227 0.00053193324969066176
242 227 -1.66575278867878e-09
243 227 -0.00028482432348860953
244 227 -179497810.25239569
245 227 469058359.51316172
246 227 3.1078632341799193e-06
247 227 -3.4316573331664964e-06
248 227 7.8197251015084718e-05
249 227 -3.610906086285966e-10
250 227 -0.00026555065448606141
251 227 9.4359127878589569e-10
252 227 8.8416625395751536e-24
217 228 -4.9751007584305157e-19
218 228 -3.618762686032674e-05
219 228 -5.9882440095704271e-07
220 228 1.1024010751373558e-17
221 228 3.4989440394562872e-05
222 228 3.3140661404601533e-19
223 228 -1.0361354115096789e-17
224 228 5.1758291883517767e-23
225 228 -1171040630.8119545
226 228 137384606.40427324
227 228 0.00055599497598920935
228 228 1930843661.0581746
229 228 1.6401415150160483e-05
230 228 -0.00052320022221434234
231 228 2.6079804707790438e-09
232 228 97138318.386975676
233 228 3.6044144771178982e-07
234 228 137364049.52644283
235 228 -2.458128140645646e-07
236 228 -8.5221859690029034e-07
237 228 -3.1160745391988519e-13
238 228 -1.2171960091309775e-16
239 228 -0.00055526569908806271
240 228 -5.1580483381042974e-18
241 228 1.6182386846806831e-16
242 228 -8.0806325647620318e-22
243 228 -1171031384.3939915
244 228 -1.6892789282063152e-05
245 228 0.0005214878936289541
246 228 -2.6085642808586333e-09
247 228 -1.0895101846133397e-19
248 228 4.8499621507865832e-18
249 228 -2.4209627897893905e-23
250 228 -1.0756950386989006e-16
251 228 7.5965552601071426e-22
252 228 -2.6822351995839048e-27
217 229 -2.6018564443176959e-25
218 229 -1.2604128582562177e-11
219 229 -2.7321164817646906e-12
220 229 4.6253511308355313e-06
221 229 7.1397464535759944e-12
222 229 4.6252670147232192e-06
223 229 4.6251828167028871e-06
224 229 -4.8261281451853348e-21
225 229 -1.5830758586173169e-05
226 229 -2.9932669916710593e-06
227 229 316875888.0478369
228 229 1.6401415150160483e-05
229 229 316870125.37879097
230 229 316864357.09834909
231 229 -3.3063082847327889e-07
232 229 -1.7375474427655314e-07
233 229 68687163.839999199
234 229 2.5018094386142218e-06
235 229 68685914.703009486
236 229 68684664.349673271
237 229 -7.1668734487208368e-08
238 229 -0.00010848197860653552
239 229 -179497810.25239566
240 229 -7.9133495870964762e-05
241 229 -4.8492841028776104e-06
242 229 -3.610906085905722e-10
243 229 -8.0593781594703247e-06
244 229 -179494545.92552841
245 229 -179491278.42002454
246 229 1.8728944659850441e-07
247 229 -3.4315949254345237e-06
248 229 6.9428500589361548e-05
249 229 -3.610840419151262e-10
250 229 0.00010161640975431746
251 229 -3.6107746884530892e-10
252 229 5.3282591905454867e-25
217 230 -5.1490324087574876e-23
218 230 -2.4943369081822028e-09
219 230 -5.4068149293861057e-10
220 230 -1.2086830533204822e-05
221 230 1.4129444026990463e-09
222 230 4.6251828167028863e-06
223 230 2.1337448687871473e-05
224 230 7.0437718825457711e-20
225 230 0.00046878905311360585
226 230 6.987843986508935e-05
227 230 -828050682.11137629
228 230 -0.00052320022221434234
229 230 316864357.09834909
230 230 1461796696.161973
231 230 4.825582568011049e-06
232 230 -6.0550179140776696e-07
233 230 -179491261.45382482
234 230 -7.1589604290315319e-05
235 230 68684664.349673286
236 230 316864340.13208723
237 230 1.0460107347214161e-06
238 230 0.00028348189234383335
239 230 469058359.51316172
240 230 -7.0364567546724955e-05
241 230 -0.00054163992751577719
242 230 9.4359127886186809e-10
243 230 0.00026870989996504699
244 230 -179491278.42002457
245 230 -828050716.04453969
246 230 -2.7335039894842146e-06
247 230 -3.4315324569330547e-06
248 230 6.0659616413661179e-05
249 230 -3.6107746880728658e-10
250 230 0.00046878902194921713
251 230 -1.6657659302350601e-09
252 230 -7.7766355867262886e-24
217 231 -1.6636649609169826e-31
218 231 -8.0592878685164249e-18
219 231 -1.7469551368736603e-18
220 231 -8.0084312472297763e-20
221 231 4.565282222787806e-18
222 231 -4.8261282540928017e-21
223 231 7.0437715929782281e-20
224 231 1.3875801033425834e-05
225 231 -2.3557489284316245e-09
226 231 -3.6199160208939092e-10
227 231 -5.4864564691748965e-06
228 231 2.6079804707790438e-09
229 231 -3.3063082847327889e-07
230 231 4.825582568011049e-06
231 231 950610375.40032971
232 231 -2.8022623305539126e-13
233 231 -1.1892641503040782e-06
234 231 3.6129681844636738e-10
235 231 -7.1668733082289624e-08
236 231 1.0460107354857244e-06
237 231 206057743.9494811
238 231 1.8782800293127978e-18
239 231 3.1078632288344083e-06
240 231 1.2205186557251014e-19
241 231 -2.4122969023994107e-18
242 231 -0.0002301208429217435
243 231 -1.3333366566235624e-09
244 231 1.8728944292707843e-07
245 231 -2.7335039914815551e-06
246 231 -538483637.35964549
247 231 3.5806185565252518e-21
248 231 -1.1192838142649612e-19
249 231 -7.2795121205438725e-06
250 231 1.5475340312271316e-18
251 231 0.00021556488121165327
252 231 -1.5319498465231761e-09
217 232 1.3062897243939913e-21
218 232 -4.2360848061368221e-07
219 232 -4.2361618874910198e-07
220 232 -1.1246507359376234e-21
221 232 -4.2362388938284952e-07
222 232 7.5775102751855999e-22
223 232 2.6406162692933061e-21
224 232 1.2220772268376678e-27
225 232 68684665.238057882
226 232 97136552.606925264
227 232 2.5788602578766237e-07
228 232 97138318.386975676
229 232 -1.7375474427655314e-07
230 232 -6.0550179140776696e-07
231 232 -2.8022623305539126e-13
232 232 68687164.883565485
233 232 2.5789072160347086e-07
234 232 97140085.951476485
235 232 -1.7375790234094331e-07
236 232 -6.0551280529162332e-07
237 232 -2.8023128018387505e-13
238 232 4.8413429497271276e-22
239 232 2.5789540962542723e-07
240 232 -4.6130662703198322e-22
241 232 -1.6075646981837083e-21
242 232 -7.4398081991587798e-28
243 232 68689662.141798481
244 232 -1.7376106096897072e-07
245 232 -6.0552381250160915e-07
246 232 -2.8023637431981838e-13
247 232 2.1977765916750381e-22
248 232 1.0831218281022228e-21
249 232 5.0126869957441003e-28
250 232 2.6689539304297098e-21
251 232 1.7468248200223824e-27
252 232 5.7164661350204416e-34
217 233 -3.3016131271832897e-24
218 233 5.3532968036745418e-10
219 233 5.3533942108752024e-10
220 233 -1.3818464993426384e-06
221 233 5.3534915232745262e-10
222 233 -2.9954732570786283e-07
223 233 7.8276819642266148e-07
224 233 5.1864260476320339e-21
225 233 -0.00010847803240658794
226 233 -7.6524595126971549e-05
227 233 316861840.37124163
228 233 3.6044144771178982e-07
229 233 68687163.839999199
230 233 -179491261.45382482
231 233 -1.1892641503040782e-06
232 233 2.5789072160347086e-07
233 233 316867606.10560894
234 233 7.7252545863736914e-05
235 233 68688413.696847484
236 233 -179494527.54270941
237 233 -1.1892857926367019e-06
238 233 1.1897013907891257e-06
239 233 316873366.22867751
240 233 -3.8444298737180183e-07
241 233 -2.4517344542235921e-06
242 233 -9.1412137956624755e-13
243 233 0.00010899568400515377
244 233 68689662.337316424
245 233 -179497790.45298761
246 233 -1.1893074118631464e-06
247 233 -1.7376106146356342e-07
248 233 -1.0709595828085003e-07
249 233 -1.9815703905335236e-13
250 233 1.5823368906129574e-06
251 233 5.1781811634472805e-13
252 233 4.8520721555479279e-27
217 234 3.2219783647989012e-20
218 234 -4.4414072380895735e-06
219 234 -5.5238179044977573e-06
220 234 -3.4996970731215693e-19
221 234 -6.6062121298950129e-06
222 234 -1.6526223176654585e-22
223 234 3.4965001152904527e-19
224 234 -1.5582995619263507e-24
225 234 -253839003.55250096
226 234 -110807383.18635674
227 234 7.6592247169196109e-05
228 234 137364049.52644283
229 234 2.5018094386142218e-06
230 234 -7.1589604290315319e-05
231 234 3.6129681844636738e-10
232 234 97140085.951476485
233 234 7.7252545863736914e-05
234 234 385557287.14442641
235 234 2.0579074069627404e-06
236 234 -7.3137978646120415e-05
237 234 3.6058740801539646e-10
238 234 2.8936535661958056e-19
239 234 7.7912833288727891e-05
240 234 -1.3207097097636367e-19
241 234 -6.7345378882751523e-19
242 234 7.3550554137817259e-25
243 234 448126638.80031878
244 234 1.6140120596461842e-06
245 234 -7.468632828014067e-05
246 234 3.5987800210319158e-10
247 234 -5.5167060045325256e-21
248 234 1.1646708124827402e-19
249 234 -6.5165286230107003e-25
250 234 6.4097448604554134e-19
251 234 -2.0392026191231994e-24
252 234 -1.4719402225858928e-30
217 235 1.6850161592604244e-26
218 235 -2.7321164629092782e-12
219 235 -2.7321661875496618e-12
220 235 -2.9954732570786288e-07
221 235 -2.7322158638070688e-12
222 235 -2.9954187817409098e-07
223 235 -2.9953642533578599e-07
224 235 3.1255006222443746e-22
225 235 -3.4315325013173516e-06
226 235 -2.5493672096656083e-06
227 235 68687163.839999214
228 235 -2.458128140645646e-07
229 235 68685914.703009486
230 235 68684664.349673286
231 235 -7.1668733082289624e-08
232 235 -1.7375790234094331e-07
233 235 68688413.696847484
234 235 2.0579074069627404e-06
235 235 68687164.537128001
236 235 68685914.161039904
237 235 -7.1670038597810666e-08
238 235 2.5789541035949955e-07
239 235 68689662.337316409
240 235 5.9488652264097719e-08
241 235 -2.4581703767765263e-07
242 235 -1.9815704137098392e-13
243 235 3.0841377042111897e-06
244 235 68688413.154889315
245 235 68687162.756071463
246 235 -7.1671341439233077e-08
247 235 -1.7375790146456051e-07
248 235 -5.5102536233528464e-07
249 235 -1.9815343739097779e-13
250 235 -6.0550177952710983e-07
251 235 -1.9814982990182964e-13
252 235 2.9240086850487678e-28
217 236 3.3346201064475784e-24
218 236 -5.4068149322313537e-10
219 236 -5.4069133134684076e-10
220 236 7.8276819642266148e-07
221 236 -5.40701159895637e-10
222 236 -2.9953642533578593e-07
223 236 -1.381857400894462e-06
224 236 -4.5616924742910919e-21
225 236 0.00010161641106864947
226 236 7.1426806402073538e-05
227 236 -179491261.45382482
228 236 -8.5221859690029034e-07
229 236 68684664.349673271
230 236 316864340.13208723
231 236 1.0460107354857244e-06
232 236 -6.0551280529162332e-07
233 236 -179494527.54270941
234 236 -7.3137978646120415e-05
235 236 68685914.161039904
236 236 316870105.91194111
237 236 1.0460297683167353e-06
238 236 -6.7392464531519827e-07
239 236 -179497790.45298761
240 236 5.0342699445861826e-07
241 236 1.9601337031775085e-06
242 236 5.1781811170838677e-13
243 236 -0.00010282906665735666
244 236 68687162.756071478
245 236 316875866.08045197
246 236 1.0460487833882757e-06
247 236 -1.7375473838851023e-07
248 236 -9.9496146677118642e-07
249 236 -1.9814983221969009e-13
250 236 -2.7933735082680781e-06
251 236 -9.1412859454182355e-13
252 236 -4.2676133391549716e-27
217 237 1.077423909709826e-32
218 237 -1.7469535488578217e-18
219 237 -1.7469869109029685e-18
220 237 5.1864260580924101e-21
221 237 -1.7470202424379545e-18
222 237 3.1255006834658437e-22
223 237 -4.561692472506848e-21
224 237 -8.9862563382648073e-07
225 237 -5.1064066000710708e-10
226 237 -3.612821935717693e-10
227 237 -1.1892641523496071e-06
228 237 -3.1160745391988519e-13
229 237 -7.1668734487208368e-08
230 237 1.0460107347214161e-06
231 237 206057743.9494811
232 237 -2.8023128018387505e-13
233 237 -1.1892857926367019e-06
234 237 3.6058740801539646e-10
235 237 -7.1670038597810666e-08
236 237 1.0460297683167353e-06
237 237 206061493.45183372
238 237 -4.4652559360720767e-21
239 237 -1.1893074098175429e-06
240 237 1.93708071519215e-21
241 237 1.0190511282281186e-20
242 237 5.470688309698805e-07
243 237 5.1023711429491679e-10
244 237 -7.1671340034263233e-08
245 237 1.0460487841526118e-06
246 237 206065239.30511475
247 237 1.8130367361121765e-22
248 237 -1.4243484238485218e-21
249 237 -3.6859617094560554e-07
250 237 -9.2212922307755272e-21
251 237 -1.2844866246778649e-06
252 237 -8.406938356604808e-13
217 238 4.1723704313168369e-27
218 238 -8.4547999437062494e-22
219 238 2.0099689635069347e-24
220 238 3.4925809005337344e-09
221 238 8.4948368189712746e-22
222 238 7.5709803445674069e-10
223 238 -1.978426152015848e-09
224 238 -1.3108556247022556e-23
225 238 8.566310597874493e-17
226 238 -2.8800155353120043e-19
227 238 -0.00050043992889925253
228 238 -1.2171960091309775e-16
229 238 -0.00010848197860653552
230 238 0.00028348189234383335
231 238 1.8782800293127978e-18
232 238 4.8413429497271276e-22
233 238 1.1897013907891257e-06
234 238 2.8936535661958056e-19
235 238 2.5789541035949955e-07
236 238 -6.7392464531519827e-07
237 238 -4.4652559360720767e-21
238 238 1461773534.6814826
239 238 0.00050280971281839535
240 238 448126613.35095805
241 238 -1171031188.7204978
242 238 -7.7589594209125716e-06
243 238 8.6476325267308117e-17
244 238 0.0001089956843153986
245 238 -0.00028482429288194042
246 238 -1.8871744423611268e-18
247 238 68689662.532834381
248 238 -253848210.39717138
249 238 -1.6819346764751573e-06
250 238 469058309.10906059
251 238 4.3951818634801879e-06
252 238 2.0591921343166783e-20
217 239 -5.7583000894065852e-23
218 239 -1.3989586926623539e-09
219 239 5.3534915264968248e-10
220 239 -2.4100603293576475e-05
221 239 2.4696277800292188e-09
222 239 -5.2243655630138668e-06
223 239 1.3652157299515768e-05
224 239 9.045577831385356e-20
225 239 0.00028348192280625066
226 239 -7.7184879228791794e-05
227 239 -828044183.50522876
228 239 -0.00055526569908806271
229 239 -179497810.25239566
230 239 469058359.51316172
231 239 3.1078632288344083e-06
232 239 2.5789540962542723e-07
233 239 316873366.22867751
234 239 7.7912833288727891e-05
235 239 68689662.337316409
236 239 -179497790.45298761
237 239 -1.1893074098175429e-06
238 239 0.00050280971281839535
239 239 1461773621.8572042
240 239 8.7131938183964384e-05
241 239 -0.00053682605403686213
242 239 1.6643758469124565e-09
243 239 0.00050280974280443526
244 239 316873386.027987
245 239 -828044143.9072355
246 239 -5.4864131486714781e-06
247 239 3.084137698227757e-06
248 239 -7.840997091084261e-05
249 239 3.6079212452331386e-10
250 239 0.00026870987130557696
251 239 -9.4281128893966667e-10
252 239 -8.8343538594085014e-24
217 240 -3.0114506064122632e-29
218 240 -1.586070916726986e-23
219 240 -9.6485151301883049e-25
220 240 5.2274512604078654e-10
221 240 1.3931078497002163e-23
222 240 5.3260720252615016e-10
223 240 5.4246941864835409e-10
224 240 -5.1128139958483253e-25
225 240 3.8322614650683042e-18
226 240 1.3076884070875734e-19
227 240 -8.790229040227452e-05
228 240 -5.1580483381042974e-18
229 240 -7.9133495870964762e-05
230 240 -7.0364567546724955e-05
231 240 1.2205186557251014e-19
232 240 -4.6130662703198322e-22
233 240 -3.8444298737180183e-07
234 240 -1.3207097097636367e-19
235 240 5.9488652264097719e-08
236 240 5.0342699445861826e-07
237 240 1.93708071519215e-21
238 240 448126613.35095805
239 240 8.7131938183964384e-05
240 240 385557267.04025799
241 240 137364045.30896229
242 240 -1.5199356133765421e-06
243 240 3.4604827108233641e-18
244 240 7.9251000575285158e-05
245 240 7.1369942568003277e-05
246 240 -1.1817619802737268e-19
247 240 97140085.738030106
248 240 -110807363.68581052
249 240 -1.2609571282815387e-06
250 240 -253838972.99223757
251 240 -1.0019747104946239e-06
252 240 1.754944053796124e-21
217 241 -5.9596127233127957e-27
218 241 1.1638502644421565e-21
219 241 -4.7725156414878307e-24
220 241 -3.8932756174034275e-09
221 241 -1.1733721817081166e-21
222 241 -5.3714886429200139e-12
223 241 3.8825913775599023e-09
224 241 1.7514443790613649e-23
225 241 -1.1348301559359517e-16
226 241 6.6892001967313029e-19
227 241 0.00053193324969066176
228 241 1.6182386846806831e-16
229 241 -4.8492841028776104e-06
230 241 -0.00054163992751577719
231 241 -2.4122969023994107e-18
232 241 -1.6075646981837083e-21
233 241 -2.4517344542235921e-06
234 241 -6.7345378882751523e-19
235 241 -2.4581703767765263e-07
236 241 1.9601337031775085e-06
237 241 1.0190511282281186e-20
238 241 -1171031188.7204978
239 241 -0.00053682605403686213
240 241 137364045.30896229
241 241 1930843375.8962801
242 241 7.9334070781350863e-06
243 241 -1.1537688698270898e-16
244 241 4.3576523608600872e-06
245 241 0.00054554953449855435
246 241 2.4326299057544742e-18
247 241 97138317.407058507
248 241 137384607.85016599
249 241 -1.4321535060162373e-07
250 241 -1171040427.1251955
251 241 -8.2199598001907314e-06
252 241 -2.5613544486876675e-20
217 242 -1.9255654424601056e-35
218 242 -2.8122942216713547e-27
219 242 -1.5490218772983635e-30
220 242 -8.0592087071785803e-18
221 242 2.8099586764792405e-27
222 242 -1.7470192326273383e-18
223 242 4.5652655902082881e-18
224 242 1.6060182539211561e-09
225 242 5.7027247245684907e-22
226 242 -7.3734586139872848e-25
227 242 -1.66575278867878e-09
228 242 -8.0806325647620318e-22
229 242 -3.610906085905722e-10
230 242 9.4359127886186809e-10
231 242 -0.0002301208429217435
232 242 -7.4398081991587798e-28
233 242 -9.1412137956624755e-13
234 242 7.3550554137817259e-25
235 242 -1.9815704137098392e-13
236 242 5.1781811170838677e-13
237 242 5.470688309698805e-07
238 242 -7.7589594209125716e-06
239 242 1.6643758469124565e-09
240 242 -1.5199356133765421e-06
241 242 7.9334070781350863e-06
242 242 950602812.78623366
243 242 5.724993115667505e-22
244 242 3.6079212447753112e-10
245 242 -9.4281128901674336e-10
246 242 0.00023121055747392773
247 242 -1.0135858139841545e-07
248 242 1.2333382099313988e-06
249 242 206065239.89165795
250 242 -3.8657580021473069e-06
251 242 -538483579.49523878
252 242 -5.0457122630975011e-06
217 243 3.973523020725046e-19
218 243 1.930706808332612e-05
219 243 -7.3883686129789434e-06
220 243 -8.2899417271456843e-18
221 243 -3.4083402071779712e-05
222 243 -2.3457187392112433e-19
223 243 7.8209240872873347e-18
224 243 -3.8807370981146632e-23
225 243 469058409.91726822
226 243 -253848236.95265791
227 243 -0.00028482432348860953
228 243 -1171031384.3939915
229 243 -8.0593781594703247e-06
230 243 0.00026870989996504699
231 243 -1.3333366566235624e-09
232 243 68689662.141798481
233 243 0.00010899568400515377
234 243 448126638.80031878
235 243 3.0841377042111897e-06
236 243 -0.00010282906665735666
237 243 5.1023711429491679e-10
238 243 8.6476325267308117e-17
239 243 0.00050280974280443526
240 243 3.4604827108233641e-18
241 243 -1.1537688698270898e-16
242 243 5.724993115667505e-22
243 243 1461773709.0329311
244 243 1.4227485175761938e-05
245 243 -0.00047436242152340953
246 243 2.3537830378494202e-09
247 243 6.9238259374784485e-20
248 243 -3.2646999664989309e-18
249 243 1.6199418537696145e-23
250 243 7.6968037379198591e-17
251 243 -5.4010918373009119e-22
252 243 1.895058912002511e-27
217 244 2.9388145511762708e-25
218 244 7.1397464912838684e-12
219 244 -2.7322158449517917e-12
220 244 -5.2243655630138677e-06
221 244 -1.2604029064114522e-11
222 244 -5.2242705532928696e-06
223 244 -5.2241754510562064e-06
224 244 5.4511445682399693e-21
225 244 8.9675062320406591e-06
226 244 -2.1054740926539497e-06
227 244 -179497810.25239569
228 244 -1.6892789282063152e-05
229 244 -179494545.92552841
230 244 -179491278.42002457
231 244 1.8728944292707843e-07
232 244 -1.7376106096897072e-07
233 244 68689662.337316424
234 244 1.6140120596461842e-06
235 244 68688413.154889315
236 244 68687162.756071478
237 244 -7.1671340034263233e-08
238 244 0.0001089956843153986
239 244 316873386.027987
240 244 7.9251000575285158e-05
241 244 4.3576523608600872e-06
242 244 3.6079212447753112e-10
243 244 1.4227485175761938e-05
244 244 316867623.40444255
245 244 316861855.16954643
246 244 -3.3062821784581553e-07
247 244 3.0840816104485436e-06
248 244 -7.0529072963591185e-05
249 244 3.6078556323404337e-10
250 244 -0.00010282532513603976
251 244 3.6077899559834558e-10
252 244 -5.3238547539257419e-25
217 245 5.8158671284045023e-23
218 245 1.4129444021299814e-09
219 245 -5.407011601801558e-10
220 245 1.3652157299515768e-05
221 245 -2.4943172124594589e-09
222 245 -5.2241754510562048e-06
223 245 -2.4100793426109945e-05
224 245 -7.9559882146505488e-20
225 245 -0.00026555068302162253
226 245 7.2975148290641524e-05
227 245 469058359.51316172
228 245 0.0005214878936289541
229 245 -179491278.42002454
230 245 -828050716.04453969
231 245 -2.7335039914815551e-06
232 245 -6.0552381250160915e-07
233 245 -179497790.45298761
234 245 -7.468632828014067e-05
235 245 68687162.756071463
236 245 316875866.08045197
237 245 1.0460487841526118e-06
238 245 -0.00028482429288194042
239 245 -828044143.9072355
240 245 7.1369942568003277e-05
241 245 0.00054554953449855435
242 245 -9.4281128901674336e-10
243 245 -0.00047436242152340953
244 245 316861855.16954643
245 245 1461785153.963629
246 245 4.825544465700877e-06
247 245 3.0840254680538845e-06
248 245 -6.2648054667055619e-05
249 245 3.6077899555568912e-10
250 245 -0.00047436613553537079
251 245 1.6643889775991497e-09
252 245 7.7702072773419847e-24
217 246 1.8791208892799087e-31
218 246 4.5652853918102144e-18
219 246 -1.7470186539957223e-18
220 246 9.0455775655557999e-20
221 246 -8.0592273596108411e-18
222 246 5.4511446893939802e-21
223 246 -7.9559879246492406e-20
224 246 -1.5672811647743388e-05
225 246 1.3344397289517616e-09
226 246 -3.6057278947822863e-10
227 246 3.1078632341799193e-06
228 246 -2.6085642808586333e-09
229 246 1.8728944659850441e-07
230 246 -2.7335039894842146e-06
231 246 -538483637.35964549
232 246 -2.8023637431981838e-13
233 246 -1.1893074118631464e-06
234 246 3.5987800210319158e-10
235 246 -7.1671341439233077e-08
236 246 1.0460487833882757e-06
237 246 206065239.30511475
238 246 -1.8871744423611268e-18
239 246 -5.4864131486714781e-06
240 246 -1.1817619802737268e-19
241 246 2.4326299057544742e-18
242 246 0.00023121055747392773
243 246 2.3537830378494202e-09
244 246 -3.3062821784581553e-07
245 246 4.825544465700877e-06
246 246 950602869.47729027
247 246 -3.2180138052896891e-21
248 246 1.0907817065505167e-19
249 246 6.5423250563770562e-06
250 246 -1.5659448144718103e-18
251 246 -0.00021812942468731801
252 246 1.5306835087264691e-09
217 247 1.0867724839089349e-31
218 247 1.3649839369057054e-25
219 247 6.9115600635624868e-27
220 247 -3.863936727475617e-12
221 247 -1.2267537252624558e-25
222 247 -3.8638664583594915e-12
223 247 -3.8637961208188507e-12
224 247 4.0316623148595102e-27
225 247 8.57208466168123e-20
226 247 6.1383266467824355e-21
227 247 -3.4316573331664964e-06
228 247 -1.0895101846133397e-19
229 247 -3.4315949254345237e-06
230 247 -3.4315324569330547e-06
231 247 3.5806185565252518e-21
232 247 2.1977765916750381e-22
233 247 -1.7376106146356342e-07
234 247 -5.5167060045325256e-21
235 247 -1.7375790146456051e-07
236 247 -1.7375473838851023e-07
237 247 1.8130367361121765e-22
238 247 68689662.532834381
239 247 3.084137698227757e-06
240 247 97140085.738030106
241 247 97138317.407058507
242 247 -1.0135858139841545e-07
243 247 6.9238259374784485e-20
244 247 3.0840816104485436e-06
245 247 3.0840254680538845e-06
246 247 -3.2180138052896891e-21
247 247 68687164.190690532
248 247 97136550.860609204
249 247 -1.0135674008961403e-07
250 247 68684663.461288691
251 247 -1.0135489499897693e-07
252 247 7.4782449404032467e-23
217 248 3.0415567647937206e-29
218 248 1.6242772796476582e-23
219 248 9.8420224917477664e-25
220 248 -5.3356141621226748e-10
221 248 -1.4274440880818136e-23
222 248 -5.4342344505977612e-10
223 248 -5.5328561349773213e-10
224 248 5.225640150041525e-25
225 248 -3.5898572984559029e-18
226 248 -1.1340620233542594e-19
227 248 7.8197251015084718e-05
228 248 4.8499621507865832e-18
229 248 6.9428500589361548e-05
230 248 6.0659616413661179e-05
231 248 -1.1192838142649612e-19
232 248 1.0831218281022228e-21
233 248 -1.0709595828085003e-07
234 248 1.1646708124827402e-19
235 248 -5.5102536233528464e-07
236 248 -9.9496146677118642e-07
237 248 -1.4243484238485218e-21
238 248 -253848210.39717138
239 248 -7.840997091084261e-05
240 248 -110807363.68581052
241 248 137384607.85016599
242 248 1.2333382099313988e-06
243 248 -3.2646999664989309e-18
244 248 -7.0529072963591185e-05
245 248 -6.2648054667055619e-05
246 248 1.0907817065505167e-19
247 248 97136550.860609204
248 248 385554767.77503192
249 248 9.7436102948064749e-07
250 248 448113841.4511829
251 248 7.1537991469861197e-07
252 248 -1.5435513762686993e-21
217 249 9.82734427466614e-38
218 249 1.442453896392735e-29
219 249 1.1006894171474414e-32
220 249 -1.7470186267335962e-18
221 249 -1.4406416527895117e-29
222 249 -1.7469869001050134e-18
223 249 -1.7469551425426982e-18
224 249 -8.196498516569311e-12
225 249 1.803967568758592e-23
226 249 6.5289566728569652e-25
227 249 -3.610906086285966e-10
228 249 -2.4209627897893905e-23
229 249 -3.610840419151262e-10
230 249 -3.6107746880728658e-10
231 249 -7.2795121205438725e-06
232 249 5.0126869957441003e-28
233 249 -1.9815703905335236e-13
234 249 -6.5165286230107003e-25
235 249 -1.9815343739097779e-13
236 249 -1.9814983221969009e-13
237 249 -3.6859617094560554e-07
238 249 -1.6819346764751573e-06
239 249 3.6079212452331386e-10
240 249 -1.2609571282815387e-06
241 249 -1.4321535060162373e-07
242 249 206065239.89165795
243 249 1.6199418537696145e-23
244 249 3.6078556323404337e-10
245 249 3.6077899555568912e-10
246 249 6.5423250563770562e-06
247 249 -1.0135674008961403e-07
248 249 9.7436102948064749e-07
249 249 206061492.4125213
250 249 1.4792825493783578e-06
251 249 206057741.28427881
252 249 -3.0407022003340507e-07
217 250 4.2562117142439668e-27
218 250 -7.9991818625459342e-22
219 250 4.766473116146237e-24
220 250 1.9982049293770906e-09
221 250 8.094346944821585e-22
222 250 -7.6463909030710894e-10
223 250 -3.5275248570172868e-09
224 250 -1.1644822098298263e-23
225 250 7.5168852921417538e-17
226 250 -6.3343856126779993e-19
227 250 -0.00026555065448606141
228 250 -1.0756950386989006e-16
229 250 0.00010161640975431746
230 250 0.00046878902194921713
231 250 1.5475340312271316e-18
232 250 2.6689539304297098e-21
233 250 1.5823368906129574e-06
234 250 6.4097448604554134e-19
235 250 -6.0550177952710983e-07
236 250 -2.7933735082680781e-06
237 250 -9.2212922307755272e-21
238 250 469058309.10906059
239 250 0.00026870987130557696
240 250 -253838972.99223757
241 250 -1171040427.1251955
242 250 -3.8657580021473069e-06
243 250 7.6968037379198591e-17
244 250 -0.00010282532513603976
245 250 -0.00047436613553537079
246 250 -1.5659448144718103e-18
247 250 68684663.461288691
248 250 448113841.4511829
249 250 1.4792825493783578e-06
250 250 1461796598.9839346
251 250 6.824403860356314e-06
252 250 1.5929879738951969e-20
217 251 1.9448157592546521e-35
218 251 2.8405522777446846e-27
219 251 1.5707132539983301e-30
220 251 4.56526679939414e-18
221 251 -2.8381809723537356e-27
222 251 -1.746954536762916e-18
223 251 -8.0592712521476712e-18
224 251 -1.6220739846089212e-09
225 251 -5.3420071047298032e-22
226 251 2.0435293129118536e-24
227 251 9.4359127878589569e-10
228 251 7.5965552601071426e-22
229 251 -3.6107746884530892e-10
230 251 -1.6657659302350601e-09
231 251 0.00021556488121165327
232 251 1.7468248200223824e-27
233 251 5.1781811634472805e-13
234 251 -2.0392026191231994e-24
235 251 -1.9814982990182964e-13
236 251 -9.1412859454182355e-13
237 251 -1.2844866246778649e-06
238 251 4.3951818634801879e-06
239 251 -9.4281128893966667e-10
240 251 -1.0019747104946239e-06
241 251 -8.2199598001907314e-06
242 251 -538483579.49523878
243 251 -5.4010918373009119e-22
244 251 3.6077899559834558e-10
245 251 1.6643889775991497e-09
246 251 -0.00021812942468731801
247 251 -1.0135489499897693e-07
248 251 7.1537991469861197e-07
249 251 206057741.28427881
250 251 6.824403860356314e-06
251 251 950610312.20518649
252 251 4.4379284291787384e-06
217 252 4.4432803058025294e-44
218 252 1.2987852735257373e-35
219 252 7.1273924259189546e-39
220 252 4.2777489071409447e-32
221 252 -1.2977116738348566e-35
222 252 2.5779037400826727e-33
223 252 -3.7624704893962436e-32
224 252 -7.4118377086060376e-18
225 252 1.8981957817566188e-27
226 252 1.4731579619341823e-30
227 252 8.8416625395751536e-24
228 252 -2.6822351995839048e-27
229 252 5.3282591905454867e-25
230 252 -7.7766355867262886e-24
231 252 -1.5319498465231761e-09
232 252 5.7164661350204416e-34
233 252 4.8520721555479279e-27
234 252 -1.4719402225858928e-30
235 252 2.9240086850487678e-28
236 252 -4.2676133391549716e-27
237 252 -8.406938356604808e-13
238 252 2.0591921343166783e-20
239 252 -8.8343538594085014e-24
240 252 1.754944053796124e-21
241 252 -2.5613544486876675e-20
242 252 -5.0457122630975011e-06
243 252 1.895058912002511e-27
244 252 -5.3238547539257419e-25
245 252 7.7702072773419847e-24
246 252 1.5306835087264691e-09
247 252 7.4782449404032467e-23
248 252 -1.5435513762686993e-21
249 252 -3.0407022003340507e-07
250 252 1.5929879738951969e-20
251 252 4.4379284291787384e-06
252 252 618184476.75891304
253 253 702699505.10573244
254 253 -9.2850965497562172e-07
255 253 4.1328635065297612e-07
256 253 3.0181086158705537e-10
257 253 1.7566542218500849e-06
258 253 1.6438628584839744e-13
259 253 -3.0098376211730369e-10
260 253 2.3951145785876046e-21
261 253 6.1344157290478436e-22
262 253 -3.8614715627909372e-22
263 253 -2.8199190646352247e-25
264 253 -1.6413003508616837e-21
265 253 -1.5359156360075595e-28
266 253 2.8121911997371961e-25
267 253 -2.2378350555805933e-36
268 253 1.2153531231700118e-22
269 253 1.2551663336128096e-25
270 253 7.3055463526750743e-22
271 253 6.8364713787825408e-29
272 253 -1.2517266051566425e-25
273 253 9.9607653892245855e-37
274 253 6.4814188362218047e-29
275 253 5.3350255472540765e-25
276 253 4.9924738956068526e-32
277 253 -9.1409910967754257e-29
278 253 7.2740538840409547e-40
279 253 2.1956996075295469e-21
280 253 2.9058100494055459e-28
281 253 -5.3204051430113591e-25
282 253 4.2337765440823347e-36
283 253 1.9227885304234708e-35
284 253 -4.9787922391876891e-32
285 253 3.9619339568191595e-43
286 253 6.4459434224772036e-29
287 253 -7.254119657423666e-40
288 253 4.0818115018451e-51
253 254 -9.2850965497562172e-07
254 254 460159195.18856812
255 254 234230949.62813786
256 254 1.7786667612387807e-06
257 254 8309366.0400368841
258 254 1.6521396268006248e-06
259 254 1.5266071697512879e-06
260 254 2.2964521046160089e-10
261 254 -6.080298227819424e-07
262 254 -2.7479458507499894e-08
263 254 1.3975209415545427e-10
264 254 8.0564672511701331e-07
265 254 7.6118291804774331e-14
266 254 -1.3936910965504839e-10
267 254 1.1088319295514098e-21
268 254 1.3776081195222755e-07
269 254 7.1136828448833865e-11
270 254 4.1749913508906727e-07
271 254 3.874585282151877e-14
272 254 -7.0941881079495633e-11
273 254 5.6462407710614111e-22
274 254 7.6394097873309361e-25
275 254 2.5235860084988541e-12
276 254 5.0205529777357386e-25
277 254 -7.5071093477060273e-26
278 254 6.9744126344433948e-29
279 254 2.0772297161262706e-08
280 254 1.3745158463765722e-15
281 254 -2.5166702255502283e-12
282 254 2.043264415925527e-23
283 254 3.8649393514493405e-28
284 254 -5.0013349398350348e-25
285 254 3.7991273408052696e-32
286 254 -6.5388400858181216e-25
287 254 -6.9552987661277001e-29
288 254 7.8273371118517944e-40
253 255 4.1328635065297612e-07
254 255 234230949.62813786
255 255 234233170.1111449
256 255 2.3390385852410106e-06
257 255 234235387.97436813
258 255 -2.3177663078357571e-08
259 255 -2.385986866289087e-06
260 255 2.9484925222453382e-12
261 255 -3.0950028659990351e-07
262 255 -1.2144022179176824e-07
263 255 7.1136828445908735e-11
264 255 1.9518955049025841e-07
265 255 3.8745852156085168e-14
266 255 -7.094188107790123e-11
267 255 5.6452581773748799e-22
268 255 1.3776211790920063e-07
269 255 7.1137502818184201e-11
270 255 5.1146082402941478e-07
271 255 3.8746219431102385e-14
272 255 -7.0942553602161013e-11
273 255 5.6453515049367755e-22
274 255 1.0046218128341152e-24
275 255 7.11381763948251e-11
276 255 -6.6522267938805118e-27
277 255 -1.433061412573865e-24
278 255 8.9547400769437925e-31
279 255 5.855569559992133e-07
280 255 3.8746586272725372e-14
281 255 -7.0943225332966702e-11
282 255 5.6454448159953248e-22
283 255 -5.4220757527407766e-30
284 255 6.6251702687791563e-27
285 255 4.8767582172502411e-34
286 255 1.0219778129345763e-24
287 255 -8.9302012893096808e-31
288 255 1.0049782835443662e-41
253 256 3.0181086158705537e-10
254 256 1.7786667612387807e-06
255 256 2.3390385852410106e-06
256 256 460154750.63447189
257 256 2.8988522706484255e-06
258 256 234235388.7442323
259 256 8309367.5014311802
260 256 -3.6914698377612691e-06
261 256 -2.350235419938866e-21
262 256 -1.4457315526964735e-21
263 256 -4.2993785815833905e-07
264 256 4.3560521758978455e-22
265 256 -2.1885389904749326e-07
266 256 -7.7637178824948998e-09
267 256 3.4490628061860929e-21
268 256 1.3756839459076523e-21
269 256 1.913684445322026e-07
270 256 5.3402215274838132e-21
271 256 9.7413450445906365e-08
272 256 3.4556868783877227e-09
273 256 -1.5352027549772564e-21
274 256 1.9763739798204342e-10
275 256 8.1340258512105474e-07
276 256 7.1214294182643395e-11
277 256 -1.3684417707563201e-10
278 256 1.1079146693111916e-21
279 256 7.2467406661799853e-21
280 256 4.1405129571886375e-07
281 256 1.4688234766816441e-08
282 256 -6.5253072032643134e-21
283 256 5.4795948040586933e-14
284 256 -7.0941851048751316e-11
285 256 5.6453866085488255e-22
286 256 -3.5591097947617068e-12
287 256 2.1144751353291038e-23
288 256 -1.2582182228103445e-35
253 257 1.7566542218500849e-06
254 257 8309366.0400368841
255 257 234235387.97436813
256 257 2.8988522706484255e-06
257 257 460154750.55620265
258 257 -1.6985430750776782e-06
259 257 -6.2981213872497558e-06
260 257 -2.2325592926670933e-10
261 257 -1.0979553192854221e-08
262 257 -2.1539821205755825e-07
263 257 2.5235860026462371e-12
264 257 -4.1524962590165872e-07
265 257 1.3745145129410775e-15
266 257 -2.5166702223642025e-12
267 257 2.0235302217930243e-23
268 257 1.3776342232537154e-07
269 257 7.1138176391896015e-11
270 257 6.0541973885764858e-07
271 257 3.8746585607308407e-14
272 257 -7.0943225331368305e-11
273 257 5.6444642230253728e-22
274 257 1.2450635366785421e-24
275 257 1.3975074431052094e-10
276 257 -5.1537445832224182e-25
277 257 -2.7907435620596515e-24
278 257 -6.780366612095294e-29
279 257 1.150324967351869e-06
280 257 7.6117555126854602e-14
281 257 -1.3936776351224526e-10
282 257 1.1086411393089962e-21
283 257 -3.9734934411761469e-28
284 257 5.1339848535199228e-25
285 257 -3.6934487578754228e-32
286 257 2.6976428126566772e-24
287 257 6.7617844926761219e-29
288 257 -7.6095617978606761e-40
253 258 1.6438628584839744e-13
254 258 1.6521396268006248e-06
255 258 -2.3177663078357571e-08
256 258 234235388.7442323
257 258 -1.6985430750776782e-06
258 258 234233170.30153993
259 258 234230949.23905489
260 258 -6.5231373946676095e-07
261 258 -2.1830500073152856e-21
262 258 7.0874476866143248e-22
263 258 -2.1885389904749326e-07
264 258 4.5074466571862328e-21
265 258 -2.1885182628284554e-07
266 258 -2.1884975107043852e-07
267 258 6.0947838005997092e-22
268 258 -1.3631473432758816e-23
269 258 9.7413450445906365e-08
270 258 -7.4735707075770507e-22
271 258 9.7412527843397672e-08
272 258 9.741160415137366e-08
273 258 -2.7128322699399915e-22
274 258 1.006045741848622e-10
275 258 4.1405129571886375e-07
276 258 7.1176249461476199e-11
277 258 1.9360276800919078e-13
278 258 5.6434116132927447e-22
279 258 -4.2461284834616813e-21
280 258 4.140473742402342e-07
281 258 4.1404344813067091e-07
282 258 -1.1530766144664434e-21
283 258 5.4795429068320813e-14
284 258 -7.0903807806763898e-11
285 258 5.6453381683407514e-22
286 258 -1.0032697019712589e-10
287 258 5.6472613892055017e-22
288 258 -2.2233773268059328e-36
253 259 -3.0098376211730369e-10
254 259 1.5266071697512879e-06
255 259 -2.385986866289087e-06
256 259 8309367.5014311802
257 259 -6.2981213872497558e-06
258 259 234230949.23905489
259 259 460159192.94905454
260 259 2.3877731213937488e-06
261 259 -2.017178908570001e-21
262 259 2.8641887723187114e-21
263 259 -7.7637178824948832e-09
264 259 8.5830846481999897e-21
265 259 -2.1884975107043852e-07
266 259 -4.2994200876031432e-07
267 259 -2.2309756884278323e-21
268 259 -1.4032956337614765e-21
269 259 3.4556868783877152e-09
270 259 -6.8368910751416048e-21
271 259 9.741160415137366e-08
272 259 1.9137029199510637e-07
273 259 9.9302338508268304e-22
274 259 3.5688901822594411e-12
275 259 1.468823476681641e-08
276 259 7.1138202843095847e-11
277 259 1.3723542280610386e-10
278 259 2.0751886074480133e-23
279 259 -1.5744451196823698e-20
280 259 4.1404344813067091e-07
281 259 8.1341043767535395e-07
282 259 4.2207992570896197e-21
283 259 5.4794909483192462e-14
284 259 -7.0865762669310394e-11
285 259 5.6452896665317375e-22
286 259 -1.9709768408877569e-10
287 259 1.1083233008494586e-21
288 259 8.1386000301071554e-36
253 260 2.3951145785876046e-21
254 260 2.2964521046160089e-10
255 260 2.9484925222453382e-12
256 260 -3.6914698377612691e-06
257 260 -2.2325592926670933e-10
258 260 -6.5231373946676095e-07
259 260 2.3877731213937488e-06
260 260 702699505.10515583
261 260 -3.0344093540125326e-25
262 260 9.274961977849321e-26
263 260 3.4490628722948547e-21
264 260 6.1453279252929239e-25
265 260 6.0947836728583055e-22
266 260 -2.2309757799697182e-21
267 260 -6.5655547342990494e-07
268 260 1.7341291775917315e-27
269 260 -1.5352027524636705e-21
270 260 -8.7635362712789727e-26
271 260 -2.7128322129074262e-22
272 260 9.930233939770885e-22
273 260 2.9223758111832096e-07
274 260 -1.5854937750602451e-24
275 260 -6.5253072641902375e-21
276 260 -1.9872078741750618e-25
277 260 1.8432168047581262e-24
278 260 2.1341250686378623e-10
279 260 -5.5810978640430079e-25
280 260 -1.1530765902640191e-21
281 260 4.2207993663084395e-21
282 260 1.2421421124691536e-06
283 260 -1.5259926868530289e-28
284 260 1.9796222121034045e-25
285 260 1.1623865745737663e-13
286 260 -1.0227429207239544e-24
287 260 -2.128276592200095e-10
288 260 2.3951145785856388e-21
253 261 6.1344157290478436e-22
254 261 -6.080298227819424e-07
255 261 -3.0950028659990351e-07
256 261 -2.350235419938866e-21
257 261 -1.0979553192854221e-08
258 261 -2.1830500073152856e-21
259 261 -2.017178908570001e-21
260 261 -3.0344093540125326e-25
261 261 301332907.42069048
262 261 216919070.14088863
263 261 1.6472064880877443e-06
264 261 7695225.4077722933
265 261 1.5300309039324943e-06
266 261 1.4137764811123084e-06
267 261 2.1267226041103405e-10
268 261 78076243.636238322
269 261 8.3846360992594055e-07
270 261 3917035.6122655566
271 261 7.788187117322429e-07
272 261 7.196427045148178e-07
273 261 1.0825476495199827e-10
274 261 4.5021455466367954e-21
275 261 2.9744579259001533e-08
276 261 5.9140730880704195e-21
277 261 5.4647114760906155e-21
278 261 8.2204829238631727e-25
279 261 98257.595865147552
280 261 2.7628670612859793e-08
281 261 2.5529395920347593e-08
282 261 3.8403484637379891e-12
283 261 3.88439913022879e-21
284 261 5.0759740809421896e-21
285 261 7.6357111325863202e-25
286 261 3.3165377715548154e-21
287 261 7.0555364522847938e-25
288 261 7.5049039176451178e-29
253 262 -3.8614715627909372e-22
254 262 -2.7479458507499894e-08
255 262 -1.2144022179176824e-07
256 262 -1.4457315526964735e-21
257 262 -2.1539821205755825e-07
258 262 7.0874476866143248e-22
259 262 2.8641887723187114e-21
260 262 9.274961977849321e-26
261 262 216919070.14088863
262 262 231462643.1735391
263 262 2.1245908195592601e-06
264 262 156157614.33732894
265 262 5.3553021765495046e-07
266 262 -1.0535871217537195e-06
267 262 7.8478483717919469e-11
268 262 110417529.385327
269 262 1.3725610678337054e-06
270 262 80847511.771585882
271 262 5.4298739852013716e-07
272 262 -2.8645236141958499e-07
273 262 7.7531225587701607e-11
274 262 8.3729273994355456e-21
275 262 6.2055348483104951e-07
276 262 5.440722483213387e-21
277 262 -9.5785247090157877e-22
278 262 7.7187103433201394e-25
279 262 3917109.8345673964
280 262 5.5044435348905153e-07
281 262 4.8065977277386453e-07
282 262 7.6583994554635044e-11
283 262 -7.706580931473092e-23
284 262 -5.6601244323590156e-21
285 262 -6.4226312532089764e-28
286 262 -7.3306198182566973e-21
287 262 -7.7334516716556886e-25
288 262 1.362707897761304e-30
253 263 -2.8199190646352247e-25
254 263 1.3975209415545427e-10
255 263 7.1136828445908735e-11
256 263 -4.2993785815833905e-07
257 263 2.5235860026462371e-12
258 263 -2.1885389904749326e-07
259 263 -7.7637178824948832e-09
260 263 3.4490628722948547e-21
261 263 1.6472064880877443e-06
262 263 2.1245908195592601e-06
263 263 301329996.92705703
264 263 1.9193312522148358e-06
265 263 153387852.39788839
266 263 5441347.0255814223
267 263 -2.4173402389852376e-06
268 263 1.1026225846955854e-06
269 263 153383463.9613041
270 263 9.9393387501672751e-07
271 263 78077723.32758683
272 263 2769762.9307089932
273 263 -1.2304782902790695e-06
274 263 1.647190578162613e-06
275 263 5441293.5120943347
276 263 1.6747793184682874e-06
277 263 1.0207138785269127e-06
278 263 1.5038054499823904e-10
279 263 4.8477400603351799e-08
280 263 2769814.935778704
281 263 98257.613146019459
282 263 -4.3651338708568736e-08
283 263 7.7883347180849839e-07
284 263 5.2841030410761257e-07
285 263 7.6549129106803019e-11
286 263 2.5529400410282611e-08
287 263 2.7155369103987134e-12
288 263 -1.7060905070344793e-24
253 264 -1.6413003508616837e-21
254 264 8.0564672511701331e-07
255 264 1.9518955049025841e-07
256 264 4.3560521758978455e-22
257 264 -4.1524962590165872e-07
258 264 4.5074466571862328e-21
259 264 8.5830846481999897e-21
260 264 6.1453279252929239e-25
261 264 7695225.4077722933
262 264 156157614.33732894
263 264 1.9193312522148358e-06
264 264 301428254.47166789
265 264 -1.0927458692275372e-06
266 264 -4.1062407330851675e-06
267 264 -1.4348247278786307e-10
268 264 110418574.88617344
269 264 1.5591699503860078e-06
270 264 156153278.86188969
271 264 -1.5457234435700493e-08
272 264 -1.5904800310759932e-06
273 264 2.1311906950175704e-12
274 264 1.0376866664764775e-20
275 264 1.1990183430610957e-06
276 264 2.5162518792152199e-21
277 264 -9.6440203628207901e-21
278 264 3.822543834240221e-25
279 264 7695151.0803476451
280 264 1.0617996402268739e-06
281 264 9.2520649395526046e-07
282 264 1.4774056128569206e-10
283 264 -5.6476615564846201e-21
284 264 -1.8497784416206488e-20
285 264 -1.0799954235058776e-24
286 264 -1.9350120535644875e-20
287 264 -2.5432741887683815e-24
288 264 -1.0318242821999916e-28
253 265 -1.5359156360075595e-28
254 265 7.6118291804774331e-14
255 265 3.8745852156085168e-14
256 265 -2.1885389904749326e-07
257 265 1.3745145129410775e-15
258 265 -2.1885182628284554e-07
259 265 -2.1884975107043852e-07
260 265 6.0947836728583055e-22
261 265 1.5300309039324943e-06
262 265 5.3553021765495046e-07
263 265 153387852.39788839
264 265 -1.0927458692275372e-06
265 265 153386399.66197997
266 265 153384945.21051365
267 265 -4.2716433295097433e-07
268 265 -1.0925743892228786e-08
269 265 78077723.32758683
270 265 -5.6644963971677194e-07
271 265 78076983.853694007
272 265 78076243.506545216
273 265 -2.1743585350581839e-07
274 265 8.3847950038495685e-07
275 265 2769814.935778704
276 265 1.1436073546364751e-06
277 265 1.1017571836980996e-06
278 265 7.654912911383103e-11
279 265 -2.8404669214495406e-08
280 265 2769788.7028694227
281 265 2769762.4389812998
282 265 -7.7135583486130359e-09
283 265 7.7882609547892923e-07
284 265 1.059577052249157e-06
285 265 7.6548404117367048e-11
286 265 7.1964270331941333e-07
287 265 7.6547678264742645e-11
288 265 -3.0148052873901779e-25
253 266 2.8121911997371961e-25
254 266 -1.3936910965504839e-10
255 266 -7.094188107790123e-11
256 266 -7.7637178824948998e-09
257 266 -2.5166702223642025e-12
258 266 -2.1884975107043852e-07
259 266 -4.2994200876031432e-07
260 266 -2.2309757799697182e-21
261 266 1.4137764811123084e-06
262 266 -1.0535871217537195e-06
263 266 5441347.0255814223
264 266 -4.1062407330851675e-06
265 266 153384945.21051365
266 266 301332905.95415646
267 266 1.5636210782133923e-06
268 266 -1.1247535913993848e-06
269 266 2769762.9307089872
270 266 -2.1275673401688182e-06
271 266 78076243.506545216
272 266 153384944.71880522
273 266 7.9591683451726137e-07
274 266 2.9744584490274018e-08
275 266 98257.613146019241
276 266 6.1241972715339538e-07
277 266 1.1828028842224224e-06
278 266 2.7155369244622969e-12
279 266 -1.0532322089437766e-07
280 266 2769762.4389812998
281 266 5441346.0421127332
282 266 2.8235228205030116e-08
283 266 7.7881871043854068e-07
284 266 1.5907594578788325e-06
285 266 7.6547678271773758e-11
286 266 1.4137764742317077e-06
287 266 1.5038199678021828e-10
288 266 1.1035596210729265e-24
253 267 -2.2378350555805933e-36
254 267 1.1088319295514098e-21
255 267 5.6452581773748799e-22
256 267 3.4490628061860929e-21
257 267 2.0235302217930243e-23
258 267 6.0947838005997092e-22
259 267 -2.2309756884278323e-21
260 267 -6.5655547342990494e-07
261 267 2.1267226041103405e-10
262 267 7.8478483717919469e-11
263 267 -2.4173402389852376e-06
264 267 -1.4348247278786307e-10
265 267 -4.2716433295097433e-07
266 267 1.5636210782133923e-06
267 267 460159195.18819052
268 267 1.3899195390629211e-12
269 267 -1.23047828898213e-06
270 267 -7.4383072478401441e-11
271 267 -2.1743584893499991e-07
272 267 7.9591684236195844e-07
273 267 234230949.62794566
274 267 -1.3214150938437216e-20
275 267 -4.3651338662559673e-08
276 267 -1.0330265330815861e-20
277 267 -1.9757685596151516e-21
278 267 1.7786667612373211e-06
279 267 -3.7335007477829922e-12
280 267 -7.7135581864627991e-09
281 267 2.8235228483321524e-08
282 267 8309366.0400300659
283 267 -2.1689453778148243e-21
284 267 4.1968263823364496e-21
285 267 1.6521396267992692e-06
286 267 7.3361079161908537e-21
287 267 1.5266071697500352e-06
288 267 3.2476737116855327e-10
253 268 1.2153531231700118e-22
254 268 1.3776081195222755e-07
255 268 1.3776211790920063e-07
256 268 1.3756839459076523e-21
257 268 1.3776342232537154e-07
258 268 -1.3631473432758816e-23
259 268 -1.4032956337614765e-21
260 268 1.7341291775917315e-27
261 268 78076243.636238322
262 268 110417529.385327
263 268 1.1026225846955854e-06
264 268 110418574.88617344
265 268 -1.0925743892228786e-08
266 268 -1.1247535913993848e-06
267 268 1.3899195390629211e-12
268 268 78077723.95123744
269 268 1.1026333715902641e-06
270 268 110419621.64182033
271 268 -1.0926055237793051e-08
272 268 -1.1247650036843427e-06
273 268 1.3899327148453477e-12
274 268 7.7858337219449922e-21
275 268 1.1026438119988636e-06
276 268 -1.091069414871767e-22
277 268 -1.1231836813283377e-20
278 268 1.3879785896119632e-26
279 268 78079202.533730611
280 268 -1.0926158692380953e-08
281 268 -1.1247756536488e-06
282 268 1.3899458755802236e-12
283 268 7.6448618772405257e-25
284 268 1.1129689396831894e-22
285 268 -1.3753556830138934e-28
286 268 8.1015189063601577e-21
287 268 -1.4158375609538577e-26
288 268 1.2371729438501003e-32
253 269 1.2551663336128096e-25
254 269 7.1136828448833865e-11
255 269 7.1137502818184201e-11
256 269 1.913684445322026e-07
257 269 7.1138176391896015e-11
258 269 9.7413450445906365e-08
259 269 3.4556868783877152e-09
260 269 -1.5352027524636705e-21
261 269 8.3846360992594055e-07
262 269 1.3725610678337054e-06
263 269 153383463.9613041
264 269 1.5591699503860078e-06
265 269 78077723.32758683
266 269 2769762.9307089872
267 269 -1.23047828898213e-06
268 269 1.1026333715902641e-06
269 269 153384918.01925769
270 269 1.7459707778157534e-06
271 269 78078463.495605409
272 269 2769789.187749452
273 269 -1.230489955074599e-06
274 269 2.1661406192155004e-06
275 269 153386370.36167577
276 269 7.6450929113254803e-07
277 269 -1.5347773158134058e-06
278 269 1.9307866631879463e-12
279 269 1.3665450148185519e-06
280 269 78079202.790354446
281 269 2769815.4138111696
282 269 -1.2305016061076983e-06
283 269 -1.0926158728292086e-08
284 269 -7.9561056870258848e-07
285 269 9.8284015745712003e-13
286 269 -3.9900778202878052e-08
287 269 3.4865709413969739e-14
288 269 -2.1905073013077516e-26
253 270 7.3055463526750743e-22
254 270 4.1749913508906727e-07
255 270 5.1146082402941478e-07
256 270 5.3402215274838132e-21
257 270 6.0541973885764858e-07
258 270 -7.4735707075770507e-22
259 270 -6.8368910751416048e-21
260 270 -8.7635362712789727e-26
261 270 3917035.6122655566
262 270 80847511.771585882
263 270 9.9393387501672751e-07
264 270 156153278.86188969
265 270 -5.6644963971677194e-07
266 270 -2.1275673401688182e-06
267 270 -7.4383072478401441e-11
268 270 110419621.64182033
269 270 1.7459707778157534e-06
270 270 231464120.52689853
271 270 -5.739069901416747e-07
272 270 -2.894710303376716e-06
273 270 -7.343580348843231e-11
274 270 1.3646115198038256e-20
275 270 2.4979864418735522e-06
276 270 -5.7494653350145626e-21
277 270 -3.0807159566179744e-20
278 270 -7.3097672727273284e-25
279 270 216921085.21176758
280 270 -5.8136401831224364e-07
281 270 -3.6618299561098573e-06
282 270 -7.2488561608721673e-11
283 270 7.9230347492046207e-23
284 270 5.9750678262824922e-21
285 270 2.3681410332890944e-28
286 270 3.0242969097728801e-20
287 270 7.3162959060242619e-25
288 270 -1.324794091817799e-30
253 271 6.8364713787825408e-29
254 271 3.874585282151877e-14
255 271 3.8746219431102385e-14
256 271 9.7413450445906365e-08
257 271 3.8746585607308407e-14
258 271 9.7412527843397672e-08
259 271 9.741160415137366e-08
260 271 -2.7128322129074262e-22
261 271 7.788187117322429e-07
262 271 5.4298739852013716e-07
263 271 78077723.32758683
264 271 -1.5457234435700493e-08
265 271 78076983.853694007
266 271 78076243.506545216
267 271 -2.1743584893499991e-07
268 271 -1.0926055237793051e-08
269 271 78078463.495605409
270 271 -5.739069901416747e-07
271 271 78077724.014702454
272 271 78076983.660535261
273 271 -2.1743791477320682e-07
274 271 1.102643815622936e-06
275 271 78079202.790354446
276 271 7.7195357391872393e-07
277 271 -1.5664352907752167e-08
278 271 9.8284015516403925e-13
279 271 -8.0070834305325518e-07
280 271 78078463.302449629
281 271 78077722.941272303
282 271 -2.1743997360865818e-07
283 271 -1.0926055246674228e-08
284 271 -8.0305477649056701e-07
285 271 9.8283084888057709e-13
286 271 -1.124754339271598e-06
287 271 9.8282153160514414e-13
288 271 -3.8708104680380449e-27
253 272 -1.2517266051566425e-25
254 272 -7.0941881079495633e-11
255 272 -7.0942553602161013e-11
256 272 3.4556868783877227e-09
257 272 -7.0943225331368305e-11
258 272 9.741160415137366e-08
259 272 1.9137029199510637e-07
260 272 9.930233939770885e-22
261 272 7.196427045148178e-07
262 272 -2.8645236141958499e-07
263 272 2769762.9307089932
264 272 -1.5904800310759932e-06
265 272 78076243.506545216
266 272 153384944.71880522
267 272 7.9591684236195844e-07
268 272 -1.1247650036843427e-06
269 272 2769789.187749452
270 272 -2.894710303376716e-06
271 272 78076983.660535261
272 272 153386398.79079625
273 272 7.9592437971916083e-07
274 272 3.9115663676233835e-08
275 272 2769815.4138111635
276 272 7.7939806763493852e-07
277 272 1.5034933969060498e-06
278 272 3.4865704827791555e-14
279 272 -2.9689900998506397e-06
280 272 78077722.941272303
281 272 153387851.14723516
282 272 7.9593191601903423e-07
283 272 -1.0925951642853358e-08
284 272 -8.1049919511996353e-07
285 272 9.8282152931148236e-13
286 272 -2.209639890486634e-06
287 272 1.9308053071012095e-12
288 272 1.41689751945839e-26
253 273 9.9607653892245855e-37
254 273 5.6462407710614111e-22
255 273 5.6453515049367755e-22
256 273 -1.5352027549772564e-21
257 273 5.6444642230253728e-22
258 273 -2.7128322699399915e-22
259 273 9.9302338508268304e-22
260 273 2.9223758111832096e-07
261 273 1.0825476495199827e-10
262 273 7.7531225587701607e-11
263 273 -1.2304782902790695e-06
264 273 2.1311906950175704e-12
265 273 -2.1743585350581839e-07
266 273 7.9591683451726137e-07
267 273 234230949.62794566
268 273 1.3899327148453477e-12
269 273 -1.230489955074599e-06
270 273 -7.343580348843231e-11
271 273 -2.1743791477320682e-07
272 273 7.9592437971916083e-07
273 273 234233170.11095271
274 273 -1.7377290445725038e-20
275 273 -1.2305016048107342e-06
276 273 -2.0495636039067154e-21
277 273 2.0482285749639937e-20
278 273 2.3390385852390916e-06
279 273 -1.0524485164642727e-10
280 273 -2.1743996903775309e-07
281 273 7.9593192386387995e-07
282 273 234235387.97417593
283 273 3.0427867225546265e-23
284 273 2.1361463470264026e-21
285 273 -2.3177663078338556e-08
286 273 -1.1465855450267848e-20
287 273 -2.385986866287129e-06
288 273 4.1697981135115906e-12
253 274 6.4814188362218047e-29
254 274 7.6394097873309361e-25
255 274 1.0046218128341152e-24
256 274 1.9763739798204342e-10
257 274 1.2450635366785421e-24
258 274 1.006045741848622e-10
259 274 3.5688901822594411e-12
260 274 -1.5854937750602451e-24
261 274 4.5021455466367954e-21
262 274 8.3729273994355456e-21
263 274 1.647190578162613e-06
264 274 1.0376866664764775e-20
265 274 8.3847950038495685e-07
266 274 2.9744584490274018e-08
267 274 -1.3214150938437216e-20
268 274 7.7858337219449922e-21
269 274 2.1661406192155004e-06
270 274 1.3646115198038256e-20
271 274 1.102643815622936e-06
272 274 3.9115663676233835e-08
273 274 -1.7377290445725038e-20
274 274 301327086.46153522
275 274 2.684573778379816e-06
276 274 216921085.96162146
277 274 7695152.4350269213
278 274 -3.418602331162321e-06
279 274 1.1958660033180348e-20
280 274 1.3665450193099915e-06
281 274 4.8477409129224457e-08
282 274 -2.15362834274116e-20
283 274 78079203.046978265
284 274 3917110.5363562154
285 274 -1.7401920655988925e-06
286 274 98257.630426894393
287 274 -6.1732326074455683e-08
288 274 1.9392285698352406e-20
253 275 5.3350255472540765e-25
254 275 2.5235860084988541e-12
255 275 7.11381763948251e-11
256 275 8.1340258512105474e-07
257 275 1.3975074431052094e-10
258 275 4.1405129571886375e-07
259 275 1.468823476681641e-08
260 275 -6.5253072641902375e-21
261 275 2.9744579259001533e-08
262 275 6.2055348483104951e-07
263 275 5441293.5120943347
264 275 1.1990183430610957e-06
265 275 2769814.935778704
266 275 98257.613146019241
267 275 -4.3651338662559673e-08
268 275 1.1026438119988636e-06
269 275 153386370.36167577
270 275 2.4979864418735522e-06
271 275 78079202.790354446
272 275 2769815.4138111635
273 275 -1.2305016048107342e-06
274 275 2.684573778379816e-06
275 275 301327086.41028142
276 275 -1.4597782187800987e-07
277 275 -4.0899741850614324e-06
278 275 -1.4619659715660854e-10
279 275 2.6845737779231877e-06
280 275 153386370.83972251
281 275 5441294.4681461817
282 275 -2.4173168901338471e-06
283 275 -8.007084744651987e-07
284 275 -2.1194788374079527e-06
285 275 -7.4419348519540832e-11
286 275 -1.0532327236079914e-07
287 275 -2.6399841275285314e-12
288 275 1.6586229723470924e-24
253 276 4.9924738956068526e-32
254 276 5.0205529777357386e-25
255 276 -6.6522267938805118e-27
256 276 7.1214294182643395e-11
257 276 -5.1537445832224182e-25
258 276 7.1176249461476199e-11
259 276 7.1138202843095847e-11
260 276 -1.9872078741750618e-25
261 276 5.9140730880704195e-21
262 276 5.440722483213387e-21
263 276 1.6747793184682874e-06
264 276 2.5162518792152199e-21
265 276 1.1436073546364751e-06
266 276 6.1241972715339538e-07
267 276 -1.0330265330815861e-20
268 276 -1.091069414871767e-22
269 276 7.6450929113254803e-07
270 276 -5.7494653350145626e-21
271 276 7.7195357391872393e-07
272 276 7.7939806763493852e-07
273 276 -2.0495636039067154e-21
274 276 216921085.96162146
275 276 -1.4597782187800987e-07
276 276 231464121.19091398
277 276 156153279.12943226
278 276 -1.6576618172373944e-06
279 276 -9.9094129988636227e-21
280 276 4.0009779720371613e-07
281 276 9.4618979787080099e-07
282 276 6.2319075574967309e-21
283 276 110419622.09449172
284 276 80847512.387892127
285 276 -1.4479299303981162e-06
286 276 3917036.2946602879
287 276 -1.2381918479403326e-06
288 276 4.8461985175976194e-21
253 277 -9.1409910967754257e-29
254 277 -7.5071093477060273e-26
255 277 -1.433061412573865e-24
256 277 -1.3684417707563201e-10
257 277 -2.7907435620596515e-24
258 277 1.9360276800919078e-13
259 277 1.3723542280610386e-10
260 277 1.8432168047581262e-24
261 277 5.4647114760906155e-21
262 277 -9.5785247090157877e-22
263 277 1.0207138785269127e-06
264 277 -9.6440203628207901e-21
265 277 1.1017571836980996e-06
266 277 1.1828028842224224e-06
267 277 -1.9757685596151516e-21
268 277 -1.1231836813283377e-20
269 277 -1.5347773158134058e-06
270 277 -3.0807159566179744e-20
271 277 -1.5664352907752167e-08
272 277 1.5034933969060498e-06
273 277 2.0482285749639937e-20
274 277 7695152.4350269213
275 277 -4.0899741850614324e-06
276 277 156153279.12943226
277 277 301428253.09096396
278 277 1.5199546292316228e-06
279 277 -3.6743652472471548e-20
280 277 -1.1331181041580447e-06
281 277 1.8238238723973182e-06
282 277 4.2936019136514702e-20
283 277 110418575.06567027
284 277 156157614.57748491
285 277 -4.34546369600079e-07
286 277 7695226.7237044377
287 277 -2.3891049940496211e-06
288 277 -1.773935126786865e-20
253 278 7.2740538840409547e-40
254 278 6.9744126344433948e-29
255 278 8.9547400769437925e-31
256 278 1.1079146693111916e-21
257 278 -6.780366612095294e-29
258 278 5.6434116132927447e-22
259 278 2.0751886074480133e-23
260 278 2.1341250686378623e-10
261 278 8.2204829238631727e-25
262 278 7.7187103433201394e-25
263 278 1.5038054499823904e-10
264 278 3.822543834240221e-25
265 278 7.654912911383103e-11
266 278 2.7155369244622969e-12
267 278 1.7786667612373211e-06
268 278 1.3879785896119632e-26
269 278 1.9307866631879463e-12
270 278 -7.3097672727273284e-25
271 278 9.8284015516403925e-13
272 278 3.4865704827791555e-14
273 278 2.3390385852390916e-06
274 278 -3.418602331162321e-06
275 278 -1.4619659715660854e-10
276 278 -1.6576618172373944e-06
277 278 1.5199546292316228e-06
278 278 460154750.63409436
279 278 -1.3024901139305545e-24
280 278 -7.441934853144683e-11
281 278 -2.6399841507743208e-12
282 278 2.898852270646047e-06
283 278 -3.0750655422586163e-07
284 278 7.8821836693680812e-07
285 278 234235388.7440401
286 278 3.9930650080543989e-08
287 278 8309367.501424362
288 278 -5.2205267096489116e-06
253 279 2.1956996075295469e-21
254 279 2.0772297161262706e-08
255 279 5.855569559992133e-07
256 279 7.2467406661799853e-21
257 279 1.150324967351869e-06
258 279 -4.2461284834616813e-21
259 279 -1.5744451196823698e-20
260 279 -5.5810978640430079e-25
261 279 98257.595865147552
262 279 3917109.8345673964
263 279 4.8477400603351799e-08
264 279 7695151.0803476451
265 279 -2.8404669214495406e-08
266 279 -1.0532322089437766e-07
267 279 -3.7335007477829922e-12
268 279 78079202.533730611
269 279 1.3665450148185519e-06
270 279 216921085.21176758
271 279 -8.0070834305325518e-07
272 279 -2.9689900998506397e-06
273 279 -1.0524485164642727e-10
274 279 1.1958660033180348e-20
275 279 2.6845737779231877e-06
276 279 -9.9094129988636227e-21
277 279 -3.6743652472471548e-20
278 279 -1.3024901139305545e-24
279 279 301327086.35902768
280 279 -1.5729895056040869e-06
281 279 -5.8325743942122012e-06
282 279 -2.0675321041496807e-10
283 279 4.1056647356827634e-21
284 279 2.1529450332067161e-20
285 279 7.6317637354811917e-25
286 279 5.6448499992275294e-20
287 279 2.8298236947963787e-24
288 279 7.0931044622327158e-29
253 280 2.9058100494055459e-28
254 280 1.3745158463765722e-15
255 280 3.8746586272725372e-14
256 280 4.1405129571886375e-07
257 280 7.6117555126854602e-14
258 280 4.140473742402342e-07
259 280 4.1404344813067091e-07
260 280 -1.1530765902640191e-21
261 280 2.7628670612859793e-08
262 280 5.5044435348905153e-07
263 280 2769814.935778704
264 280 1.0617996402268739e-06
265 280 2769788.7028694227
266 280 2769762.4389812998
267 280 -7.7135581864627991e-09
268 280 -1.0926158692380953e-08
269 280 78079202.790354446
270 280 -5.8136401831224364e-07
271 280 78078463.302449629
272 280 78077722.941272303
273 280 -2.1743996903775309e-07
274 280 1.3665450193099915e-06
275 280 153386370.83972251
276 280 4.0009779720371613e-07
277 280 -1.1331181041580447e-06
278 280 -7.441934853144683e-11
279 280 -1.5729895056040869e-06
280 280 153384918.11784595
281 280 153383463.68042803
282 280 -4.2716020701273501e-07
283 280 -8.0070089095754244e-07
284 280 -2.665549474090601e-06
285 280 -7.4418643701451355e-11
286 280 -2.9689347664289025e-06
287 280 -7.441793803940687e-11
288 280 2.9309261649374909e-25
253 281 -5.3204051430113591e-25
254 281 -2.5166702255502283e-12
255 281 -7.0943225332966702e-11
256 281 1.4688234766816441e-08
257 281 -1.3936776351224526e-10
258 281 4.1404344813067091e-07
259 281 8.1341043767535395e-07
260 281 4.2207993663084395e-21
261 281 2.5529395920347593e-08
262 281 4.8065977277386453e-07
263 281 98257.613146019459
264 281 9.2520649395526046e-07
265 281 2769762.4389812998
266 281 5441346.0421127332
267 281 2.8235228483321524e-08
268 281 -1.1247756536488e-06
269 281 2769815.4138111696
270 281 -3.6618299561098573e-06
271 281 78077722.941272303
272 281 153387851.14723516
273 281 7.9593192386387995e-07
274 281 4.8477409129224457e-08
275 281 5441294.4681461817
276 281 9.4618979787080099e-07
277 281 1.8238238723973182e-06
278 281 -2.6399841507743208e-12
279 281 -5.8325743942122012e-06
280 281 153383463.68042803
281 281 301329995.40928286
282 281 1.5636059753513303e-06
283 281 -8.0069329849440684e-07
284 281 -3.2116361904021535e-06
285 281 -7.4417938051025048e-11
286 281 -5.8326307026318481e-06
287 281 -1.4619800853857265e-10
288 281 -1.0728559424715306e-24
253 282 4.2337765440823347e-36
254 282 2.043264415925527e-23
255 282 5.6454448159953248e-22
256 282 -6.5253072032643134e-21
257 282 1.1086411393089962e-21
258 282 -1.1530766144664434e-21
259 282 4.2207992570896197e-21
260 282 1.2421421124691536e-06
261 282 3.8403484637379891e-12
262 282 7.6583994554635044e-11
263 282 -4.3651338708568736e-08
264 282 1.4774056128569206e-10
265 282 -7.7135583486130359e-09
266 282 2.8235228205030116e-08
267 282 8309366.0400300659
268 282 1.3899458755802236e-12
269 282 -1.2305016061076983e-06
270 282 -7.2488561608721673e-11
271 282 -2.1743997360865818e-07
272 282 7.9593191601903423e-07
273 282 234235387.97417593
274 282 -2.15362834274116e-20
275 282 -2.4173168901338471e-06
276 282 6.2319075574967309e-21
277 282 4.2936019136514702e-20
278 282 2.898852270646047e-06
279 282 -2.0675321041496807e-10
280 282 -4.2716020701273501e-07
281 282 1.5636059753513303e-06
282 282 460154750.55582505
283 282 2.2298642874653886e-21
284 282 7.4876226342321703e-23
285 282 -1.6985430750762846e-06
286 282 -3.0265610617865286e-20
287 282 -6.298121387244588e-06
288 282 -3.1573156304892965e-10
253 283 1.9227885304234708e-35
254 283 3.8649393514493405e-28
255 283 -5.4220757527407766e-30
256 283 5.4795948040586933e-14
257 283 -3.9734934411761469e-28
258 283 5.4795429068320813e-14
259 283 5.4794909483192462e-14
260 283 -1.5259926868530289e-28
261 283 3.88439913022879e-21
262 283 -7.706580931473092e-23
263 283 7.7883347180849839e-07
264 283 -5.6476615564846201e-21
265 283 7.7882609547892923e-07
266 283 7.7881871043854068e-07
267 283 -2.1689453778148243e-21
268 283 7.6448618772405257e-25
269 283 -1.0926158728292086e-08
270 283 7.9230347492046207e-23
271 283 -1.0926055246674228e-08
272 283 -1.0925951642853358e-08
273 283 3.0427867225546265e-23
274 283 78079203.046978265
275 283 -8.007084744651987e-07
276 283 110419622.09449172
277 283 110418575.06567027
278 283 -3.0750655422586163e-07
279 283 4.1056647356827634e-21
280 283 -8.0070089095754244e-07
281 283 -8.0069329849440684e-07
282 283 2.2298642874653886e-21
283 283 78077724.078167468
284 283 110417529.29166375
285 283 -3.0750364829634678e-07
286 283 78076243.37685211
287 283 -3.0750073246330582e-07
288 283 6.0554079176857244e-22
253 284 -4.9787922391876891e-32
254 284 -5.0013349398350348e-25
255 284 6.6251702687791563e-27
256 284 -7.0941851048751316e-11
257 284 5.1339848535199228e-25
258 284 -7.0903807806763898e-11
259 284 -7.0865762669310394e-11
260 284 1.9796222121034045e-25
261 284 5.0759740809421896e-21
262 284 -5.6601244323590156e-21
263 284 5.2841030410761257e-07
264 284 -1.8497784416206488e-20
265 284 1.059577052249157e-06
266 284 1.5907594578788325e-06
267 284 4.1968263823364496e-21
268 284 1.1129689396831894e-22
269 284 -7.9561056870258848e-07
270 284 5.9750678262824922e-21
271 284 -8.0305477649056701e-07
272 284 -8.1049919511996353e-07
273 284 2.1361463470264026e-21
274 284 3917110.5363562154
275 284 -2.1194788374079527e-06
276 284 80847512.387892127
277 284 156157614.57748491
278 284 7.8821836693680812e-07
279 284 2.1529450332067161e-20
280 284 -2.665549474090601e-06
281 284 -3.2116361904021535e-06
282 284 7.4876226342321703e-23
283 284 110417529.29166375
284 284 231462642.29232758
285 284 5.7848852722148931e-07
286 284 216919068.72485572
287 284 3.6875250232311632e-07
288 284 -3.1346924314233486e-21
253 285 3.9619339568191595e-43
254 285 3.7991273408052696e-32
255 285 4.8767582172502411e-34
256 285 5.6453866085488255e-22
257 285 -3.6934487578754228e-32
258 285 5.6453381683407514e-22
259 285 5.6452896665317375e-22
260 285 1.1623865745737663e-13
261 285 7.6357111325863202e-25
262 285 -6.4226312532089764e-28
263 285 7.6549129106803019e-11
264 285 -1.0799954235058776e-24
265 285 7.6548404117367048e-11
266 285 7.6547678271773758e-11
267 285 1.6521396267992692e-06
268 285 -1.3753556830138934e-28
269 285 9.8284015745712003e-13
270 285 2.3681410332890944e-28
271 285 9.8283084888057709e-13
272 285 9.8282152931148236e-13
273 285 -2.3177663078338556e-08
274 285 -1.7401920655988925e-06
275 285 -7.4419348519540832e-11
276 285 -1.4479299303981162e-06
277 285 -4.34546369600079e-07
278 285 234235388.7440401
279 285 7.6317637354811917e-25
280 285 -7.4418643701451355e-11
281 285 -7.4417938051025048e-11
282 285 -1.6985430750762846e-06
283 285 -3.0750364829634678e-07
284 285 5.7848852722148931e-07
285 285 234233170.30134773
286 285 1.1255963911197127e-06
287 285 234230949.23886266
288 285 -9.2251093727544604e-07
253 286 6.4459434224772036e-29
254 286 -6.5388400858181216e-25
255 286 1.0219778129345763e-24
256 286 -3.5591097947617068e-12
257 286 2.6976428126566772e-24
258 286 -1.0032697019712589e-10
259 286 -1.9709768408877569e-10
260 286 -1.0227429207239544e-24
261 286 3.3165377715548154e-21
262 286 -7.3306198182566973e-21
263 286 2.5529400410282611e-08
264 286 -1.9350120535644875e-20
265 286 7.1964270331941333e-07
266 286 1.4137764742317077e-06
267 286 7.3361079161908537e-21
268 286 8.1015189063601577e-21
269 286 -3.9900778202878052e-08
270 286 3.0242969097728801e-20
271 286 -1.124754339271598e-06
272 286 -2.209639890486634e-06
273 286 -1.1465855450267848e-20
274 286 98257.630426894393
275 286 -1.0532327236079914e-07
276 286 3917036.2946602879
277 286 7695226.7237044377
278 286 3.9930650080543989e-08
279 286 5.6448499992275294e-20
280 286 -2.9689347664289025e-06
281 286 -5.8326307026318481e-06
282 286 -3.0265610617865286e-20
283 286 78076243.37685211
284 286 216919068.72485572
285 286 1.1255963911197127e-06
286 286 301332904.48762238
287 286 2.2112941244598434e-06
288 286 8.1136537564411261e-21
253 287 -7.254119657423666e-40
254 287 -6.9552987661277001e-29
255 287 -8.9302012893096808e-31
256 287 2.1144751353291038e-23
257 287 6.7617844926761219e-29
258 287 5.6472613892055017e-22
259 287 1.1083233008494586e-21
260 287 -2.128276592200095e-10
261 287 7.0555364522847938e-25
262 287 -7.7334516716556886e-25
263 287 2.7155369103987134e-12
264 287 -2.5432741887683815e-24
265 287 7.6547678264742645e-11
266 287 1.5038199678021828e-10
267 287 1.5266071697500352e-06
268 287 -1.4158375609538577e-26
269 287 3.4865709413969739e-14
270 287 7.3162959060242619e-25
271 287 9.8282153160514414e-13
272 287 1.9308053071012095e-12
273 287 -2.385986866287129e-06
274 287 -6.1732326074455683e-08
275 287 -2.6399841275285314e-12
276 287 -1.2381918479403326e-06
277 287 -2.3891049940496211e-06
278 287 8309367.501424362
279 287 2.8298236947963787e-24
280 287 -7.441793803940687e-11
281 287 -1.4619800853857265e-10
282 287 -6.298121387244588e-06
283 287 -3.0750073246330582e-07
284 287 3.6875250232311632e-07
285 287 234230949.23886266
286 287 2.2112941244598434e-06
287 287 460159192.94867694
288 287 3.3768211321422075e-06
253 288 4.0818115018451e-51
254 288 7.8273371118517944e-40
255 288 1.0049782835443662e-41
256 288 -1.2582182228103445e-35
257 288 -7.6095617978606761e-40
258 288 -2.2233773268059328e-36
259 288 8.1386000301071554e-36
260 288 2.3951145785856388e-21
261 288 7.5049039176451178e-29
262 288 1.362707897761304e-30
263 288 -1.7060905070344793e-24
264 288 -1.0318242821999916e-28
265 288 -3.0148052873901779e-25
266 288 1.1035596210729265e-24
267 288 3.2476737116855327e-10
268 288 1.2371729438501003e-32
269 288 -2.1905073013077516e-26
270 288 -1.324794091817799e-30
271 288 -3.8708104680380449e-27
272 288 1.41689751945839e-26
273 288 4.1697981135115906e-12
274 288 1.9392285698352406e-20
275 288 1.6586229723470924e-24
276 288 4.8461985175976194e-21
277 288 -1.773935126786865e-20
278 288 -5.2205267096489116e-06
279 288 7.0931044622327158e-29
280 288 2.9309261649374909e-25
281 288 -1.0728559424715306e-24
282 288 -3.1573156304892965e-10
283 288 6.0554079176857244e-22
284 288 -3.1346924314233486e-21
285 288 -9.2251093727544604e-07
286 288 8.1136537564411261e-21
287 288 3.3768211321422075e-06
288 288 702699505.10457921
289 289 635520798.28109992
290 289 -6.3579103392096489e-05
291 289 3.1641931635125152e-07
292 289 2.9621319823010185e-09
293 289 6.4209961019556056e-05
294 289 5.4098928647993687e-14
295 289 -2.9615780690827604e-09
296 289 3.0106783998087914e-21
297 289 3.1803069223510494e-18
298 289 -2.23837383786546e-20
299 289 -2.0954342515950921e-22
300 289 -4.5422605210671677e-18
301 289 -3.8269985517507219e-27
302 289 2.095042409254209e-22
303 289 -2.1297763493293735e-34
304 289 7.8770973374114769e-23
305 289 1.0428518773845077e-24
306 289 2.2605838901213857e-20
307 289 1.9046136243134319e-29
308 289 -1.0426568660065475e-24
309 289 1.0599431896355391e-36
310 289 6.9031776019780222e-27
311 289 2.1162259993538869e-22
312 289 1.7829875228736997e-31
313 289 -9.7607418060889395e-27
314 289 9.9225662252435557e-39
315 289 3.2437326247104826e-18
316 289 3.8649715821622956e-27
317 289 -2.1158302689945144e-22
318 289 2.1509088532980355e-34
319 289 2.3025950439203353e-36
320 289 -1.782654107494908e-31
321 289 1.8122089273262243e-43
322 289 6.9005960804074694e-27
323 289 -9.9207107236575182e-39
324 289 7.1313043189075979e-51
289 290 -6.3579103392096489e-05
290 290 761031110.4270581
291 290 211835205.81916901
292 290 1.7181294526363927e-05
293 290 -337345535.72719121
294 290 9.3579278141962847e-06
295 290 1.5354803754143988e-06
296 290 -2.0712452462209431e-09
297 290 -7.613547154603467e-05
298 290 -1.4717450854636217e-05
299 290 2.5081993445409127e-09
300 290 7.8234164656909333e-05
301 290 4.5807863174065865e-14
302 290 -2.5077303172126344e-09
303 290 2.6958276888521567e-21
304 290 1.0547058599139715e-07
305 290 6.9816452621791477e-10
306 290 1.501530514298348e-05
307 290 1.2750938470232677e-14
308 290 -6.9803397073240042e-10
309 290 7.0887754804028607e-22
310 290 8.0081190342672637e-23
311 290 -1.1118203178261652e-09
312 290 3.0842806751741091e-23
313 290 -5.1554741665952538e-23
314 290 -6.8263910062186964e-27
315 290 -3.4083768395543928e-05
316 290 -2.0305073548456874e-14
317 290 1.1116124108139728e-09
318 290 -1.2780172341313668e-21
319 290 7.9659685486698583e-28
320 290 -3.0835912783737286e-23
321 290 -1.2464251783172347e-31
322 290 -7.1554621306395795e-24
323 290 6.825114546375792e-27
324 290 -9.812193936642541e-39
289 291 3.1641931635125152e-07
290 291 211835205.81916901
291 291 211840263.62464404
292 291 -1.1959918737155789e-05
293 291 211845317.72831786
294 291 9.9238524723423828e-08
295 291 1.2158656205943639e-05
296 291 3.5070269801405281e-14
297 291 -2.1192528221406482e-05
298 291 -1.4911159242204255e-05
299 291 6.9816452705791948e-10
300 291 1.4797569288725814e-07
301 291 1.2750928155461711e-14
302 291 -6.9803397159305341e-10
303 291 7.0960427232602088e-22
304 291 1.0547310422109942e-07
305 291 6.9818119567649768e-10
306 291 1.520901530240296e-05
307 291 1.2751239653626709e-14
308 291 -6.9805063708034292e-10
309 291 7.096237082349122e-22
310 291 -5.5744608033080557e-23
311 291 6.9819785209473995e-10
312 291 3.2634951862526618e-25
313 291 7.948240685501843e-23
314 291 1.1554420978451768e-31
315 291 2.1403830732686961e-05
316 291 1.2751550928751524e-14
317 291 -6.9806729036957827e-10
318 291 7.0964313166618923e-22
319 291 8.4477138791766362e-30
320 291 -3.2627639470025728e-25
321 291 2.4434043536484542e-36
322 291 -5.6660316493863156e-23
323 291 -1.1552193000669856e-31
324 291 1.6613980856666718e-43
289 292 2.9621319823010185e-09
290 292 1.7181294526363927e-05
291 292 -1.1959918737155789e-05
292 292 761021009.76694548
293 292 -4.1101232747020663e-05
294 292 211845320.45443001
295 292 -337345528.21755153
296 292 2.2649058408588892e-05
297 292 -1.718860031701304e-18
298 292 8.5210243791446854e-19
299 292 -5.3835193690808566e-05
300 292 4.1350093020169631e-18
301 292 -1.4986095932684206e-05
302 292 2.3864074209832449e-05
303 292 -1.6022112802302555e-18
304 292 -5.9547214236481362e-21
305 292 2.6792600515660009e-07
306 292 -8.6891860754476999e-19
307 292 7.4582527541331628e-08
308 292 -1.1876628709692349e-07
309 292 7.9738557307767853e-21
310 292 3.5470824532112331e-09
311 292 5.4369368297772773e-05
312 292 6.9824366985105866e-10
313 292 -3.6195173279697082e-09
314 292 2.6239189791838362e-21
315 292 -4.152670628058001e-18
316 292 1.5134794049212692e-05
317 292 -2.4100863224372177e-05
318 292 1.6181090698027435e-18
319 292 1.8033406470210244e-14
320 292 -6.980876059628921e-10
321 292 7.0964199859284466e-22
322 292 1.5720573123247099e-09
323 292 -1.2046745307525791e-21
324 292 1.0729630109852876e-34
289 293 6.4209961019556056e-05
290 293 -337345535.72719121
291 293 211845317.72831786
292 293 -4.1101232747020663e-05
293 293 761021011.82402813
294 293 -9.159230194400464e-06
295 293 2.2782373977751192e-05
296 293 2.0716315580556186e-09
297 293 3.3748898152306342e-05
298 293 -1.5104862029577777e-05
299 293 -1.1118203161461105e-09
300 293 -7.7936057597208965e-05
301 293 -2.0305094172975847e-14
302 293 1.1116124090926315e-09
303 293 -1.276590717085255e-21
304 293 1.0547562060771268e-07
305 293 6.9819785293471818e-10
306 293 1.5402719860332797e-05
307 293 1.2751540614276949e-14
308 293 -6.9806729123020428e-10
309 293 7.1036996734088428e-22
310 293 -1.9157087603466663e-22
311 293 2.5081660599368103e-09
312 293 -3.018938076682462e-23
313 293 2.1052167351459174e-22
314 293 6.8276641290890586e-27
315 293 7.688989823220578e-05
316 293 4.5807262938765319e-14
317 293 -2.5076970388170796e-09
318 293 2.6972753046753934e-21
319 293 -7.7968265098107967e-28
320 293 3.0182633209165885e-23
321 293 1.2466643658646872e-31
322 293 -1.0616769634706113e-22
323 293 -6.8263874298266018e-27
324 293 9.8140240273325611e-39
289 294 5.4098928647993687e-14
290 294 9.3579278141962847e-06
291 294 9.9238524723423828e-08
292 294 211845320.45443001
293 294 -9.159230194400464e-06
294 294 211840268.39581421
295 294 211835212.63541543
296 294 7.0177195455368787e-09
297 294 -9.3619069543795031e-19
298 294 -3.7256437063393215e-21
299 294 -1.4986095932684212e-05
300 294 1.3164860614692965e-18
301 294 -1.4985738546290627e-05
302 294 -1.4985380898030159e-05
303 294 -4.9643871345605076e-22
304 294 4.9409849487750767e-23
305 294 7.4582527541331668e-08
306 294 3.865254782676826e-21
307 294 7.4580748907278996e-08
308 294 7.4578968969972023e-08
309 294 2.4706670893634598e-24
310 294 9.8740088556679681e-10
311 294 1.5134794049212699e-05
312 294 6.9819396294949022e-10
313 294 9.7248455547588286e-14
314 294 7.0966376422027313e-22
315 294 -9.2540450769733996e-19
316 294 1.5134433116686495e-05
317 294 1.5134071919695061e-05
318 294 5.0136457953847431e-22
319 294 1.8032976411966172e-14
320 294 -6.9803790187087591e-10
321 294 7.0962371229293744e-22
322 294 -9.8716914017192629e-10
323 294 7.0958365144558583e-22
324 294 3.3245326838726984e-38
289 295 -2.9615780690827604e-09
290 295 1.5354803754143988e-06
291 295 1.2158656205943639e-05
292 295 -337345528.21755153
293 295 2.2782373977751192e-05
294 295 211835212.63541543
295 295 761031116.54961562
296 295 -2.26352661280923e-05
297 295 -1.5361332560271751e-19
298 295 -8.5957182394508861e-19
299 295 2.3864074209832443e-05
300 295 -1.5019433212187648e-18
301 295 -1.4985380898030163e-05
302 295 -5.3835908652150831e-05
303 295 1.6012356040236296e-18
304 295 6.0536707827552366e-21
305 295 -1.1876628709692347e-07
306 295 8.7666758190346577e-19
307 295 7.4578968969972036e-08
308 295 2.6792956336310295e-07
309 295 -7.9690000033158807e-21
310 295 -1.5723513391255721e-09
311 295 -2.4100863224372171e-05
312 295 6.9814424293513666e-10
313 295 3.6198117518936992e-09
314 295 -1.204643033049991e-21
315 295 2.3018213610932278e-18
316 295 1.5134071919695064e-05
317 295 5.4370090353251197e-05
318 295 -1.6171237125414308e-18
319 295 1.8032546038606539e-14
320 295 -6.9798818466813314e-10
321 295 7.0960541357814067e-22
322 295 -3.5464662537542888e-09
323 295 2.6238934282007918e-21
324 295 -1.0723096236990258e-34
289 296 3.0106783998087914e-21
290 296 -2.0712452462209431e-09
291 296 3.5070269801405281e-14
292 296 2.2649058408588892e-05
293 296 2.0716315580556186e-09
294 296 7.0177195455368787e-09
295 296 -2.26352661280923e-05
296 296 635520798.28153539
297 296 2.0721259794494542e-22
298 296 -7.3168607980579361e-25
299 296 -1.6022112868740886e-18
300 296 -2.9452403932889597e-22
301 296 -4.9643857525305674e-22
302 296 1.6012356109428414e-18
303 296 -4.4957215150342857e-05
304 296 1.746112923364502e-29
305 296 7.9738557299838603e-21
306 296 7.3184670169744946e-25
307 296 2.4706664009384802e-24
308 296 -7.9690000038997865e-21
309 296 2.2374224429053466e-07
310 296 1.0556617573319146e-22
311 296 1.6181090764460385e-18
312 296 2.4492237406223251e-26
313 296 -1.4923370222238711e-22
314 296 2.0945436114560362e-09
315 296 2.093076763961352e-22
316 296 5.0136443996295926e-22
317 296 -1.6171237194628492e-18
318 296 4.5403298856683079e-05
319 296 5.9738564686864559e-31
320 296 -2.4487082144606634e-26
321 296 3.8253719301949733e-14
322 296 1.0548216193405897e-22
323 296 -2.0941519356632163e-09
324 296 3.010678399810855e-21
289 297 3.1803069223510494e-18
290 297 -7.613547154603467e-05
291 297 -2.1192528221406482e-05
292 297 -1.718860031701304e-18
293 297 3.3748898152306342e-05
294 297 -9.3619069543795031e-19
295 297 -1.5361332560271751e-19
296 297 2.0721259794494542e-22
297 297 911328712.77277482
298 297 358744936.29487628
299 297 2.9096685730253522e-05
300 297 -571297874.00457168
301 297 1.5847739777597022e-05
302 297 2.6003506231645699e-06
303 297 -3.5076735287376814e-09
304 297 70610048.555171311
305 297 8.0991464420753137e-06
306 297 -159022411.91677475
307 297 4.4112641015056936e-06
308 297 7.2381510021444459e-07
309 297 -9.7637104939064906e-10
310 297 4.64496020272012e-19
311 297 -1.289781311311962e-05
312 297 3.577839078658336e-19
313 297 5.8706390995413332e-20
314 297 -7.9190418333559929e-23
315 297 179068900.31430477
316 297 -7.0248958184357893e-06
317 297 -1.1526686124010503e-06
318 297 1.5548615417891186e-09
319 297 1.3779377986143364e-19
320 297 3.1974899698278077e-20
321 297 -4.3131687033496753e-23
322 297 3.7098706913442322e-21
323 297 -7.0771927624810375e-24
324 297 6.7504586499705751e-27
289 298 -2.23837383786546e-20
290 298 -1.4717450854636217e-05
291 298 -1.4911159242204255e-05
292 298 8.5210243791446854e-19
293 298 -1.5104862029577777e-05
294 298 -3.7256437063393215e-21
295 298 -8.5957182394508861e-19
296 298 -7.3168607980579361e-25
297 298 358744936.29487628
298 298 324287082.40751576
299 298 -8.594946364771756e-06
300 298 141237260.27437657
301 298 3.2380721052631624e-06
302 298 1.5071708842533707e-05
303 298 -6.9035659360869535e-10
304 298 99860072.521958604
305 298 1.7405537593789113e-06
306 298 -41835091.487406611
307 298 3.1523879531060933e-06
308 298 4.5646153756650596e-06
309 298 -6.9040338421598208e-10
310 298 -4.5726645348192566e-19
311 298 1.2075768428535943e-05
312 298 -1.7342470959632198e-19
313 298 2.9981274149015227e-19
314 298 3.8979884606703378e-23
315 298 -159030002.81827629
316 298 3.0667061141993096e-06
317 298 -5.9421880035013218e-06
318 298 -6.9045016192186432e-10
319 298 2.0665466814450118e-21
320 298 1.7927376445932508e-19
321 298 -3.2291490392950736e-25
322 298 4.1544647529885251e-20
323 298 -3.9626563104462662e-23
324 298 -1.6164261269036299e-31
289 299 -2.0954342515950921e-22
290 299 2.5081993445409127e-09
291 299 6.9816452705791948e-10
292 299 -5.3835193690808566e-05
293 299 -1.1118203161461105e-09
294 299 -1.4986095932684212e-05
295 299 2.3864074209832443e-05
296 299 -1.6022112868740886e-18
297 299 2.9096685730253522e-05
298 299 -8.594946364771756e-06
299 299 911316617.31248105
300 299 -5.8338531005662987e-05
301 299 253683089.36586612
302 299 -403968591.79335648
303 299 2.7122067629314142e-05
304 299 -5.6378250892004058e-06
305 299 253667610.36416435
306 299 -7.3515499649460878e-06
307 299 70613420.019721478
308 299 -112445823.32383843
309 299 7.5495057952008106e-06
310 299 2.9096299549282813e-05
311 299 -403963239.17934823
312 299 1.6933130352856603e-05
313 299 -7.2814297568205812e-06
314 299 -2.4802668183767371e-09
315 299 3.0854253611476444e-05
316 299 -112451194.85198686
317 299 179068896.32805687
318 299 -1.2022515648940789e-05
319 299 4.4114747290416318e-06
320 299 -4.4555123561324695e-06
321 299 -6.9043155456158969e-10
322 299 -1.1526685867415259e-06
323 299 1.0994531155850821e-09
324 299 -1.043919250371505e-22
289 300 -4.5422605210671677e-18
290 300 7.8234164656909333e-05
291 300 1.4797569288725814e-07
292 300 4.1350093020169631e-18
293 300 -7.7936057597208965e-05
294 300 1.3164860614692965e-18
295 300 -1.5019433212187648e-18
296 300 -2.9452403932889597e-22
297 300 -571297874.00457168
298 300 141237260.27437657
299 300 -5.8338531005662987e-05
300 300 1090385520.090126
301 300 -1.593545691135445e-05
302 300 2.6466652172679908e-05
303 300 3.5802154837192406e-09
304 300 99862454.992367059
305 300 -7.9728489083768171e-06
306 300 141216417.64492327
307 300 6.6379853838309341e-08
308 300 8.1057822537901109e-06
309 300 9.5811503602675934e-14
310 300 -1.5714333307862482e-18
311 300 4.2391442737386664e-05
312 300 -8.5282779461518822e-19
313 300 5.166165165703811e-19
314 300 1.899608088984006e-22
315 300 -571290293.09183049
316 300 1.6067774867688772e-05
317 300 -1.0254580720811171e-05
318 300 -3.5799250267653434e-09
319 300 -1.907321457627589e-19
320 300 3.1333670501580606e-19
321 300 6.0355523660021609e-23
322 300 7.7844597360769426e-20
323 300 -6.9245466577313214e-23
324 300 -9.5483707274615671e-27
289 301 -3.8269985517507219e-27
290 301 4.5807863174065865e-14
291 301 1.2750928155461711e-14
292 301 -1.4986095932684206e-05
293 301 -2.0305094172975847e-14
294 301 -1.4985738546290627e-05
295 301 -1.4985380898030163e-05
296 301 -4.9643857525305674e-22
297 301 1.5847739777597022e-05
298 301 3.2380721052631624e-06
299 301 253683089.36586612
300 301 -1.593545691135445e-05
301 301 253677039.5657829
302 301 253670985.33284396
303 301 8.4036634408356724e-09
304 301 4.6780372964113559e-08
305 301 70613420.019721508
306 301 -3.105681333095119e-06
307 301 70611736.040409431
308 301 70610050.827199176
309 301 2.339183970581031e-09
310 301 8.0995331573612418e-06
311 301 -112451194.8519869
312 301 8.8464819336306909e-06
313 301 6.23880055892589e-06
314 301 -6.9043155489490346e-10
315 301 6.8757356243902015e-06
316 301 -112448513.13106619
317 301 -112445829.44517447
318 301 -3.7251280620168897e-09
319 301 4.4113695247875778e-06
320 301 3.631061657514376e-06
321 301 -6.9041508957643537e-10
322 301 7.2381512350472859e-07
323 301 -6.9039861219337334e-10
324 301 -3.2345417611339654e-26
289 302 2.095042409254209e-22
290 302 -2.5077303172126344e-09
291 302 -6.9803397159305341e-10
292 302 2.3864074209832449e-05
293 302 1.1116124090926315e-09
294 302 -1.4985380898030159e-05
295 302 -5.3835908652150831e-05
296 302 1.6012356109428414e-18
297 302 2.6003506231645699e-06
298 302 1.5071708842533707e-05
299 302 -403968591.79335648
300 302 2.6466652172679908e-05
301 302 253670985.33284396
302 302 911328720.10448885
303 302 -2.7105551482918883e-05
304 302 5.7315085950515555e-06
305 302 -112445823.32383838
306 302 1.1399162695897115e-06
307 302 70610050.827199191
308 302 253670979.21124676
309 302 -7.544908478188348e-06
310 302 -1.2897812826001754e-05
311 302 179068896.32805684
312 302 7.5961019552457611e-07
313 302 1.9759404181293714e-05
314 302 1.0994531149184155e-09
315 302 -1.710248329439442e-05
316 302 -112445829.4451745
317 302 -403968604.03605086
318 302 1.2015194465644181e-05
319 302 4.41126424344746e-06
320 302 1.1717858935527756e-05
321 302 -6.9039861252669052e-10
322 302 2.6003506440846032e-06
323 302 -2.4802997583678638e-09
324 302 1.0432835494581526e-22
289 303 -2.1297763493293735e-34
290 303 2.6958276888521567e-21
291 303 7.0960427232602088e-22
292 303 -1.6022112802302555e-18
293 303 -1.276590717085255e-21
294 303 -4.9643871345605076e-22
295 303 1.6012356040236296e-18
296 303 -4.4957215150342857e-05
297 303 -3.5076735287376814e-09
298 303 -6.9035659360869535e-10
299 303 2.7122067629314142e-05
300 303 3.5802154837192406e-09
301 303 8.4036634408356724e-09
302 303 -2.7105551482918883e-05
303 303 761031110.42757964
304 303 1.6531888811501104e-14
305 303 7.5495057943406105e-06
306 303 6.9050874160242524e-10
307 303 2.3391833187907336e-09
308 303 -7.5449084786317282e-06
309 303 211835205.81931418
310 303 8.6594690479337789e-19
311 303 -1.2022515647570928e-05
312 303 3.3369297695581984e-19
313 303 -5.5722171533332261e-19
314 303 1.7181294526375701e-05
315 303 -1.5551515419308128e-09
316 303 -3.7251270240470844e-09
317 303 1.2015194466350259e-05
318 303 -337345535.72742242
319 303 1.4613720868581376e-22
320 303 -3.3328320882573528e-19
321 303 9.3579278142026968e-06
322 303 -7.7341947758364452e-20
323 303 1.5354803754154508e-06
324 303 -2.9291831182084664e-09
289 304 7.8770973374114769e-23
290 304 1.0547058599139715e-07
291 304 1.0547310422109942e-07
292 304 -5.9547214236481362e-21
293 304 1.0547562060771268e-07
294 304 4.9409849487750767e-23
295 304 6.0536707827552366e-21
296 304 1.746112923364502e-29
297 304 70610048.555171311
298 304 99860072.521958604
299 304 -5.6378250892004058e-06
300 304 99862454.992367059
301 304 4.6780372964113559e-08
302 304 5.7315085950515555e-06
303 304 1.6531888811501104e-14
304 304 70613420.385196045
305 304 -5.6379596952766504e-06
306 304 99864839.321589649
307 304 4.6781488646003578e-08
308 304 5.7316454354218775e-06
309 304 1.6532283537055386e-14
310 304 2.2507470500768984e-19
311 304 -5.638094206215795e-06
312 304 -2.641154202870291e-21
313 304 -3.2359293962784197e-19
314 304 -9.3336726578638441e-28
315 304 70616789.827799737
316 304 4.6782604762881397e-08
317 304 5.731782181523665e-06
318 304 1.6532677965732596e-14
319 304 1.5496400457574898e-23
320 304 2.6850421516509245e-21
321 304 7.7447006553661732e-30
322 304 2.3261696727184556e-19
323 304 9.4887699055362284e-28
324 304 1.9353006656429624e-36
289 305 1.0428518773845077e-24
290 305 6.9816452621791477e-10
291 305 6.9818119567649768e-10
292 305 2.6792600515660009e-07
293 305 6.9819785293471818e-10
294 305 7.4582527541331668e-08
295 305 -1.1876628709692347e-07
296 305 7.9738557299838603e-21
297 305 8.0991464420753137e-06
298 305 1.7405537593789113e-06
299 305 253667610.36416435
300 305 -7.9728489083768171e-06
301 305 70613420.019721508
302 305 -112445823.32383838
303 305 7.5495057943406105e-06
304 305 -5.6379596952766504e-06
305 305 253673666.96567953
306 305 -1.768714540456784e-05
307 305 70615105.995105058
308 305 -112448508.09523253
309 305 7.5496860482026519e-06
310 305 -2.0253967337990215e-05
311 305 253679719.13437602
312 305 -3.8678989292521029e-06
313 305 2.0908234573943678e-05
314 305 4.1995386033553109e-14
315 305 -1.9375768958979811e-05
316 305 70616790.736525461
317 305 -112451190.90164599
318 305 7.5498661692775582e-06
319 305 4.678260536489908e-08
320 305 4.0003045605700778e-06
321 305 1.1690372387899414e-14
322 305 -9.1273723129146266e-06
323 305 -1.8615477795173153e-14
324 305 1.7675613174348415e-27
289 306 2.2605838901213857e-20
290 306 1.501530514298348e-05
291 306 1.520901530240296e-05
292 306 -8.6891860754476999e-19
293 306 1.5402719860332797e-05
294 306 3.865254782676826e-21
295 306 8.7666758190346577e-19
296 306 7.3184670169744946e-25
297 306 -159022411.91677475
298 306 -41835091.487406611
299 306 -7.3515499649460878e-06
300 306 141216417.64492327
301 306 -3.105681333095119e-06
302 306 1.1399162695897115e-06
303 306 6.9050874160242524e-10
304 306 99864839.321589649
305 306 -1.768714540456784e-05
306 306 324290457.47917348
307 306 -3.0199963988129777e-06
308 306 1.1647106619578414e-05
309 306 6.9055553500543055e-10
310 306 1.0938765358001807e-18
311 306 -2.8022455314649675e-05
312 306 1.659502307429601e-19
313 306 -1.2150839158199234e-18
314 306 -3.8988474627442446e-23
315 306 358757300.26857328
316 306 -2.9343137678993623e-06
317 306 2.2154006824434882e-05
318 306 6.9060231550499733e-10
319 306 -2.0226675326683822e-21
320 306 -1.7167501387312016e-19
321 306 3.22986192541641e-25
322 306 6.1641015538493202e-19
323 306 3.9635295889470292e-23
324 306 1.6167276095715278e-31
289 307 1.9046136243134319e-29
290 307 1.2750938470232677e-14
291 307 1.2751239653626709e-14
292 307 7.4582527541331628e-08
293 307 1.2751540614276949e-14
294 307 7.4580748907278996e-08
295 307 7.4578968969972036e-08
296 307 2.4706664009384802e-24
297 307 4.4112641015056936e-06
298 307 3.1523879531060933e-06
299 307 70613420.019721478
300 307 6.6379853838309341e-08
301 307 70611736.040409431
302 307 70610050.827199191
303 307 2.3391833187907336e-09
304 307 4.6781488646003578e-08
305 307 70615105.995105058
306 307 -3.0199963988129777e-06
307 307 70613421.975586087
308 307 70611736.722139463
309 307 2.3392398212478159e-09
310 307 -5.6380942787690992e-06
311 307 70616790.736525491
312 307 -3.9535593248805144e-06
313 307 6.6437623394685707e-08
314 307 1.1690368719112334e-14
315 307 -4.3178054656184673e-06
316 307 70615106.676828995
317 307 70613421.383175462
318 307 2.3392956310375708e-09
319 307 4.6781489699639183e-08
320 307 4.0859641651529088e-06
321 307 1.169009006193635e-14
322 307 5.731508773585922e-06
323 307 1.1689811200485859e-14
324 307 5.4767175665870105e-31
289 308 -1.0426568660065475e-24
290 308 -6.9803397073240042e-10
291 308 -6.9805063708034292e-10
292 308 -1.1876628709692349e-07
293 308 -6.9806729123020428e-10
294 308 7.4578968969972023e-08
295 308 2.6792956336310295e-07
296 308 -7.9690000038997865e-21
297 308 7.2381510021444459e-07
298 308 4.5646153756650596e-06
299 308 -112445823.32383843
300 308 8.1057822537901109e-06
301 308 70610050.827199176
302 308 253670979.21124676
303 308 -7.5449084786317282e-06
304 308 5.7316454354218775e-06
305 308 -112448508.09523253
306 308 1.1647106619578414e-05
307 308 70611736.722139463
308 308 253677035.89319697
309 308 -7.5450886214240392e-06
310 308 8.9781822347161609e-06
311 308 -112451190.90164596
312 308 -4.0392220180253105e-06
313 308 -2.0775934707883301e-05
314 308 -1.8615485137452278e-14
315 308 1.0739970219656894e-05
316 308 70613421.383175477
317 308 253683088.14226961
318 308 -7.5452686328131314e-06
319 308 4.6780373216900517e-08
320 308 4.171626066672558e-06
321 308 1.1689807531657929e-14
322 308 2.0590800118689895e-05
323 308 4.1995936942469179e-14
324 308 -1.7664849503274242e-27
289 309 1.0599431896355391e-36
290 309 7.0887754804028607e-22
291 309 7.096237082349122e-22
292 309 7.9738557307767853e-21
293 309 7.1036996734088428e-22
294 309 2.4706670893634598e-24
295 309 -7.9690000033158807e-21
296 309 2.2374224429053466e-07
297 309 -9.7637104939064906e-10
298 309 -6.9040338421598208e-10
299 309 7.5495057952008106e-06
300 309 9.5811503602675934e-14
301 309 2.339183970581031e-09
302 309 -7.544908478188348e-06
303 309 211835205.81931418
304 309 1.6532283537055386e-14
305 309 7.5496860482026519e-06
306 309 6.9055553500543055e-10
307 309 2.3392398212478159e-09
308 309 -7.5450886214240392e-06
309 309 211840263.62478921
310 309 -6.0278662915233526e-19
311 309 7.5498661684173166e-06
312 309 3.4046530284154998e-21
313 309 8.5929218921838122e-19
314 309 -1.1959918737163985e-05
315 309 9.765997697460015e-10
316 309 2.3392949792161607e-09
317 309 -7.5452686332565329e-06
318 309 211845317.72846302
319 309 1.549749184341708e-24
320 309 -3.4003047700753314e-21
321 309 9.9238524723491829e-08
322 309 -6.1242993928738204e-19
323 309 1.2158656205951972e-05
324 309 4.9596851189264938e-14
289 310 6.9031776019780222e-27
290 310 8.0081190342672637e-23
291 310 -5.5744608033080557e-23
292 310 3.5470824532112331e-09
293 310 -1.9157087603466663e-22
294 310 9.8740088556679681e-10
295 310 -1.5723513391255721e-09
296 310 1.0556617573319146e-22
297 310 4.64496020272012e-19
298 310 -4.5726645348192566e-19
299 310 2.9096299549282813e-05
300 310 -1.5714333307862482e-18
301 310 8.0995331573612418e-06
302 310 -1.2897812826001754e-05
303 310 8.6594690479337789e-19
304 310 2.2507470500768984e-19
305 310 -2.0253967337990215e-05
306 310 1.0938765358001807e-18
307 310 -5.6380942787690992e-06
308 310 8.9781822347161609e-06
309 310 -6.0278662915233526e-19
310 310 911304522.01272213
311 310 -6.9604404837892748e-05
312 310 358757303.91546768
313 310 -571290278.83012319
314 310 3.8355886802027246e-05
315 310 2.6581527117505242e-18
316 310 -1.9375769208315123e-05
317 310 3.0854252924630749e-05
318 310 -2.071525241006524e-18
319 310 70616791.645251185
320 310 -159030001.3245768
321 310 1.0677123268091714e-05
322 310 179068892.34180909
323 310 -1.700240430608477e-05
324 310 8.0718026567050756e-19
289 311 2.1162259993538869e-22
290 311 -1.1118203178261652e-09
291 311 6.9819785209473995e-10
292 311 5.4369368297772773e-05
293 311 2.5081660599368103e-09
294 311 1.5134794049212699e-05
295 311 -2.4100863224372171e-05
296 311 1.6181090764460385e-18
297 311 -1.289781311311962e-05
298 311 1.2075768428535943e-05
299 311 -403963239.17934823
300 311 4.2391442737386664e-05
301 311 -112451194.8519869
302 311 179068896.32805684
303 311 -1.2022515647570928e-05
304 311 -5.638094206215795e-06
305 311 253679719.13437602
306 311 -2.8022455314649675e-05
307 311 70616790.736525491
308 311 -112451190.90164596
309 311 7.5498661684173166e-06
310 311 -6.9604404837892748e-05
311 311 911304524.47602963
312 311 -2.4668697670256106e-05
313 311 4.9098601350306597e-05
314 311 2.4807294167394355e-09
315 311 -6.960440502603736e-05
316 311 253679723.08454093
317 311 -403963231.278669
318 311 2.7121707729448569e-05
319 311 -4.3178055379713355e-06
320 311 1.2456185046085789e-05
321 311 6.9056032825260635e-10
322 311 -1.7102482868570778e-05
323 311 -1.0996581757805962e-09
324 311 1.0441139537083504e-22
289 312 1.7829875228736997e-31
290 312 3.0842806751741091e-23
291 312 3.2634951862526618e-25
292 312 6.9824366985105866e-10
293 312 -3.018938076682462e-23
294 312 6.9819396294949022e-10
295 312 6.9814424293513666e-10
296 312 2.4492237406223251e-26
297 312 3.577839078658336e-19
298 312 -1.7342470959632198e-19
299 312 1.6933130352856603e-05
300 312 -8.5282779461518822e-19
301 312 8.8464819336306909e-06
302 312 7.5961019552457611e-07
303 312 3.3369297695581984e-19
304 312 -2.641154202870291e-21
305 312 -3.8678989292521029e-06
306 312 1.659502307429601e-19
307 312 -3.9535593248805144e-06
308 312 -4.0392220180253105e-06
309 312 3.4046530284154998e-21
310 312 358757303.91546768
311 312 -2.4668697670256106e-05
312 312 324290464.32429338
313 312 141216426.17774305
314 312 7.5582698183369214e-06
315 312 8.3772032019294476e-19
316 312 -1.6753560628431232e-05
317 312 -8.8382049143840475e-06
318 312 -3.2687581009197005e-19
319 312 99864842.855896086
320 312 -41835088.335995078
321 312 7.5520255139015196e-06
322 312 -159022413.49366403
323 312 7.5457809101430573e-06
324 312 3.536970110449609e-22
289 313 -9.7607418060889395e-27
290 313 -5.1554741665952538e-23
291 313 7.948240685501843e-23
292 313 -3.6195173279697082e-09
293 313 2.1052167351459174e-22
294 313 9.7248455547588286e-14
295 313 3.6198117518936992e-09
296 313 -1.4923370222238711e-22
297 313 5.8706390995413332e-20
298 313 2.9981274149015227e-19
299 313 -7.2814297568205812e-06
300 313 5.166165165703811e-19
301 313 6.23880055892589e-06
302 313 1.9759404181293714e-05
303 313 -5.5722171533332261e-19
304 313 -3.2359293962784197e-19
305 313 2.0908234573943678e-05
306 313 -1.2150839158199234e-18
307 313 6.6437623394685707e-08
308 313 -2.0775934707883301e-05
309 313 8.5929218921838122e-19
310 313 -571290278.83012319
311 313 4.9098601350306597e-05
312 313 141216426.17774305
313 313 1090385516.9859066
314 313 -3.9127707110257534e-05
315 313 -2.0837185377884902e-18
316 313 -6.105778222018528e-06
317 313 -6.1311681943790591e-05
318 313 2.2758289982053865e-18
319 313 99862459.490724012
320 313 141237264.46474636
321 313 4.2373082134176992e-09
322 313 -571297865.88306332
323 313 3.9137262045687661e-05
324 313 -1.140830140298946e-18
289 314 9.9225662252435557e-39
290 314 -6.8263910062186964e-27
291 314 1.1554420978451768e-31
292 314 2.6239189791838362e-21
293 314 6.8276641290890586e-27
294 314 7.0966376422027313e-22
295 314 -1.204643033049991e-21
296 314 2.0945436114560362e-09
297 314 -7.9190418333559929e-23
298 314 3.8979884606703378e-23
299 314 -2.4802668183767371e-09
300 314 1.899608088984006e-22
301 314 -6.9043155489490346e-10
302 314 1.0994531149184155e-09
303 314 1.7181294526375701e-05
304 314 -9.3336726578638441e-28
305 314 4.1995386033553109e-14
306 314 -3.8988474627442446e-23
307 314 1.1690368719112334e-14
308 314 -1.8615485137452278e-14
309 314 -1.1959918737163985e-05
310 314 3.8355886802027246e-05
311 314 2.4807294167394355e-09
312 314 7.5582698183369214e-06
313 314 -3.9127707110257534e-05
314 314 761021009.76746702
315 314 -1.8947529672803175e-22
316 314 6.9056032857857724e-10
317 314 -1.0996581751286346e-09
318 314 -4.1101232747048832e-05
319 314 3.3082627285708584e-09
320 314 -7.5489938572932565e-06
321 314 211845320.45457518
322 314 1.6992050590603117e-05
323 314 -337345528.21778274
324 314 3.2030605576428755e-05
289 315 3.2437326247104826e-18
290 315 -3.4083768395543928e-05
291 315 2.1403830732686961e-05
292 315 -4.152670628058001e-18
293 315 7.688989823220578e-05
294 315 -9.2540450769733996e-19
295 315 2.3018213610932278e-18
296 315 2.093076763961352e-22
297 315 179068900.31430477
298 315 -159030002.81827629
299 315 3.0854253611476444e-05
300 315 -571290293.09183049
301 315 6.8757356243902015e-06
302 315 -1.710248329439442e-05
303 315 -1.5551515419308128e-09
304 315 70616789.827799737
305 315 -1.9375768958979811e-05
306 315 358757300.26857328
307 315 -4.3178054656184673e-06
308 315 1.0739970219656894e-05
309 315 9.765997697460015e-10
310 315 2.6581527117505242e-18
311 315 -6.960440502603736e-05
312 315 8.3772032019294476e-19
313 315 -2.0837185377884902e-18
314 315 -1.8947529672803175e-22
315 315 911304526.93933713
316 315 -1.5511037639715889e-05
317 315 3.8581655094444723e-05
318 315 3.5082811972854147e-09
319 315 1.3200433090611574e-19
320 315 -4.6434757358932772e-19
321 315 -4.2223742279607606e-23
322 315 8.1671058675964423e-19
323 315 1.0502597564829213e-22
324 315 6.7529769661978691e-27
289 316 3.8649715821622956e-27
290 316 -2.0305073548456874e-14
291 316 1.2751550928751524e-14
292 316 1.5134794049212692e-05
293 316 4.5807262938765319e-14
294 316 1.5134433116686495e-05
295 316 1.5134071919695064e-05
296 316 5.0136443996295926e-22
297 316 -7.0248958184357893e-06
298 316 3.0667061141993096e-06
299 316 -112451194.85198686
300 316 1.6067774867688772e-05
301 316 -112448513.13106619
302 316 -112445829.4451745
303 316 -3.7251270240470844e-09
304 316 4.6782604762881397e-08
305 316 70616790.736525461
306 316 -2.9343137678993623e-06
307 316 70615106.676828995
308 316 70613421.383175477
309 316 2.3392949792161607e-09
310 316 -1.9375769208315123e-05
311 316 253679723.08454093
312 316 -1.6753560628431232e-05
313 316 -6.105778222018528e-06
314 316 6.9056032857857724e-10
315 316 -1.5511037639715889e-05
316 316 253673673.36473635
317 316 253667619.21213484
318 316 8.4035519273115564e-09
319 316 -4.3177025675275116e-06
320 316 4.541120841581927e-06
321 316 6.9054386018939541e-10
322 316 1.073945789114138e-05
323 316 6.9052737973337209e-10
324 316 3.235145041582941e-26
289 317 -2.1158302689945144e-22
290 317 1.1116124108139728e-09
291 317 -6.9806729036957827e-10
292 317 -2.4100863224372177e-05
293 317 -2.5076970388170796e-09
294 317 1.5134071919695061e-05
295 317 5.4370090353251197e-05
296 317 -1.6171237194628492e-18
297 317 -1.1526686124010503e-06
298 317 -5.9421880035013218e-06
299 317 179068896.32805687
300 317 -1.0254580720811171e-05
301 317 -112445829.44517447
302 317 -403968604.03605086
303 317 1.2015194466350259e-05
304 317 5.731782181523665e-06
305 317 -112451190.90164599
306 317 2.2154006824434882e-05
307 317 70613421.383175462
308 317 253683088.14226961
309 317 -7.5452686332565329e-06
310 317 3.0854252924630749e-05
311 317 -403963231.278669
312 317 -8.8382049143840475e-06
313 317 -6.1311681943790591e-05
314 317 -1.0996581751286346e-09
315 317 3.8581655094444723e-05
316 317 253667619.21213484
317 317 911316627.10743797
318 317 -2.71051918022165e-05
319 317 -4.3175995216343966e-06
320 317 -3.3741620281553405e-06
321 317 6.9052738005934391e-10
322 317 3.858216737601301e-05
323 317 2.4807623628604838e-09
324 317 -1.0434781342292285e-22
289 318 2.1509088532980355e-34
290 318 -1.2780172341313668e-21
291 318 7.0964313166618923e-22
292 318 1.6181090698027435e-18
293 318 2.6972753046753934e-21
294 318 5.0136457953847431e-22
295 318 -1.6171237125414308e-18
296 318 4.5403298856683079e-05
297 318 1.5548615417891186e-09
298 318 -6.9045016192186432e-10
299 318 -1.2022515648940789e-05
300 318 -3.5799250267653434e-09
301 318 -3.7251280620168897e-09
302 318 1.2015194465644181e-05
303 318 -337345535.72742242
304 318 1.6532677965732596e-14
305 318 7.5498661692775582e-06
306 318 6.9060231550499733e-10
307 318 2.3392956310375708e-09
308 318 -7.5452686328131314e-06
309 318 211845317.72846302
310 318 -2.071525241006524e-18
311 318 2.7121707729448569e-05
312 318 -3.2687581009197005e-19
313 318 2.2758289982053865e-18
314 318 -4.1101232747048832e-05
315 318 3.5082811972854147e-09
316 318 8.4035519273115564e-09
317 318 -2.71051918022165e-05
318 318 761021011.82454967
319 318 -1.4303426580080601e-22
320 318 3.2647474924295513e-19
321 318 -9.1592301944067405e-06
322 318 -1.1475452283284397e-18
323 318 2.2782373977766804e-05
324 318 2.9297294456443699e-09
289 319 2.3025950439203353e-36
290 319 7.9659685486698583e-28
291 319 8.4477138791766362e-30
292 319 1.8033406470210244e-14
293 319 -7.7968265098107967e-28
294 319 1.8032976411966172e-14
295 319 1.8032546038606539e-14
296 319 5.9738564686864559e-31
297 319 1.3779377986143364e-19
298 319 2.0665466814450118e-21
299 319 4.4114747290416318e-06
300 319 -1.907321457627589e-19
301 319 4.4113695247875778e-06
302 319 4.41126424344746e-06
303 319 1.4613720868581376e-22
304 319 1.5496400457574898e-23
305 319 4.678260536489908e-08
306 319 -2.0226675326683822e-21
307 319 4.6781489699639183e-08
308 319 4.6780373216900517e-08
309 319 1.549749184341708e-24
310 319 70616791.645251185
311 319 -4.3178055379713355e-06
312 319 99864842.855896086
313 319 99862459.490724012
314 319 3.3082627285708584e-09
315 319 1.3200433090611574e-19
316 319 -4.3177025675275116e-06
317 319 -4.3175995216343966e-06
318 319 -1.4303426580080601e-22
319 319 70613423.565976173
320 319 99860077.984265506
321 319 3.3081847553604318e-09
322 319 70610053.099227116
323 319 3.3081058025267489e-09
324 319 7.7492959715894408e-26
289 320 -1.782654107494908e-31
290 320 -3.0835912783737286e-23
291 320 -3.2627639470025728e-25
292 320 -6.980876059628921e-10
293 320 3.0182633209165885e-23
294 320 -6.9803790187087591e-10
295 320 -6.9798818466813314e-10
296 320 -2.4487082144606634e-26
297 320 3.1974899698278077e-20
298 320 1.7927376445932508e-19
299 320 -4.4555123561324695e-06
300 320 3.1333670501580606e-19
301 320 3.631061657514376e-06
302 320 1.1717858935527756e-05
303 320 -3.3328320882573528e-19
304 320 2.6850421516509245e-21
305 320 4.0003045605700778e-06
306 320 -1.7167501387312016e-19
307 320 4.0859641651529088e-06
308 320 4.171626066672558e-06
309 320 -3.4003047700753314e-21
310 320 -159030001.3245768
311 320 1.2456185046085789e-05
312 320 -41835088.335995078
313 320 141237264.46474636
314 320 -7.5489938572932565e-06
315 320 -4.6434757358932772e-19
316 320 4.541120841581927e-06
317 320 -3.3741620281553405e-06
318 320 3.2647474924295513e-19
319 320 99860077.984265506
320 320 324287094.70586258
321 320 -7.5427496073123721e-06
322 320 358744950.72438681
323 320 -7.536505057453314e-06
324 320 -3.5348162512033952e-22
289 321 1.8122089273262243e-43
290 321 -1.2464251783172347e-31
291 321 2.4434043536484542e-36
292 321 7.0964199859284466e-22
293 321 1.2466643658646872e-31
294 321 7.0962371229293744e-22
295 321 7.0960541357814067e-22
296 321 3.8253719301949733e-14
297 321 -4.3131687033496753e-23
298 321 -3.2291490392950736e-25
299 321 -6.9043155456158969e-10
300 321 6.0355523660021609e-23
301 321 -6.9041508957643537e-10
302 321 -6.9039861252669052e-10
303 321 9.3579278142026968e-06
304 321 7.7447006553661732e-30
305 321 1.1690372387899414e-14
306 321 3.22986192541641e-25
307 321 1.169009006193635e-14
308 321 1.1689807531657929e-14
309 321 9.9238524723491829e-08
310 321 1.0677123268091714e-05
311 321 6.9056032825260635e-10
312 321 7.5520255139015196e-06
313 321 4.2373082134176992e-09
314 321 211845320.45457518
315 321 -4.2223742279607606e-23
316 321 6.9054386018939541e-10
317 321 6.9052738005934391e-10
318 321 -9.1592301944067405e-06
319 321 3.3081847553604318e-09
320 321 -7.5427496073123721e-06
321 321 211840268.39595941
322 321 -1.0670112240678196e-05
323 321 211835212.6355606
324 321 9.9245541582358094e-09
289 322 6.9005960804074694e-27
290 322 -7.1554621306395795e-24
291 322 -5.6660316493863156e-23
292 322 1.5720573123247099e-09
293 322 -1.0616769634706113e-22
294 322 -9.8716914017192629e-10
295 322 -3.5464662537542888e-09
296 322 1.0548216193405897e-22
297 322 3.7098706913442322e-21
298 322 4.1544647529885251e-20
299 322 -1.1526685867415259e-06
300 322 7.7844597360769426e-20
301 322 7.2381512350472859e-07
302 322 2.6003506440846032e-06
303 322 -7.7341947758364452e-20
304 322 2.3261696727184556e-19
305 322 -9.1273723129146266e-06
306 322 6.1641015538493202e-19
307 322 5.731508773585922e-06
308 322 2.0590800118689895e-05
309 322 -6.1242993928738204e-19
310 322 179068892.34180909
311 322 -1.7102482868570778e-05
312 322 -159022413.49366403
313 322 -571297865.88306332
314 322 1.6992050590603117e-05
315 322 8.1671058675964423e-19
316 322 1.073945789114138e-05
317 322 3.858216737601301e-05
318 322 -1.1475452283284397e-18
319 322 70610053.099227116
320 322 358744950.72438681
321 322 -1.0670112240678196e-05
322 322 911328727.436203
323 322 -3.833303883113848e-05
324 322 8.0619749042885075e-19
289 323 -9.9207107236575182e-39
290 323 6.825114546375792e-27
291 323 -1.1552193000669856e-31
292 323 -1.2046745307525791e-21
293 323 -6.8263874298266018e-27
294 323 7.0958365144558583e-22
295 323 2.6238934282007918e-21
296 323 -2.0941519356632163e-09
297 323 -7.0771927624810375e-24
298 323 -3.9626563104462662e-23
299 323 1.0994531155850821e-09
300 323 -6.9245466577313214e-23
301 323 -6.9039861219337334e-10
302 323 -2.4802997583678638e-09
303 323 1.5354803754154508e-06
304 323 9.4887699055362284e-28
305 323 -1.8615477795173153e-14
306 323 3.9635295889470292e-23
307 323 1.1689811200485859e-14
308 323 4.1995936942469179e-14
309 323 1.2158656205951972e-05
310 323 -1.700240430608477e-05
311 323 -1.0996581757805962e-09
312 323 7.5457809101430573e-06
313 323 3.9137262045687661e-05
314 323 -337345528.21778274
315 323 1.0502597564829213e-22
316 323 6.9052737973337209e-10
317 323 2.4807623628604838e-09
318 323 2.2782373977766804e-05
319 323 3.3081058025267489e-09
320 323 -7.536505057453314e-06
321 323 211835212.6355606
322 323 -3.833303883113848e-05
323 323 761031116.55013716
324 323 -3.2011100346294407e-05
289 324 7.1313043189075979e-51
290 324 -9.812193936642541e-39
291 324 1.6613980856666718e-43
292 324 1.0729630109852876e-34
293 324 9.8140240273325611e-39
294 324 3.3245326838726984e-38
295 324 -1.0723096236990258e-34
296 324 3.010678399810855e-21
297 324 6.7504586499705751e-27
298 324 -1.6164261269036299e-31
299 324 -1.043919250371505e-22
300 324 -9.5483707274615671e-27
301 324 -3.2345417611339654e-26
302 324 1.0432835494581526e-22
303 324 -2.9291831182084664e-09
304 324 1.9353006656429624e-36
305 324 1.7675613174348415e-27
306 324 1.6167276095715278e-31
307 324 5.4767175665870105e-31
308 324 -1.7664849503274242e-27
309 324 4.9596851189264938e-14
310 324 8.0718026567050756e-19
311 324 1.0441139537083504e-22
312 324 3.536970110449609e-22
313 324 -1.140830140298946e-18
314 324 3.2030605576428755e-05
315 324 6.7529769661978691e-27
316 324 3.235145041582941e-26
317 324 -1.0434781342292285e-22
318 324 2.9297294456443699e-09
319 324 7.7492959715894408e-26
320 324 -3.5348162512033952e-22
321 324 9.9245541582358094e-09
322 324 8.0619749042885075e-19
323 324 -3.2011100346294407e-05
324 324 635520798.28197098
325 325 651768984.69388711
326 325 6.7888258625070171e-06
327 325 1.7072613314867673e-06
328 325 -1.4461809365613808e-10
329 325 -3.3747739250426549e-06
330 325 -1.9014110788280048e-12
331 325 1.4124928690584028e-10
332 325 -2.1872873252261694e-19
333 325 3.5356205706144581e-20
334 325 1.2574362748897291e-20
335 325 -1.0651447064068744e-24
336 325 -2.4855967124875498e-20
337 325 -1.4004319197655762e-26
338 325 1.0403326888627948e-24
339 325 -1.610986189179809e-33
340 325 2.2360232861946632e-21
341 325 -2.6786375236538222e-25
342 325 -6.2508057193464936e-21
343 325 -3.5218214642975401e-27
344 325 2.6162399913454368e-25
345 325 -4.0513256372291739e-34
346 325 1.6044329742507059e-29
347 325 5.2949105697810464e-25
348 325 2.9832521651529398e-31
349 325 -2.2161553894378757e-29
350 325 3.4317827015158582e-38
351 325 8.7370673602218596e-21
352 325 6.9616473044677515e-27
353 325 -5.1715682547307991e-25
354 325 8.008327647455891e-34
355 325 2.7735011757178701e-33
356 325 -2.9137587858825432e-31
357 325 4.5120423619382982e-40
358 325 1.5305546535617086e-29
359 325 -3.3518410259056768e-38
360 325 3.6701852615325296e-47
325 326 6.7888258625070171e-06
326 326 432115594.1718803
327 326 217256288.11405078
328 326 -1.2703150099155268e-06
329 326 2397110.8544273917
330 326 -1.1017458135573505e-06
331 326 -9.335830595764253e-07
332 326 6.7720968937197446e-11
333 326 4.5009161070842235e-06
334 326 2.4005121416840774e-06
335 326 -6.7797531866811964e-11
336 326 -1.5644520477187473e-06
337 326 -8.9138901022298477e-13
338 326 6.6218221978621491e-11
339 326 -1.0254039244889521e-19
340 326 5.6908700541139115e-07
341 326 -3.4086805276929742e-11
342 326 -7.9100173172204197e-07
343 326 -4.4816680850570853e-13
344 326 3.3292770053588578e-11
345 326 -5.1554721715446615e-20
346 326 2.8186449400172669e-25
347 326 -3.7609889506666494e-13
348 326 1.7548080362117932e-25
349 326 -4.8189360383507236e-26
350 326 -1.0624898410581201e-29
351 326 -1.2411924158615388e-08
352 326 -4.9448724790551519e-15
353 326 3.6733786584015098e-13
354 326 -5.6908158035540036e-22
355 326 3.2141322234506246e-27
356 326 -1.6690780002997053e-25
357 326 -1.3943665476961374e-31
358 326 -2.0232313063266794e-25
359 326 1.0377912635135149e-29
360 326 -2.2726644023715903e-38
325 327 1.7072613314867673e-06
326 327 217256288.11405078
327 327 217256330.99129254
328 327 -2.2809572089992557e-07
329 327 217256371.71826965
330 327 -2.3407269970732217e-07
331 327 -2.3999836346264232e-07
332 327 -1.6115794791986595e-12
333 327 2.2629415363077756e-06
334 327 2.0025469021639771e-06
335 327 -3.4086805276256824e-11
336 327 8.0470022594085971e-07
337 327 -4.4816680818903674e-13
338 327 3.3292770053550133e-11
339 327 -5.1554859018862133e-20
340 327 5.6908711772519948e-07
341 327 -3.4086812002299158e-11
342 327 -3.9303641709709348e-07
343 327 -4.4816689534784523e-13
344 327 3.3292776625463963e-11
345 327 -5.1554860308964477e-20
346 327 5.0611135390498039e-26
347 327 -3.4086818390971848e-11
348 327 3.7195772495108845e-26
349 327 2.701137445269149e-27
350 327 2.5290570785749121e-31
351 327 -1.1249248668507061e-06
352 327 -4.4816697807086397e-13
353 327 3.3292782867867241e-11
354 327 -5.1554861087986684e-20
355 327 6.8286223328610203e-28
356 327 -3.5374668941406786e-26
357 327 3.3799896757270335e-33
358 327 -5.2011676673428005e-26
359 327 -2.4690457714036662e-31
360 327 5.4083386157157836e-40
325 328 -1.4461809365613808e-10
326 328 -1.2703150099155268e-06
327 328 -2.2809572089992557e-07
328 328 432115502.96198899
329 328 8.1457557748783129e-07
330 328 217256369.12104276
331 328 2397108.6321420716
332 328 -2.1610147105266905e-06
333 328 -1.3231601247707111e-20
334 328 -4.032872207624639e-21
335 328 3.1826276290896978e-06
336 328 1.0650543485318276e-20
337 328 1.6001419023866022e-06
338 328 1.7655242892907417e-08
339 328 -1.5916358189991596e-20
340 328 -5.9748010662331117e-22
341 328 8.0037066699184815e-07
342 328 2.343896991208348e-21
343 328 4.0240543065387773e-07
344 328 4.4399597367101043e-09
345 328 -4.0026631152725971e-21
346 328 -9.588016881008274e-11
347 328 -1.5821069730319857e-06
348 328 -3.4978206798266718e-11
349 328 6.5842109457270611e-11
350 328 -1.0254053052876522e-19
351 328 -4.2177650109779431e-21
352 328 -7.9544199216626654e-07
353 328 -8.7765476036640655e-09
354 328 7.9121355723486754e-21
355 328 -6.3380381223066725e-13
356 328 3.3287837597055858e-11
357 328 -5.1554861914304845e-20
358 328 5.1949370540380267e-13
359 328 -5.6916426387200776e-22
360 328 7.2522016189253345e-34
325 329 -3.3747739250426549e-06
326 329 2397110.8544273917
327 329 217256371.71826965
328 329 8.1457557748783129e-07
329 329 432115505.93415576
330 329 6.3380883909304536e-07
331 329 4.5355120072465828e-07
332 329 -7.063070197091899e-11
333 329 2.4968307093465296e-08
334 329 1.6045818853686208e-06
335 329 -3.7609889371814658e-13
336 329 3.1738510952402431e-06
337 329 -4.944871844739152e-15
338 329 3.6733786576252616e-13
339 329 -5.6935384414962537e-22
340 329 5.6908722440654639e-07
341 329 -3.4086818390298206e-11
342 329 4.9286708214309245e-09
343 329 -4.4816697775392566e-13
344 329 3.3292782867828609e-11
345 329 -5.1554997811693131e-20
346 329 -1.8074251978062368e-25
347 329 -6.7797518016226133e-11
348 329 -1.0112289227563325e-25
349 329 5.3666415681706814e-26
350 329 1.1081534210441919e-29
351 329 -2.2374371537763671e-06
352 329 -8.9138882240789054e-13
353 329 6.6218208462118891e-11
354 329 -1.0254061168964694e-19
355 329 -1.8490157967192015e-27
356 329 9.6190474057924209e-26
357 329 1.4555003446560461e-31
358 329 9.829216360722367e-26
359 329 -1.0823691791566756e-29
360 329 2.3703128381504138e-38
325 330 -1.9014110788280048e-12
326 330 -1.1017458135573505e-06
327 330 -2.3407269970732217e-07
328 330 217256369.12104276
329 330 6.3380883909304536e-07
330 330 217256329.213707
331 330 217256287.15611601
332 330 -2.1535210100884768e-06
333 330 -1.1475784519261929e-20
334 330 -3.764667663921003e-21
335 330 1.600141902386602e-06
336 330 8.7019725274491271e-21
337 330 1.6001416084601209e-06
338 330 1.6001412986965273e-06
339 330 -1.5861165404971658e-20
340 330 -6.1313636431855792e-22
341 330 4.0240543065387768e-07
342 330 2.0309617267132633e-21
343 330 4.0240535673692566e-07
344 330 4.0240527883723933e-07
345 330 -3.9887831735050402e-21
346 330 -4.8206040291555061e-11
347 330 -7.9544199216626633e-07
348 330 -3.4534978696549478e-11
349 330 -7.9402265529550547e-13
350 330 -5.155452849170569e-20
351 330 -3.2817786408426e-21
352 330 -7.9544184605330887e-07
353 330 -7.9544169206760951e-07
354 330 7.8846988438910638e-21
355 330 -6.3380369580866483e-13
356 330 3.2844609549018912e-11
357 330 -5.1554852459765302e-20
358 330 4.7083086733598702e-11
359 330 -5.1555176931587821e-20
360 330 7.2270533280853756e-34
325 331 1.4124928690584028e-10
326 331 -9.335830595764253e-07
327 331 -2.3999836346264232e-07
328 331 2397108.6321420716
329 331 4.5355120072465828e-07
330 331 217256287.15611601
331 331 432115594.47831327
332 331 -2.1462234165166843e-06
333 331 -9.724201294691334e-21
334 331 -3.4968379918727256e-21
335 331 1.7655242892907096e-08
336 331 6.7586393893214923e-21
337 331 1.6001412986965269e-06
338 331 3.1826283031279593e-06
339 331 -1.5807416991021601e-20
340 331 -6.2865820597644778e-22
341 331 4.4399597367100232e-09
342 331 1.7187815632659043e-21
343 331 4.0240527883723922e-07
344 331 8.0037083649972527e-07
345 331 -3.9752664637493023e-21
346 331 -5.3188367168141525e-13
347 331 -8.7765476036639067e-09
348 331 -3.4091749996208641e-11
349 331 -6.7430194383659411e-11
350 331 -5.684963703588665e-22
351 331 -2.3484283755979705e-21
352 331 -7.954416920676093e-07
353 331 -1.5821073081012296e-06
354 331 7.8579801226299004e-21
355 331 -6.3380357311370491e-13
356 331 3.2401380905781506e-11
357 331 -5.1554842494566342e-20
358 331 9.3646707674532056e-11
359 331 -1.025412201931323e-19
360 331 7.2025631570292441e-34
325 332 -2.1872873252261694e-19
326 332 6.7720968937197446e-11
327 332 -1.6115794791986595e-12
328 332 -2.1610147105266905e-06
329 332 -7.063070197091899e-11
330 332 -2.1535210100884768e-06
331 332 -2.1462234165166843e-06
332 332 651768984.69172978
333 332 7.0538162487722317e-25
334 332 1.1356412672405617e-25
335 332 -1.5916358212818506e-20
336 332 -7.6815813940268194e-25
337 332 -1.586116542914983e-20
338 332 -1.5807417016519141e-20
339 332 4.800424803657434e-06
340 332 -4.2214149173630772e-27
341 332 -4.0026631180882232e-21
342 332 -1.249227360696449e-25
343 332 -3.988783179546927e-21
344 332 -3.9752664730182073e-21
345 332 1.2072160647478713e-06
346 332 4.794978518126317e-25
347 332 7.912135589496003e-21
348 332 3.4233829153928006e-25
349 332 5.5774401386233756e-27
350 332 -1.0226043470618797e-10
351 332 3.6571646844549181e-25
352 332 7.8846988559864816e-21
353 332 7.857980129640147e-21
354 332 -2.3863255273613035e-06
355 332 6.2824847598416717e-27
356 332 -3.2558235448160554e-25
357 332 -1.3445006676580608e-12
358 332 -4.6512266605319364e-25
359 332 9.9878328608553261e-11
360 332 -2.1872873252189293e-19
325 333 3.5356205706144581e-20
326 333 4.5009161070842235e-06
327 333 2.2629415363077756e-06
328 333 -1.3231601247707111e-20
329 333 2.4968307093465296e-08
330 333 -1.1475784519261929e-20
331 333 -9.724201294691334e-21
332 333 7.0538162487722317e-25
333 333 286487837.11948913
334 333 203701206.98268232
335 333 -1.1910573590954931e-06
336 333 2247550.0182614452
337 333 -1.0330055528332256e-06
338 333 -8.7533483014526429e-07
339 333 6.3495713888392134e-11
340 333 72418749.332271069
341 333 -5.9883212792612948e-07
342 333 1130008.6849536893
343 333 -5.1936786137016954e-07
344 333 -4.4009519355290738e-07
345 333 3.192396501445573e-11
346 333 2.4758775920805485e-21
347 333 -6.6072517683723631e-09
348 333 3.0367857045403683e-21
349 333 2.5732720328373357e-21
350 333 -1.866619939331391e-25
351 333 8816.2225932128076
352 333 -5.7304778091284004e-09
353 333 -4.8558178665613053e-09
354 333 3.5223506632102387e-13
355 333 1.8623835533709043e-21
356 333 2.2318020862488859e-21
357 333 -1.6189218324656266e-25
358 333 1.3372488559538135e-21
359 333 -1.3718209581285221e-25
360 333 7.0364342911266405e-30
325 334 1.2574362748897291e-20
326 334 2.4005121416840774e-06
327 334 2.0025469021639771e-06
328 334 -4.032872207624639e-21
329 334 1.6045818853686208e-06
330 334 -3.764667663921003e-21
331 334 -3.4968379918727256e-21
332 334 1.1356412672405617e-25
333 334 203701206.98268232
334 334 216457282.55274504
335 334 -5.7466318672782116e-07
336 334 144837597.02593768
337 334 -5.2243613551515503e-07
338 334 -4.703105437605927e-07
339 334 2.1505192857798117e-11
340 334 102415597.68831715
341 334 -4.9947023494486373e-07
342 334 73217814.161965549
343 334 -4.4527282801288555e-07
344 334 -3.9119379686084531e-07
345 334 2.2036463538633977e-11
346 334 6.2870928663589329e-22
347 334 -4.2427732404572688e-07
348 334 8.4178532935129036e-22
349 334 7.9448368458189411e-22
350 334 -2.0558894243743367e-26
351 334 1130009.1198018324
352 334 -3.6810956313169725e-07
353 334 -3.1207709430795828e-07
354 334 2.2567733677580675e-11
355 334 5.5956878628210088e-22
356 334 7.4097342878087193e-22
357 334 -2.1596730455215646e-26
358 334 4.861637245915996e-22
359 334 -2.2628229882736367e-26
360 334 -2.3680790718906453e-31
325 335 -1.0651447064068744e-24
326 335 -6.7797531866811964e-11
327 335 -3.4086805276256824e-11
328 335 3.1826276290896978e-06
329 335 -3.7609889371814658e-13
330 335 1.600141902386602e-06
331 335 1.7655242892907096e-08
332 335 -1.5916358212818506e-20
333 335 -1.1910573590954931e-06
334 335 -5.7466318672782116e-07
335 335 286487776.64834476
336 335 5.3538252354551718e-07
337 335 144038558.50007465
338 335 1589256.3856181439
339 335 -1.4327287391436577e-06
340 335 -1.0752533368055239e-07
341 335 144038474.39004767
342 335 2.7068623971144818e-07
343 335 72418776.334596753
344 335 799036.0631688101
345 335 -7.2033810382891031e-07
346 335 -1.1910571076900503e-06
347 335 1589257.5235119967
348 335 -1.1538834935648672e-06
349 335 -6.2362709175608889e-07
350 335 4.4898240393963217e-11
351 335 4.2368277811558809e-09
352 335 799037.10186229728
353 335 8816.214419972921
354 335 -7.9478955593656417e-09
355 335 -5.1936805502361232e-07
356 335 -3.1524646772367357e-07
357 335 2.2573660564633059e-11
358 335 -4.8558133648868231e-09
359 335 2.490675761598423e-13
360 335 -3.1754274462409234e-25
325 336 -2.4855967124875498e-20
326 336 -1.5644520477187473e-06
327 336 8.0470022594085971e-07
328 336 1.0650543485318276e-20
329 336 3.1738510952402431e-06
330 336 8.7019725274491271e-21
331 336 6.7586393893214923e-21
332 336 -7.6815813940268194e-25
333 336 2247550.0182614452
334 336 144837597.02593768
335 336 5.3538252354551718e-07
336 336 286496594.84145147
337 336 4.1615615749953712e-07
338 336 2.9726582432252765e-07
339 336 -4.6578302730203054e-11
340 336 102415616.88719474
341 336 -1.5191327568830777e-07
342 336 144837512.49218428
343 336 -1.5597910400995778e-07
344 336 -1.6001070982395182e-07
345 336 -9.6990214538571287e-13
346 336 -2.2452470152918954e-21
347 336 -8.3920867372916795e-07
348 336 -2.612263186950518e-21
349 336 -2.0507678314005407e-21
350 336 2.222982258095183e-25
351 336 2247549.5593131869
352 336 -7.2811402618557499e-07
353 336 -6.1728697293426428e-07
354 336 4.4638471322722451e-11
355 336 -1.5151687628229142e-21
356 336 -1.6745370790111572e-21
357 336 1.8524850329618729e-25
358 336 -9.1875685257168309e-22
359 336 1.4829572423907162e-25
360 336 -1.0378581343902837e-29
325 337 -1.4004319197655762e-26
326 337 -8.9138901022298477e-13
327 337 -4.4816680818903674e-13
328 337 1.6001419023866022e-06
329 337 -4.944871844739152e-15
330 337 1.6001416084601209e-06
331 337 1.6001412986965269e-06
332 337 -1.586116542914983e-20
333 337 -1.0330055528332256e-06
334 337 -5.2243613551515503e-07
335 337 144038558.50007465
336 337 4.1615615749953712e-07
337 337 144038532.04195452
338 337 144038504.15823907
339 337 -1.4277604990256874e-06
340 337 -1.1034290754486762e-07
341 337 72418776.334596738
342 337 2.1040868784720221e-07
343 337 72418763.032153949
344 337 72418749.012959555
345 337 -7.1784020414408621e-07
346 337 -5.9883235120891583e-07
347 337 799037.10186229716
348 337 -7.9068701219211873e-07
349 337 -7.3463266834383169e-07
350 337 2.257366056517736e-11
351 337 3.2966110916411664e-09
352 337 799036.95508896199
353 337 799036.80040730303
354 337 -7.9203348268329234e-09
355 337 -5.193679596220578e-07
356 337 -6.7844288968524667e-07
357 337 2.2573656418115249e-11
358 337 -4.4009519161242282e-07
359 337 2.2573652047635801e-11
360 337 -3.1644160903581992e-25
325 338 1.0403326888627948e-24
326 338 6.6218221978621491e-11
327 338 3.3292770053550133e-11
328 338 1.7655242892907417e-08
329 338 3.6733786576252616e-13
330 338 1.6001412986965273e-06
331 338 3.1826283031279593e-06
332 338 -1.5807417016519141e-20
333 338 -8.7533483014526429e-07
334 338 -4.703105437605927e-07
335 338 1589256.3856181439
336 338 2.9726582432252765e-07
337 338 144038504.15823907
338 338 286487837.32265079
339 338 -1.4229222755809477e-06
340 338 -1.1313629126609928e-07
341 338 799036.06316879555
342 338 1.5030102803940367e-07
343 338 72418749.01295954
344 338 144038504.89548346
345 338 -7.1540767340266522e-07
346 338 -6.6072456429990309e-09
347 338 8816.2144199727609
348 338 -4.2749031254363378e-07
349 338 -8.4563831455429769e-07
350 338 2.4906757724748247e-13
351 338 2.3590424212564768e-09
352 338 799036.80040730292
353 338 1589257.8600956323
354 338 -7.8934953466291197e-09
355 338 -5.1936785908015276e-07
356 338 -1.0416395262864614e-06
357 338 2.257365204817909e-11
358 338 -8.7533483076600444e-07
359 338 4.4898249901676549e-11
360 338 -3.1536928968479916e-25
325 339 -1.610986189179809e-33
326 339 -1.0254039244889521e-19
327 339 -5.1554859018862133e-20
328 339 -1.5916358189991596e-20
329 339 -5.6935384414962537e-22
330 339 -1.5861165404971658e-20
331 339 -1.5807416991021601e-20
332 339 4.800424803657434e-06
333 339 6.3495713888392134e-11
334 339 2.1505192857798117e-11
335 339 -1.4327287391436577e-06
336 339 -4.6578302730203054e-11
337 339 -1.4277604990256874e-06
338 339 -1.4229222755809477e-06
339 339 432115594.17044991
340 339 -7.5970570829347957e-13
341 339 -7.2033810438111819e-07
342 339 -2.3549490130015397e-11
343 339 -7.1784020523200092e-07
344 339 -7.1540767502628635e-07
345 339 217256288.11333162
346 339 5.9564906029190026e-21
347 339 -7.9478955654584622e-09
348 339 7.8502339015359715e-21
349 339 7.2784478320008636e-21
350 339 -1.270315009911322e-06
351 339 -3.6736937442060372e-13
352 339 -7.920334838836497e-09
353 339 -7.8934953645434464e-09
354 339 2397110.8544194573
355 339 5.1481575646423279e-21
356 339 6.7126290276527624e-21
357 339 -1.1017458135537036e-06
358 339 4.3475961972962071e-21
359 339 -9.3358305957333501e-07
360 339 9.5771912727714717e-11
325 340 2.2360232861946632e-21
326 340 5.6908700541139115e-07
327 340 5.6908711772519948e-07
328 340 -5.9748010662331117e-22
329 340 5.6908722440654639e-07
330 340 -6.1313636431855792e-22
331 340 -6.2865820597644778e-22
332 340 -4.2214149173630772e-27
333 340 72418749.332271069
334 340 102415597.68831715
335 340 -1.0752533368055239e-07
336 340 102415616.88719474
337 340 -1.1034290754486762e-07
338 340 -1.1313629126609928e-07
339 340 -7.5970570829347957e-13
340 340 72418777.917096451
341 340 -1.0752535537130276e-07
342 340 102415637.09972438
343 340 -1.1034293023757582e-07
344 340 -1.1313631495600812e-07
345 340 -7.5970586175951122e-13
346 340 7.982530484676606e-23
347 340 -1.0752537552805801e-07
348 340 1.158481785267689e-22
349 340 1.1878093127185319e-22
350 340 7.9760923614640297e-28
351 340 72418805.068417415
352 340 -1.1034295092251501e-07
353 340 -1.1313633616459657e-07
354 340 -7.5970600417434032e-13
355 340 8.406357165646222e-23
356 340 1.2189344520299431e-22
357 340 8.1850964358158862e-28
358 340 8.8373665850023365e-23
359 340 8.3923061161594717e-28
360 340 3.984829715384555e-33
325 341 -2.6786375236538222e-25
326 341 -3.4086805276929742e-11
327 341 -3.4086812002299158e-11
328 341 8.0037066699184815e-07
329 341 -3.4086818390298206e-11
330 341 4.0240543065387768e-07
331 341 4.4399597367100232e-09
332 341 -4.0026631180882232e-21
333 341 -5.9883212792612948e-07
334 341 -4.9947023494486373e-07
335 341 144038474.39004767
336 341 -1.5191327568830777e-07
337 341 72418776.334596738
338 341 799036.06316879555
339 341 -7.2033810438111819e-07
340 341 -1.0752535537130276e-07
341 341 144038502.81717649
342 341 1.9549327409202865e-07
343 341 72418790.627013355
344 341 799036.22086487839
345 341 -7.2033824599331569e-07
346 341 -2.1386429939894049e-07
347 341 144038529.81870404
348 341 -2.312194873299225e-07
349 341 -1.5995511631809563e-07
350 341 -1.0684590600016043e-12
351 341 3.8399468661576441e-07
352 341 72418804.202674955
353 341 799036.37065259565
354 341 -7.2033838102827248e-07
355 341 -1.1034294960340212e-07
356 341 -8.0860353848619553e-08
357 341 -5.3719326006175178e-13
358 341 -1.2482952094070884e-09
359 341 -5.9271469693276561e-15
360 341 7.5566752666989465e-27
325 342 -6.2508057193464936e-21
326 342 -7.9100173172204197e-07
327 342 -3.9303641709709348e-07
328 342 2.343896991208348e-21
329 342 4.9286708214309245e-09
330 342 2.0309617267132633e-21
331 342 1.7187815632659043e-21
332 342 -1.249227360696449e-25
333 342 1130008.6849536893
334 342 73217814.161965549
335 342 2.7068623971144818e-07
336 342 144837512.49218428
337 342 2.1040868784720221e-07
338 342 1.5030102803940367e-07
339 342 -2.3549490130015397e-11
340 342 102415637.09972438
341 342 1.9549327409202865e-07
342 342 216457308.87631619
343 342 1.3324536686151269e-07
344 342 7.118426499491798e-08
345 342 -2.4080760889993963e-11
346 342 -4.0315294439090873e-22
347 342 1.2030035279648664e-07
348 342 -5.1435247584478186e-22
349 342 -4.5867462711535466e-22
350 342 2.2704068358735604e-26
351 342 203701243.77498588
352 342 5.6082088198915802e-08
353 342 -7.932451703809512e-09
354 342 -2.4612031104329682e-11
355 342 -3.21906957541347e-22
356 342 -3.9627083246514106e-22
357 342 2.379874792757178e-26
358 342 -2.3618695602438945e-22
359 342 2.488660776487013e-26
360 342 2.4698271420981884e-31
325 343 -3.5218214642975401e-27
326 343 -4.4816680850570853e-13
327 343 -4.4816689534784523e-13
328 343 4.0240543065387773e-07
329 343 -4.4816697775392566e-13
330 343 4.0240535673692566e-07
331 343 4.0240527883723922e-07
332 343 -3.988783179546927e-21
333 343 -5.1936786137016954e-07
334 343 -4.4527282801288555e-07
335 343 72418776.334596753
336 343 -1.5597910400995778e-07
337 343 72418763.032153949
338 343 72418749.01295954
339 343 -7.1784020523200092e-07
340 343 -1.1034293023757582e-07
341 343 72418790.627013355
342 343 1.3324536686151269e-07
343 343 72418777.324567929
344 343 72418763.305370763
345 343 -7.1784034581551142e-07
346 343 -1.0752537424262827e-07
347 343 72418804.20267494
348 343 -1.540561552311416e-07
349 343 -1.5603136213602541e-07
350 343 -5.3719326008419158e-13
351 343 2.9878041034829321e-07
352 343 72418790.90022704
353 343 72418776.881027237
354 343 -7.1784048038221062e-07
355 343 -1.1034292933475289e-07
356 343 -1.5802367333355868e-07
357 343 -5.3719316138861637e-13
358 343 -1.1313629212882371e-07
359 343 -5.3719305737643845e-13
360 343 7.5304711596738274e-27
325 344 2.6162399913454368e-25
326 344 3.3292770053588578e-11
327 344 3.3292776625463963e-11
328 344 4.4399597367101043e-09
329 344 3.3292782867828609e-11
330 344 4.0240527883723933e-07
331 344 8.0037083649972527e-07
332 344 -3.9752664730182073e-21
333 344 -4.4009519355290738e-07
334 344 -3.9119379686084531e-07
335 344 799036.0631688101
336 344 -1.6001070982395182e-07
337 344 72418749.012959555
338 344 144038504.89548346
339 344 -7.1540767502628635e-07
340 344 -1.1313631495600812e-07
341 344 799036.22086487839
342 344 7.118426499491798e-08
343 344 72418763.305370763
344 344 144038533.32261831
345 344 -7.1540781459401122e-07
346 344 -1.1863864052137541e-09
347 344 799036.37065258122
348 344 -7.6892776896204395e-08
349 344 -1.5210760639361984e-07
350 344 -5.9271470139685445e-15
351 344 2.1380613092008676e-07
352 344 72418776.881027222
353 344 144038560.32415158
354 344 -7.1540794870470695e-07
355 344 -1.1034290797400447e-07
356 344 -2.3518703828259749e-07
357 344 -5.3719305739863823e-13
358 344 -2.2502435611996288e-07
359 344 -1.0684592862530245e-12
360 344 7.5049528026808067e-27
325 345 -4.0513256372291739e-34
326 345 -5.1554721715446615e-20
327 345 -5.1554860308964477e-20
328 345 -4.0026631152725971e-21
329 345 -5.1554997811693131e-20
330 345 -3.9887831735050402e-21
331 345 -3.9752664637493023e-21
332 345 1.2072160647478713e-06
333 345 3.192396501445573e-11
334 345 2.2036463538633977e-11
335 345 -7.2033810382891031e-07
336 345 -9.6990214538571287e-13
337 345 -7.1784020414408621e-07
338 345 -7.1540767340266522e-07
339 345 217256288.11333162
340 345 -7.5970586175951122e-13
341 345 -7.2033824599331569e-07
342 345 -2.4080760889993963e-11
343 345 -7.1784034581551142e-07
344 345 -7.1540781459401122e-07
345 345 217256330.99057338
346 345 1.069537876433334e-21
347 345 -7.2033838158048058e-07
348 345 1.5297498027924411e-21
349 345 1.5468431246845762e-21
350 345 -2.2809572089917055e-07
351 345 -3.3295638881121422e-11
352 345 -7.1784048147012565e-07
353 345 -7.1540795032832871e-07
354 345 217256371.71755049
355 345 1.0937578567089106e-21
356 345 1.5637654648217146e-21
357 345 -2.3407269970654735e-07
358 345 1.1176466428395816e-21
359 345 -2.3999836346184791e-07
360 345 -2.2791175563173697e-12
325 346 1.6044329742507059e-29
326 346 2.8186449400172669e-25
327 346 5.0611135390498039e-26
328 346 -9.588016881008274e-11
329 346 -1.8074251978062368e-25
330 346 -4.8206040291555061e-11
331 346 -5.3188367168141525e-13
332 346 4.794978518126317e-25
333 346 2.4758775920805485e-21
334 346 6.2870928663589329e-22
335 346 -1.1910571076900503e-06
336 346 -2.2452470152918954e-21
337 346 -5.9883235120891583e-07
338 346 -6.6072456429990309e-09
339 346 5.9564906029190026e-21
340 346 7.982530484676606e-23
341 346 -2.1386429939894049e-07
342 346 -4.0315294439090873e-22
343 346 -1.0752537424262827e-07
344 346 -1.1863864052137541e-09
345 346 1.069537876433334e-21
346 346 286487716.17721307
347 346 7.6375231635035583e-07
348 346 203701239.93871284
349 346 2247547.460222363
350 346 -2.0261839864166681e-06
351 346 1.0180499333690634e-21
352 346 3.8399468202523695e-07
353 346 4.2368238533274426e-09
354 346 -3.8195343132068512e-21
355 346 72418803.336932495
356 346 1130008.0586974095
357 346 -1.0187122957696979e-06
358 346 8816.2062467406104
359 346 -1.1240011272112756e-08
360 346 7.1650917561014096e-21
325 347 5.2949105697810464e-25
326 347 -3.7609889506666494e-13
327 347 -3.4086818390971848e-11
328 347 -1.5821069730319857e-06
329 347 -6.7797518016226133e-11
330 347 -7.9544199216626633e-07
331 347 -8.7765476036639067e-09
332 347 7.912135589496003e-21
333 347 -6.6072517683723631e-09
334 347 -4.2427732404572688e-07
335 347 1589257.5235119967
336 347 -8.3920867372916795e-07
337 347 799037.10186229716
338 347 8816.2144199727609
339 347 -7.9478955654584622e-09
340 347 -1.0752537552805801e-07
341 347 144038529.81870404
342 347 1.2030035279648664e-07
343 347 72418804.20267494
344 347 799036.37065258122
345 347 -7.2033838158048058e-07
346 347 7.6375231635035583e-07
347 347 286487718.14772624
348 347 6.9173337547064531e-07
349 347 3.0369522950763288e-07
350 347 -4.6827360652665559e-11
351 347 7.6375232160357921e-07
352 347 144038529.08749428
353 347 1589256.0610930191
354 347 -1.4327284465813769e-06
355 347 2.987804082991358e-07
356 347 1.5351481593779621e-07
357 347 -2.3543571756868726e-11
358 347 2.3590402155952702e-09
359 347 -2.5976913652679164e-13
360 347 3.3118644506358519e-25
325 348 2.9832521651529398e-31
326 348 1.7548080362117932e-25
327 348 3.7195772495108845e-26
328 348 -3.4978206798266718e-11
329 348 -1.0112289227563325e-25
330 348 -3.4534978696549478e-11
331 348 -3.4091749996208641e-11
332 348 3.4233829153928006e-25
333 348 3.0367857045403683e-21
334 348 8.4178532935129036e-22
335 348 -1.1538834935648672e-06
336 348 -2.612263186950518e-21
337 348 -7.9068701219211873e-07
338 348 -4.2749031254363378e-07
339 348 7.8502339015359715e-21
340 348 1.158481785267689e-22
341 348 -2.312194873299225e-07
342 348 -5.1435247584478186e-22
343 348 -1.540561552311416e-07
344 348 -7.6892776896204395e-08
345 348 1.5297498027924411e-21
346 348 203701239.93871284
347 348 6.9173337547064531e-07
348 348 216457304.97558975
349 348 144837510.11604807
350 348 -2.1480985700744003e-06
351 348 1.120239758109915e-21
352 348 4.8279484544107313e-07
353 348 2.7385619505730443e-07
354 348 -4.7929188282162519e-21
355 348 102415635.03741786
356 348 73217812.229612291
357 348 -1.4381787119001963e-06
358 348 1130007.6323760634
359 348 -7.2825842813691001e-07
360 348 1.0097832073006992e-20
325 349 -2.2161553894378757e-29
326 349 -4.8189360383507236e-26
327 349 2.701137445269149e-27
328 349 6.5842109457270611e-11
329 349 5.3666415681706814e-26
330 349 -7.9402265529550547e-13
331 349 -6.7430194383659411e-11
332 349 5.5774401386233756e-27
333 349 2.5732720328373357e-21
334 349 7.9448368458189411e-22
335 349 -6.2362709175608889e-07
336 349 -2.0507678314005407e-21
337 349 -7.3463266834383169e-07
338 349 -8.4563831455429769e-07
339 349 7.2784478320008636e-21
340 349 1.1878093127185319e-22
341 349 -1.5995511631809563e-07
342 349 -4.5867462711535466e-22
343 349 -1.5603136213602541e-07
344 349 -1.5210760639361984e-07
345 349 1.5468431246845762e-21
346 349 2247547.460222363
347 349 3.0369522950763288e-07
348 349 144837510.11604807
349 349 286496593.05775309
350 349 -1.4308698634251559e-06
351 349 8.0163933139100147e-22
352 349 4.2270890438601912e-07
353 349 5.4172264976136725e-07
354 349 -4.1861335342729855e-21
355 349 102415615.21127559
356 349 144837594.6618647
357 349 -1.4357460408050131e-06
358 349 2247547.9362230641
359 349 -1.4406222281884917e-06
360 349 1.0063613751439749e-20
325 350 3.4317827015158582e-38
326 350 -1.0624898410581201e-29
327 350 2.5290570785749121e-31
328 350 -1.0254053052876522e-19
329 350 1.1081534210441919e-29
330 350 -5.155452849170569e-20
331 350 -5.684963703588665e-22
332 350 -1.0226043470618797e-10
333 350 -1.866619939331391e-25
334 350 -2.0558894243743367e-26
335 350 4.4898240393963217e-11
336 350 2.222982258095183e-25
337 350 2.257366056517736e-11
338 350 2.4906757724748247e-13
339 350 -1.270315009911322e-06
340 350 7.9760923614640297e-28
341 350 -1.0684590600016043e-12
342 350 2.2704068358735604e-26
343 350 -5.3719326008419158e-13
344 350 -5.9271470139685445e-15
345 350 -2.2809572089917055e-07
346 350 -2.0261839864166681e-06
347 350 -4.6827360652665559e-11
348 350 -2.1480985700744003e-06
349 350 -1.4308698634251559e-06
350 350 432115502.96055859
351 350 -1.2483783124476725e-25
352 350 -2.3543571758015389e-11
353 350 -2.5976913771146538e-13
354 350 8.1457557748513497e-07
355 350 -1.0151797323793517e-06
356 350 -7.2332826927201285e-07
357 350 217256369.1203236
358 350 -1.1163077850122067e-08
359 350 2397108.6321341367
360 350 -3.0561363121044983e-06
325 351 8.7370673602218596e-21
326 351 -1.2411924158615388e-08
327 351 -1.1249248668507061e-06
328 351 -4.2177650109779431e-21
329 351 -2.2374371537763671e-06
330 351 -3.2817786408426e-21
331 351 -2.3484283755979705e-21
332 351 3.6571646844549181e-25
333 351 8816.2225932128076
334 351 1130009.1198018324
335 351 4.2368277811558809e-09
336 351 2247549.5593131869
337 351 3.2966110916411664e-09
338 351 2.3590424212564768e-09
339 351 -3.6736937442060372e-13
340 351 72418805.068417415
341 351 3.8399468661576441e-07
342 351 203701243.77498588
343 351 2.9878041034829321e-07
344 351 2.1380613092008676e-07
345 351 -3.3295638881121422e-11
346 351 1.0180499333690634e-21
347 351 7.6375232160357921e-07
348 351 1.120239758109915e-21
349 351 8.0163933139100147e-22
350 351 -1.2483783124476725e-25
351 351 286487720.1182394
352 351 5.9426403846169104e-07
353 351 4.2525309141707422e-07
354 351 -6.6223888976815932e-11
355 351 6.163436032494621e-22
356 351 6.2374333827505469e-22
357 351 -9.7134413406165009e-26
358 351 3.156159567417793e-22
359 351 -6.9509017727005847e-26
360 351 7.6540863067422471e-30
325 352 6.9616473044677515e-27
326 352 -4.9448724790551519e-15
327 352 -4.4816697807086397e-13
328 352 -7.9544199216626654e-07
329 352 -8.9138882240789054e-13
330 352 -7.9544184605330887e-07
331 352 -7.954416920676093e-07
332 352 7.8846988559864816e-21
333 352 -5.7304778091284004e-09
334 352 -3.6810956313169725e-07
335 352 799037.10186229728
336 352 -7.2811402618557499e-07
337 352 799036.95508896199
338 352 799036.80040730292
339 352 -7.920334838836497e-09
340 352 -1.1034295092251501e-07
341 352 72418804.202674955
342 352 5.6082088198915802e-08
343 352 72418790.90022704
344 352 72418776.881027222
345 352 -7.1784048147012565e-07
346 352 3.8399468202523695e-07
347 352 144038529.08749428
348 352 4.8279484544107313e-07
349 352 4.2270890438601912e-07
350 352 -2.3543571758015389e-11
351 352 5.9426403846169104e-07
352 352 144038502.62937954
353 352 144038474.74566978
354 352 -1.4277602074779181e-06
355 352 2.9878035341683189e-07
356 352 3.6245330734622678e-07
357 352 -2.3543567432195486e-11
358 352 2.138060460089387e-07
359 352 -2.354356287391574e-11
360 352 3.3003799753270348e-25
325 353 -5.1715682547307991e-25
326 353 3.6733786584015098e-13
327 353 3.3292782867867241e-11
328 353 -8.7765476036640655e-09
329 353 6.6218208462118891e-11
330 353 -7.9544169206760951e-07
331 353 -1.5821073081012296e-06
332 353 7.857980129640147e-21
333 353 -4.8558178665613053e-09
334 353 -3.1207709430795828e-07
335 353 8816.214419972921
336 353 -6.1728697293426428e-07
337 353 799036.80040730303
338 353 1589257.8600956323
339 353 -7.8934953645434464e-09
340 353 -1.1313633616459657e-07
341 353 799036.37065259565
342 353 -7.932451703809512e-09
343 353 72418776.881027237
344 353 144038560.32415158
345 353 -7.1540795032832871e-07
346 353 4.2368238533274426e-09
347 353 1589256.0610930191
348 353 2.7385619505730443e-07
349 353 5.4172264976136725e-07
350 353 -2.5976913771146538e-13
351 353 4.2525309141707422e-07
352 353 144038474.74566978
353 353 286487778.82201993
354 353 -1.4229219850211404e-06
355 353 2.987802955774035e-07
356 353 5.713919225074033e-07
357 353 -2.3543562874504231e-11
358 353 4.2525317855506436e-07
359 353 -4.6827370568871289e-11
360 353 3.2891960437194061e-25
325 354 8.008327647455891e-34
326 354 -5.6908158035540036e-22
327 354 -5.1554861087986684e-20
328 354 7.9121355723486754e-21
329 354 -1.0254061168964694e-19
330 354 7.8846988438910638e-21
331 354 7.8579801226299004e-21
332 354 -2.3863255273613035e-06
333 354 3.5223506632102387e-13
334 354 2.2567733677580675e-11
335 354 -7.9478955593656417e-09
336 354 4.4638471322722451e-11
337 354 -7.9203348268329234e-09
338 354 -7.8934953466291197e-09
339 354 2397110.8544194573
340 354 -7.5970600417434032e-13
341 354 -7.2033838102827248e-07
342 354 -2.4612031104329682e-11
343 354 -7.1784048038221062e-07
344 354 -7.1540794870470695e-07
345 354 217256371.71755049
346 354 -3.8195343132068512e-21
347 354 -1.4327284465813769e-06
348 354 -4.7929188282162519e-21
349 354 -4.1861335342729855e-21
350 354 8.1457557748513497e-07
351 354 -6.6223888976815932e-11
352 354 -1.4277602074779181e-06
353 354 -1.4229219850211404e-06
354 354 432115505.93272543
355 354 -2.9616157641466578e-21
356 354 -3.5856683447943571e-21
357 354 6.3380883909094747e-07
358 354 -2.1121393060027267e-21
359 354 4.5355120072315702e-07
360 354 -9.98868966468751e-11
325 355 2.7735011757178701e-33
326 355 3.2141322234506246e-27
327 355 6.8286223328610203e-28
328 355 -6.3380381223066725e-13
329 355 -1.8490157967192015e-27
330 355 -6.3380369580866483e-13
331 355 -6.3380357311370491e-13
332 355 6.2824847598416717e-27
333 355 1.8623835533709043e-21
334 355 5.5956878628210088e-22
335 355 -5.1936805502361232e-07
336 355 -1.5151687628229142e-21
337 355 -5.193679596220578e-07
338 355 -5.1936785908015276e-07
339 355 5.1481575646423279e-21
340 355 8.406357165646222e-23
341 355 -1.1034294960340212e-07
342 355 -3.21906957541347e-22
343 355 -1.1034292933475289e-07
344 355 -1.1034290797400447e-07
345 355 1.0937578567089106e-21
346 355 72418803.336932495
347 355 2.987804082991358e-07
348 355 102415635.03741786
349 355 102415615.21127559
350 355 -1.0151797323793517e-06
351 355 6.163436032494621e-22
352 355 2.9878035341683189e-07
353 355 2.987802955774035e-07
354 355 -2.9616157641466578e-21
355 355 72418776.732039422
356 355 102415596.39878067
357 355 -1.0151795443647169e-06
358 355 72418748.693648025
359 355 -1.0151793478410704e-06
360 355 7.1154854707770961e-21
325 356 -2.9137587858825432e-31
326 356 -1.6690780002997053e-25
327 356 -3.5374668941406786e-26
328 356 3.3287837597055858e-11
329 356 9.6190474057924209e-26
330 356 3.2844609549018912e-11
331 356 3.2401380905781506e-11
332 356 -3.2558235448160554e-25
333 356 2.2318020862488859e-21
334 356 7.4097342878087193e-22
335 356 -3.1524646772367357e-07
336 356 -1.6745370790111572e-21
337 356 -6.7844288968524667e-07
338 356 -1.0416395262864614e-06
339 356 6.7126290276527624e-21
340 356 1.2189344520299431e-22
341 356 -8.0860353848619553e-08
342 356 -3.9627083246514106e-22
343 356 -1.5802367333355868e-07
344 356 -2.3518703828259749e-07
345 356 1.5637654648217146e-21
346 356 1130008.0586974095
347 356 1.5351481593779621e-07
348 356 73217812.229612291
349 356 144837594.6618647
350 356 -7.2332826927201285e-07
351 356 6.2374333827505469e-22
352 356 3.6245330734622678e-07
353 356 5.713919225074033e-07
354 356 -3.5856683447943571e-21
355 356 102415596.39878067
356 356 216457280.83774686
357 356 -1.4332480097195211e-06
358 356 203701206.22896901
359 356 -2.1431681702864403e-06
360 356 1.0028716392152085e-20
325 357 4.5120423619382982e-40
326 357 -1.3943665476961374e-31
327 357 3.3799896757270335e-33
328 357 -5.1554861914304845e-20
329 357 1.4555003446560461e-31
330 357 -5.1554852459765302e-20
331 357 -5.1554842494566342e-20
332 357 -1.3445006676580608e-12
333 357 -1.6189218324656266e-25
334 357 -2.1596730455215646e-26
335 357 2.2573660564633059e-11
336 357 1.8524850329618729e-25
337 357 2.2573656418115249e-11
338 357 2.257365204817909e-11
339 357 -1.1017458135537036e-06
340 357 8.1850964358158862e-28
341 357 -5.3719326006175178e-13
342 357 2.379874792757178e-26
343 357 -5.3719316138861637e-13
344 357 -5.3719305739863823e-13
345 357 -2.3407269970654735e-07
346 357 -1.0187122957696979e-06
347 357 -2.3543571756868726e-11
348 357 -1.4381787119001963e-06
349 357 -1.4357460408050131e-06
350 357 217256369.1203236
351 357 -9.7134413406165009e-26
352 357 -2.3543567432195486e-11
353 357 -2.3543562874504231e-11
354 357 6.3380883909094747e-07
355 357 -1.0151795443647169e-06
356 357 -1.4332480097195211e-06
357 357 217256329.21298784
358 357 -1.0117392321869785e-06
359 357 217256287.15539688
360 357 -3.04553861931245e-06
325 358 1.5305546535617086e-29
326 358 -2.0232313063266794e-25
327 358 -5.2011676673428005e-26
328 358 5.1949370540380267e-13
329 358 9.829216360722367e-26
330 358 4.7083086733598702e-11
331 358 9.3646707674532056e-11
332 358 -4.6512266605319364e-25
333 358 1.3372488559538135e-21
334 358 4.861637245915996e-22
335 358 -4.8558133648868231e-09
336 358 -9.1875685257168309e-22
337 358 -4.4009519161242282e-07
338 358 -8.7533483076600444e-07
339 358 4.3475961972962071e-21
340 358 8.8373665850023365e-23
341 358 -1.2482952094070884e-09
342 358 -2.3618695602438945e-22
343 358 -1.1313629212882371e-07
344 358 -2.2502435611996288e-07
345 358 1.1176466428395816e-21
346 358 8816.2062467406104
347 358 2.3590402155952702e-09
348 358 1130007.6323760634
349 358 2247547.9362230641
350 358 -1.1163077850122067e-08
351 358 3.156159567417793e-22
352 358 2.138060460089387e-07
353 358 4.2525317855506436e-07
354 358 -2.1121393060027267e-21
355 358 72418748.693648025
356 358 203701206.22896901
357 358 -1.0117392321869785e-06
358 358 286487837.52581245
359 358 -2.0123159817563886e-06
360 358 7.0673429723998796e-21
325 359 -3.3518410259056768e-38
326 359 1.0377912635135149e-29
327 359 -2.4690457714036662e-31
328 359 -5.6916426387200776e-22
329 359 -1.0823691791566756e-29
330 359 -5.1555176931587821e-20
331 359 -1.025412201931323e-19
332 359 9.9878328608553261e-11
333 359 -1.3718209581285221e-25
334 359 -2.2628229882736367e-26
335 359 2.490675761598423e-13
336 359 1.4829572423907162e-25
337 359 2.2573652047635801e-11
338 359 4.4898249901676549e-11
339 359 -9.3358305957333501e-07
340 359 8.3923061161594717e-28
341 359 -5.9271469693276561e-15
342 359 2.488660776487013e-26
343 359 -5.3719305737643845e-13
344 359 -1.0684592862530245e-12
345 359 -2.3999836346184791e-07
346 359 -1.1240011272112756e-08
347 359 -2.5976913652679164e-13
348 359 -7.2825842813691001e-07
349 359 -1.4406222281884917e-06
350 359 2397108.6321341367
351 359 -6.9509017727005847e-26
352 359 -2.354356287391574e-11
353 359 -4.6827370568871289e-11
354 359 4.5355120072315702e-07
355 359 -1.0151793478410704e-06
356 359 -2.1431681702864403e-06
357 359 217256287.15539688
358 359 -2.0123159817563886e-06
359 359 432115594.47688293
360 359 -3.0352182635105682e-06
325 360 3.6701852615325296e-47
326 360 -2.2726644023715903e-38
327 360 5.4083386157157836e-40
328 360 7.2522016189253345e-34
329 360 2.3703128381504138e-38
330 360 7.2270533280853756e-34
331 360 7.2025631570292441e-34
332 360 -2.1872873252189293e-19
333 360 7.0364342911266405e-30
334 360 -2.3680790718906453e-31
335 360 -3.1754274462409234e-25
336 360 -1.0378581343902837e-29
337 360 -3.1644160903581992e-25
338 360 -3.1536928968479916e-25
339 360 9.5771912727714717e-11
340 360 3.984829715384555e-33
341 360 7.5566752666989465e-27
342 360 2.4698271420981884e-31
343 360 7.5304711596738274e-27
344 360 7.5049528026808067e-27
345 360 -2.2791175563173697e-12
346 360 7.1650917561014096e-21
347 360 3.3118644506358519e-25
348 360 1.0097832073006992e-20
349 360 1.0063613751439749e-20
350 360 -3.0561363121044983e-06
351 360 7.6540863067422471e-30
352 360 3.3003799753270348e-25
353 360 3.2891960437194061e-25
354 360 -9.98868966468751e-11
355 360 7.1154854707770961e-21
356 360 1.0028716392152085e-20
357 360 -3.04553861931245e-06
358 360 7.0673429723998796e-21
359 360 -3.0352182635105682e-06
360 360 651768984.68957233
