%%MatrixMarket matrix coordinate real general
1452 1452 7428
1 1 0.27389419598027631
2 1 -0.0032856886595851063
3 1 0.00030171209171483922
4 1 -0.015494209827332586
5 1 -0.0018411663466858742
6 1 -0.0028702303771560795
7 1 -0.00012530869068625838
1 2 -0.0032856886595851063
2 2 0.27343411661674688
3 2 -1.8112852985755671e-06
4 2 9.3017267931765459e-05
5 2 1.1053178270150814e-05
6 2 1.723101668255783e-05
7 2 7.5227276418968188e-07
1 3 0.00030171209171483922
2 3 -1.8112852985755671e-06
3 3 0.27341455777914198
4 3 -8.5414162390043286e-06
5 3 -1.0149706443596257e-06
6 3 -1.5822576708543899e-06
7 3 -6.907830069707002e-08
1 4 -0.015494209827332586
2 4 9.3017267931765459e-05
3 4 -8.5414162390043286e-06
4 4 0.27385302981027038
5 4 5.2123095375158057e-05
6 4 8.1255717043967205e-05
7 4 3.5474669889186153e-06
1 5 -0.0018411663466858742
2 5 1.1053178270150814e-05
3 5 -1.0149706443596257e-06
4 5 5.2123095375158057e-05
5 5 0.27342058520755369
6 5 9.6555612299293089e-06
7 5 4.2154307375224533e-07
1 6 -0.0028702303771560795
2 6 1.723101668255783e-05
3 6 -1.5822576708543899e-06
4 6 8.1255717043967205e-05
5 6 9.6555612299293089e-06
6 6 0.27342944369984318
7 6 6.5715177650369504e-07
1 7 -0.00012530869068625838
2 7 7.5227276418968188e-07
3 7 -6.907830069707002e-08
4 7 3.5474669889186153e-06
5 7 4.2154307375224533e-07
6 7 6.5715177650369504e-07
7 7 0.27341442014578476
8 8 0.27445846811109387
9 8 0.0095498056918453152
10 8 -0.010215745529235078
11 8 0.0036054081318684789
12 8 0.004042038647345373
13 8 0.0032873274353356244
14 8 0.00091824080701925141
8 9 0.0095498056918453152
9 9 0.27419346904457975
10 9 -0.00017786861410830173
11 9 6.2774561668067029e-05
12 9 7.0376832539342701e-05
13 9 5.7236388021807622e-05
14 9 1.5987694612674255e-05
8 10 -0.010215745529235078
9 10 -0.00017786861410830173
10 10 0.27421746724333895
11 10 -6.7152041455445654e-05
12 10 -7.5284444058315976e-05
13 10 -6.1227672469046975e-05
14 10 -1.7102569940419715e-05
8 11 0.0036054081318684789
9 11 6.2774561668067029e-05
10 11 -6.7152041455445654e-05
11 11 0.2740508949972027
12 11 2.6569881369331043e-05
13 11 2.1608873046371861e-05
14 11 6.0359515184258585e-06
8 12 0.004042038647345373
9 12 7.0376832539342701e-05
10 12 -7.5284444058315976e-05
11 12 2.6569881369331043e-05
12 12 0.27405698286576935
13 12 2.4225801014585667e-05
14 12 6.7669313483065897e-06
8 13 0.0032873274353356244
9 13 5.7236388021807622e-05
10 13 -6.1227672469046975e-05
11 13 2.1608873046371861e-05
12 13 2.4225801014585667e-05
13 13 0.27404689772566643
14 13 5.5034404703009273e-06
8 14 0.00091824080701925141
9 14 1.5987694612674255e-05
10 14 -1.7102569940419715e-05
11 14 6.0359515184258585e-06
12 14 6.7669313483065897e-06
13 14 5.5034404703009273e-06
14 14 0.27402873251889281
15 15 0.27431513520752482
16 15 0.019911650433370003
17 15 -0.006346246431705717
18 15 0.012611052659983139
19 15 -0.0054698627927698548
20 15 0.0074265979202461502
21 15 0.00720170172885563
15 16 0.019911650433370003
16 16 0.27370074271685657
17 16 -0.00023089021538971361
18 16 0.00045881745946822858
19 16 -0.00019900547701160815
20 16 0.00027019574670969016
21 16 0.00026201353528293865
15 17 -0.006346246431705717
16 17 -0.00023089021538971361
17 17 0.27304990305923044
18 17 -0.0001462344206321885
19 17 6.3427077659933728e-05
20 17 -8.6116859029661993e-05
21 17 -8.3509022464619659e-05
15 18 0.012611052659983139
16 18 0.00045881745946822858
17 18 -0.0001462344206321885
18 18 0.27326690591148517
19 18 -0.00012604020739599223
20 18 0.00017112859637937429
21 18 0.00016594638913225687
15 19 -0.0054698627927698548
16 19 -0.00019900547701160815
17 19 6.3427077659933728e-05
18 19 -0.00012604020739599223
19 19 0.27303098179740282
20 19 -7.422456850764756e-05
21 19 -7.1976860614445583e-05
15 20 0.0074265979202461502
16 20 0.00027019574670969016
17 20 -8.6116859029661993e-05
18 20 0.00017112859637937429
19 20 -7.422456850764756e-05
20 20 0.27307709060788954
21 20 9.7725157576467124e-05
15 21 0.00720170172885563
16 21 0.00026201353528293865
17 21 -8.3509022464619659e-05
18 21 0.00016594638913225687
19 21 -7.1976860614445583e-05
20 21 9.7725157576467124e-05
21 21 0.27307107946175463
22 22 0.3557217762813758
23 22 0.10577553683920071
24 22 -0.98639107084497202
22 23 0.10577553683920071
23 23 12.690285810962475
24 23 -5.3457566106841794
22 24 -0.98639107084497202
23 24 -5.3457566106841794
24 24 6.2805544387681049
25 25 0.28423577089450269
26 25 -0.011912566387263568
27 25 -0.69034993720301863
25 26 -0.011912566387263568
26 26 10.840133199556925
27 26 -3.88972713820116
25 27 -0.69034993720301863
26 27 -3.88972713820116
27 27 4.4755783830617286
28 28 0.30307268640799667
29 28 0.061024524123317048
30 28 -0.81036721077294449
28 29 0.061024524123317048
29 29 11.944774638042249
30 29 -4.7152255728742585
28 30 -0.81036721077294449
29 30 -4.7152255728742585
30 30 5.3335769482731115
31 31 0.3248671003264258
32 31 0.14813084441665914
33 31 -0.94660755923278139
31 32 0.14813084441665914
32 32 13.1892117628942
33 32 -5.6633468764660808
31 33 -0.94660755923278139
32 33 -5.6633468764660808
33 33 6.3130682468707819
34 34 0.46455538250930534
35 34 0.60483037756882374
36 34 -1.6903931158227246
34 35 0.60483037756882374
35 35 19.072385978475303
36 35 -10.357143835144852
34 36 -1.6903931158227246
35 36 -10.357143835144852
36 36 11.418350779331123
37 37 0.30638810298090957
38 37 -0.040489317188347806
39 37 -0.71536867704257623
37 38 -0.040489317188347806
38 38 10.580292125999311
39 38 -3.7201065204701189
37 39 -0.71536867704257623
38 39 -3.7201065204701189
39 39 4.4698591933659957
40 40 0.30733409481642171
41 40 -0.19212523307520302
42 40 -0.52712836222615722
40 41 -0.19212523307520302
41 41 8.4881834022667526
42 41 -2.1935545493334971
40 42 -0.52712836222615722
41 42 -2.1935545493334971
42 42 2.9866508137842449
43 43 0.28059195844050394
44 43 -0.27536108393899278
45 43 -0.25559107490942401
43 44 -0.27536108393899278
44 44 6.4092149272003258
45 44 -0.80944115593292676
43 45 -0.25559107490942401
44 45 -0.80944115593292676
45 45 1.2972538162623666
46 46 3.053119370367706
47 47 3.0450528952657874
48 48 2.99318352325745
49 49 2.9643740688559483
50 50 3.0074026768602775
51 51 2.9811119585538286
52 52 2.8395887620537641
53 53 2.66521246208413
54 54 2.693495405175252
55 55 2.8622811573730331
56 56 2.9274617627183024
57 57 2.996346767631783
58 58 2.984497278242082
59 59 2.9939867080250355
60 60 2.9896025313311729
61 61 2.9299049114546221
62 62 0.27410201260223915
63 62 -0.0013801959714077622
64 62 0.00011127289860504774
65 62 -0.0012361406620703301
66 62 -0.0023199049370415904
67 62 -0.0017613911550301003
68 62 -0.0029300701452433862
62 63 -0.0013801959714077622
63 63 0.27406806271517692
64 63 -2.8016739130822911e-07
65 63 3.1124048076748936e-06
66 63 5.8411502031685112e-06
67 63 4.434901680145371e-06
68 63 7.3774487699534415e-06
62 64 0.00011127289860504774
63 64 -2.8016739130822911e-07
64 64 0.27406461018950168
65 64 -2.5092545678787063e-07
66 64 -4.7091987497332032e-07
67 64 -3.5754659135458217e-07
68 64 -5.9477793440134275e-07
62 65 -0.0012361406620703301
63 65 3.1124048076748936e-06
64 65 -2.5092545678787063e-07
65 65 0.27406737515562307
66 65 5.2314913454154426e-06
67 65 3.9720173168742566e-06
68 65 6.6074416936447674e-06
62 66 -0.0023199049370415904
63 66 5.8411502031685112e-06
64 66 -4.7091987497332032e-07
65 66 5.2314913454154426e-06
66 66 0.27407440571016445
67 66 7.4544126458862567e-06
68 66 1.2400398333817467e-05
62 67 -0.0017613911550301003
63 67 4.434901680145371e-06
64 67 -3.5754659135458217e-07
65 67 3.9720173168742566e-06
66 67 7.4544126458862567e-06
67 67 0.27407024737560881
68 67 9.4150202429801154e-06
62 68 -0.0029300701452433862
63 68 7.3774487699534415e-06
64 68 -5.9477793440134275e-07
65 68 6.6074416936447674e-06
66 68 1.2400398333817467e-05
67 68 9.4150202429801154e-06
68 68 0.27408024946667559
69 69 0.24192760829491389
70 69 -0.11330755597689834
71 69 -0.47028909989513484
69 70 -0.11330755597689834
70 70 9.008812979519746
71 70 -2.5610901396380581
69 71 -0.47028909989513484
70 71 -2.5610901396380581
71 71 3.0017309119264195
72 72 0.34425968630990056
73 72 0.12038660330100004
74 72 -0.97082803764331338
72 73 0.12038660330100004
73 73 12.855988030174938
74 73 -5.4484050591024937
72 74 -0.97082803764331338
73 74 -5.4484050591024937
74 74 6.2820501478889321
75 75 0.32304217164758736
76 75 0.14739104041047435
77 75 -0.94130449035978703
75 76 0.14739104041047435
76 76 13.190334502082262
77 76 -5.6504499638878087
75 77 -0.94130449035978703
76 77 -5.6504499638878087
77 77 6.2865547826594339
78 78 0.33573746968555146
79 78 0.26545336882739062
80 78 -1.0760923484749896
78 79 0.26545336882739062
79 79 14.80924385895637
80 79 -6.8640763739428099
78 80 -1.0760923484749896
79 80 -6.8640763739428099
80 80 7.4020105449486255
81 81 0.45251764160138247
82 81 0.85449387192380755
83 81 -1.8427722582947546
81 82 0.85449387192380755
82 82 22.465913704555916
83 82 -12.825602651813389
81 83 -1.8427722582947546
82 83 -12.825602651813389
83 83 13.243729415684575
84 84 0.41439911935518869
85 84 0.58107005161821501
86 84 -1.5367886567864473
84 85 0.58107005161821501
85 85 18.675081256638904
86 85 -10.046324841537801
84 86 -1.5367886567864473
85 86 -10.046324841537801
86 86 10.712115112163522
87 87 0.39760131035393975
88 87 2.0171586228972935
89 87 -2.4590271452772887
87 88 2.0171586228972935
88 88 43.879753740173726
89 88 -27.079111431464717
87 89 -2.4590271452772887
88 89 -27.079111431464717
89 89 22.89774710259746
90 90 1.0436920335973938
91 90 4.0924567129009137
92 90 -5.7031840600084784
90 91 4.0924567129009137
91 91 55.299600739033991
92 91 -41.476055509715664
90 92 -5.7031840600084784
91 92 -41.476055509715664
92 92 42.023297983959161
93 93 0.26528017572105084
94 93 -0.0025809539486899243
95 93 0.0035624966005106408
96 93 -0.0018309594242234596
97 93 0.0021266529474521967
98 93 -0.00068932362371521255
99 93 -0.0020963627926150591
93 94 -0.0025809539486899243
94 94 0.26523222782555578
95 94 -1.7332030768343788e-05
96 94 8.9078667672781242e-06
97 94 -1.0346455997613347e-05
98 94 3.3536532368524336e-06
99 94 1.0199090272256609e-05
93 95 0.0035624966005106408
94 95 -1.7332030768343788e-05
95 95 0.26524359457481905
96 95 -1.2295548741711619e-05
97 95 1.428123672549058e-05
98 95 -4.629055183895363e-06
99 95 -1.4077827479896857e-05
93 96 -0.0018309594242234596
94 96 8.9078667672781242e-06
95 96 -1.2295548741711619e-05
96 96 0.26522599047998119
97 96 -7.3398989260383032e-06
98 96 2.3791214882812237e-06
99 96 7.2353559279788441e-06
93 97 0.0021266529474521967
94 97 -1.0346455997613347e-05
95 97 1.428123672549058e-05
96 97 -7.3398989260383032e-06
97 97 0.26522819640021417
98 97 -2.7633412616699395e-06
99 97 -8.4038405256456486e-06
93 98 -0.00068932362371521255
94 98 3.3536532368524336e-06
95 98 -4.629055183895363e-06
96 98 2.3791214882812237e-06
97 98 -2.7633412616699395e-06
98 98 0.26522056683024403
99 98 2.7239826842470879e-06
93 99 -0.0020963627926150591
94 99 1.0199090272256609e-05
95 99 -1.4077827479896857e-05
96 99 7.2353559279788441e-06
97 99 -8.4038405256456486e-06
98 99 2.7239826842470879e-06
99 99 0.2652279552770519
100 100 0.2651096541409857
101 100 -0.00015725351481883193
102 100 0.0032251288387821811
103 100 0.0019293355038384878
104 100 -0.00078163540344616724
105 100 -0.00080258516650530388
106 100 -0.0014729707844835043
100 101 -0.00015725351481883193
101 101 0.26507655533055119
102 101 -9.5657503193767885e-07
103 101 -5.7224199821415078e-07
104 101 2.3183350135477663e-07
105 101 2.3804721288976993e-07
106 101 4.3688396515117877e-07
100 102 0.0032251288387821811
101 102 -9.5657503193767885e-07
102 102 0.26509612718679015
103 102 1.1736171196739347e-05
104 102 -4.7546976096307758e-06
105 102 -4.8821352716154253e-06
106 102 -8.9600990911640993e-06
100 103 0.0019293355038384878
101 103 -5.7224199821415078e-07
102 103 1.1736171196739347e-05
103 103 0.26508352949750924
104 103 -2.8443536264245972e-06
105 103 -2.9205893422932366e-06
106 103 -5.3601075053551983e-06
100 104 -0.00078163540344616724
101 104 2.3183350135477663e-07
102 104 -4.7546976096307758e-06
103 104 -2.8443536264245972e-06
104 104 0.26507766102752534
105 104 1.183223977541573e-06
106 104 2.1715506629757596e-06
100 105 -0.00080258516650530388
101 105 2.3804721288976993e-07
102 105 -4.8821352716154253e-06
103 105 -2.9205893422932366e-06
104 105 1.183223977541573e-06
105 105 0.26507772362637816
106 105 2.2297535944955912e-06
100 106 -0.0014729707844835043
101 106 4.3688396515117877e-07
102 106 -8.9600990911640993e-06
103 106 -5.3601075053551983e-06
104 106 2.1715506629757596e-06
105 106 2.2297535944955912e-06
106 106 0.26508060091758151
107 107 0.26515337414852058
108 107 0.00032550123313174054
109 107 0.0014801626684746534
110 107 0.0038616828972191297
111 107 -0.0022607879183879197
112 107 0.00035160361195797499
113 107 -0.0014144959367835626
107 108 0.00032550123313174054
108 108 0.26510747396288764
109 108 9.085999034000482e-07
110 108 2.3704993931449123e-06
111 108 -1.3877877938727624e-06
112 108 2.1583236401262796e-07
113 108 -8.6829028923270276e-07
107 109 0.0014801626684746534
108 109 9.085999034000482e-07
109 109 0.26511140586030268
110 109 1.0779451351432603e-05
111 109 -6.3107339548046514e-06
112 109 9.8146174374345847e-07
113 109 -3.9484055379942001e-06
107 110 0.0038616828972191297
108 110 2.3704993931449123e-06
109 110 1.0779451351432603e-05
110 110 0.26513539729416502
111 110 -1.6464442659726816e-05
112 110 2.5605929069909388e-06
113 110 -1.0301225981513533e-05
107 111 -0.0022607879183879197
108 111 -1.3877877938727624e-06
109 111 -6.3107339548046514e-06
110 111 -1.6464442659726816e-05
111 111 0.26511691311507662
112 111 -1.4990763514538323e-06
113 111 6.0307611638335979e-06
107 112 0.00035160361195797499
108 112 2.1583236401262796e-07
109 112 9.8146174374345847e-07
110 112 2.5605929069909388e-06
111 112 -1.4990763514538323e-06
112 112 0.26510750729375465
113 112 -9.3791964775350332e-07
107 113 -0.0014144959367835626
108 113 -8.6829028923270276e-07
109 113 -3.9484055379942001e-06
110 113 -1.0301225981513533e-05
111 113 6.0307611638335979e-06
112 113 -9.3791964775350332e-07
113 113 0.2651110473898588
114 114 0.26520165701893827
115 114 0.0027362858600869125
116 114 0.0013336526852724693
117 114 0.0019508501261814234
118 114 -0.003624917072176481
119 114 -0.00089779507668053871
120 114 0.0032608106545128214
114 115 0.0027362858600869125
115 115 0.26514478062183749
116 115 6.8810722073683794e-06
117 115 1.0065544599616306e-05
118 115 -1.8703007458251956e-05
119 115 -4.6322350776030387e-06
120 115 1.6824375503487811e-05
114 116 0.0013336526852724693
115 116 6.8810722073683794e-06
116 116 0.26513401636966516
117 116 4.9058984588626667e-06
118 116 -9.1157566843460088e-06
119 116 -2.2577292965517839e-06
120 116 8.2001204243865723e-06
114 117 0.0019508501261814234
115 117 1.0065544599616306e-05
116 117 4.9058984588626667e-06
117 117 0.26513783885352105
118 117 -1.3334412530547525e-05
119 117 -3.3025775988758975e-06
120 117 1.1995031496036869e-05
114 118 -0.003624917072176481
115 118 -1.8703007458251956e-05
116 118 -9.1157566843460088e-06
117 118 -1.3334412530547525e-05
118 118 0.26515543952996601
119 118 6.13659130431813e-06
120 118 -2.2288229048321587e-05
114 119 -0.00089779507668053871
115 119 -4.6322350776030387e-06
116 119 -2.2577292965517839e-06
117 119 -3.3025775988758975e-06
118 119 6.13659130431813e-06
119 119 0.26513218243752618
120 119 -5.5201986442952425e-06
114 120 0.0032608106545128214
115 120 1.6824375503487811e-05
116 120 8.2001204243865723e-06
117 120 1.1995031496036869e-05
118 120 -2.2288229048321587e-05
119 120 -5.5201986442952425e-06
120 120 0.26515071204577734
121 121 0.2654486143771454
122 121 0.0023967439911127793
123 121 0.0052239230172047655
124 121 0.0031405332413761053
125 121 -0.001123944016432074
126 121 -0.0013255407769743655
127 121 -0.00298713251854238
121 122 0.0023967439911127793
122 122 0.26535611974068019
123 122 2.3588074055606481e-05
124 122 1.418074700329561e-05
125 122 -5.0750508012159617e-06
126 122 -5.9853397356777881e-06
127 122 -1.3488082199762261e-05
121 123 0.0052239230172047655
122 123 2.3588074055606481e-05
123 123 0.26539670986322839
124 123 3.0908236735488549e-05
125 123 -1.1061537983306469e-05
126 123 -1.3045596078236381e-05
127 123 -2.9398510363459348e-05
121 124 0.0031405332413761053
122 124 1.418074700329561e-05
123 124 3.0908236735488549e-05
124 124 0.26536387899938518
125 124 -6.6500075944661808e-06
126 124 -7.8427894136903938e-06
127 124 -1.7673882011528313e-05
121 125 -0.001123944016432074
122 125 -5.0750508012159617e-06
123 125 -1.1061537983306469e-05
124 125 -6.6500075944661808e-06
125 125 0.26534767742153026
126 125 2.8068023982423048e-06
127 125 6.3251850584710238e-06
121 126 -0.0013255407769743655
122 126 -5.9853397356777881e-06
123 126 -1.3045596078236381e-05
124 126 -7.8427894136903938e-06
125 126 2.8068023982423048e-06
126 126 0.26534860774154395
127 126 7.4597049268770545e-06
121 127 -0.00298713251854238
122 127 -1.3488082199762261e-05
123 127 -2.9398510363459348e-05
124 127 -1.7673882011528313e-05
125 127 6.3251850584710238e-06
126 127 7.4597049268770545e-06
127 127 0.26536210808917721
128 128 0.26522659743611599
129 128 0.001459903696457812
130 128 0.00017252560424571342
131 128 -0.0033255681344826083
132 128 0.0031010499829623359
133 128 0.00084508570330610008
134 128 0.00038299123183212149
128 129 0.001459903696457812
129 129 0.26518593720732708
130 129 4.7486184627809545e-07
131 129 -9.1533394777445013e-06
132 129 8.5353726291715836e-06
133 129 2.3260255142397402e-06
134 129 1.0541503346778858e-06
128 130 0.00017252560424571342
129 130 4.7486184627809545e-07
130 130 0.2651819750655931
131 130 -1.0817052029497672e-06
132 130 1.0086763420649407e-06
133 130 2.7488043102352275e-07
134 130 1.2457528801207393e-07
128 131 -0.0033255681344826083
129 131 -9.1533394777445013e-06
130 131 -1.0817052029497672e-06
131 131 0.2652027696757705
132 131 -1.9443038126678464e-05
133 131 -5.2985387658909441e-06
134 131 -2.4012876811427813e-06
128 132 0.0031010499829623359
129 132 8.5353726291715836e-06
130 132 1.0086763420649407e-06
131 132 -1.9443038126678464e-05
132 132 0.26520004933404201
133 132 4.9408199998427423e-06
134 132 2.2391702174082855e-06
128 133 0.00084508570330610008
129 133 2.3260255142397402e-06
130 133 2.7488043102352275e-07
131 133 -5.2985387658909441e-06
132 133 4.9408199998427423e-06
133 133 0.26518326540076059
134 133 6.1020968652459703e-07
128 134 0.00038299123183212149
129 134 1.0541503346778858e-06
130 134 1.2457528801207393e-07
131 134 -2.4012876811427813e-06
132 134 2.2391702174082855e-06
133 134 6.1020968652459703e-07
134 134 0.26518219549417965
135 135 0.26516364453088059
136 135 0.00027415807079291362
137 135 0.0059287231858153279
138 135 0.0010005916769030274
139 135 0.0023616369633999486
140 135 0.002829700763456702
141 135 0.0021895500586578353
135 136 0.00027415807079291362
136 136 0.26506080200396637
137 136 3.0655088728293661e-06
138 136 5.1736648305053587e-07
139 136 1.2211093078228678e-06
140 136 1.4631266338395629e-06
141 136 1.132129958163428e-06
135 137 0.0059287231858153279
136 137 3.0655088728293661e-06
137 137 0.26512695249093976
138 137 1.1188153807597948e-05
139 137 2.6406733330031405e-05
140 137 3.1640406473318256e-05
141 137 2.4482537073984777e-05
135 138 0.0010005916769030274
136 138 5.1736648305053587e-07
137 138 1.1188153807597948e-05
138 138 0.265062548474371
139 138 4.4566691269114372e-06
140 138 5.3399570833019257e-06
141 138 4.1319221791816711e-06
135 139 0.0023616369633999486
136 139 1.2211093078228678e-06
137 139 2.6406733330031405e-05
138 139 4.4566691269114372e-06
139 139 0.26507117905844979
140 139 1.2603582782067663e-05
141 139 9.7523299198832025e-06
135 140 0.002829700763456702
136 140 1.4631266338395629e-06
137 140 3.1640406473318256e-05
138 140 5.3399570833019257e-06
139 140 1.2603582782067663e-05
140 140 0.26507576179304326
141 140 1.168518948824636e-05
135 141 0.0021895500586578353
136 141 1.132129958163428e-06
137 141 2.4482537073984777e-05
138 141 4.1319221791816711e-06
139 141 9.7523299198832025e-06
140 141 1.168518948824636e-05
141 141 0.26506970194832774
142 142 0.26534152465964822
143 142 0.003932166923438939
144 142 0.0078610236692227484
145 142 0.0055340650054020637
146 142 0.0047550525410412206
147 142 0.0034520608507100782
148 142 0.0061405790855390465
142 143 0.003932166923438939
143 143 0.26503105502599855
144 143 5.8284605395060572e-05
145 143 4.1031652955494152e-05
146 143 3.5255759637570234e-05
147 143 2.5594885977905687e-05
148 143 4.5528577950865323e-05
142 144 0.0078610236692227484
143 144 5.8284605395060572e-05
144 144 0.26511842059747626
145 144 8.2028764635551403e-05
146 144 7.0481840263532044e-05
147 144 5.1168225663067628e-05
148 144 9.1018829023869859e-05
142 145 0.0055340650054020637
143 145 4.1031652955494152e-05
144 145 8.2028764635551403e-05
145 145 0.26505964770397328
146 145 4.9618357879504628e-05
147 145 3.6021808220620251e-05
148 145 6.4076148060176899e-05
142 146 0.0047550525410412206
143 146 3.5255759637570234e-05
144 146 7.0481840263532044e-05
145 146 4.9618357879504628e-05
146 146 0.26504453419367707
147 146 3.0951134571993613e-05
148 146 5.5056355564356349e-05
142 147 0.0034520608507100782
143 147 2.5594885977905687e-05
144 147 5.1168225663067628e-05
145 147 3.6021808220620251e-05
146 147 3.0951134571993613e-05
147 147 0.26502437027715675
148 147 3.9969671835607373e-05
142 148 0.0061405790855390465
143 148 4.5528577950865323e-05
144 148 9.1018829023869859e-05
145 148 6.4076148060176899e-05
146 148 5.5056355564356349e-05
147 148 3.9969671835607373e-05
148 148 0.26507299912059595
149 149 0.26522355903060335
150 149 0.00063678274220003929
151 149 0.0056963171332629087
152 149 0.006519725459143374
153 149 0.0047155540608850221
154 149 0.0022744428742364105
155 149 -0.0024492315802683647
149 150 0.00063678274220003929
150 150 0.26501919361398552
151 150 6.8408698806184459e-06
152 150 7.8297244482607484e-06
153 150 5.6630435052794112e-06
154 150 2.7314433851822188e-06
155 150 -2.9413521326401315e-06
149 151 0.0056963171332629087
150 151 6.8408698806184459e-06
151 151 0.26507962363905385
152 151 7.0040518637900395e-05
153 151 5.0658552136770449e-05
154 151 2.4434028629286161e-05
155 151 -2.6311759785182726e-05
149 152 0.006519725459143374
150 152 7.8297244482607484e-06
151 152 7.0040518637900395e-05
152 152 0.26509859382890899
153 152 5.7981296399531146e-05
154 152 2.7965991849991079e-05
155 152 -3.0115150918231554e-05
149 153 0.0047155540608850221
150 153 5.6630435052794112e-06
151 153 5.0658552136770449e-05
152 153 5.7981296399531146e-05
153 153 0.2650603653022674
154 153 2.022710116573374e-05
155 153 -2.1781534068658581e-05
149 154 0.0022744428742364105
150 154 2.7314433851822188e-06
151 154 2.4434028629286161e-05
152 154 2.7965991849991079e-05
153 154 2.022710116573374e-05
154 154 0.26502818497686526
155 154 -1.0505839677108956e-05
149 155 -0.0024492315802683647
150 155 -2.9413521326401315e-06
151 155 -2.6311759785182726e-05
152 155 -3.0115150918231554e-05
153 155 -2.1781534068658581e-05
154 155 -1.0505839677108956e-05
155 155 0.26502974208657071
156 156 0.26515366592966522
157 156 0.0013686904321814509
158 156 0.0033517916652059262
159 156 -0.00027232629755691035
160 156 0.0022312093235371268
161 156 -0.00027439819599077024
162 156 -0.0041316389706372173
156 157 0.0013686904321814509
157 157 0.26509061400623568
158 157 8.6518533494483169e-06
159 157 -7.0294559596855453e-07
160 157 5.759336434765854e-06
161 157 -7.0829370921520715e-07
162 157 -1.0664843772329934e-05
156 158 0.0033517916652059262
157 158 8.6518533494483169e-06
158 158 0.26510826861675174
159 158 -1.7214463798839908e-06
160 158 1.4104062836471855e-05
161 158 -1.7345433965527908e-06
162 158 -2.6117180062291701e-05
156 159 -0.00027232629755691035
157 159 -7.0294559596855453e-07
158 159 -1.7214463798839908e-06
159 159 0.26508722092130771
160 159 -1.1459265958078032e-06
161 159 1.4092814480042824e-07
162 159 2.1219680873435453e-06
156 160 0.0022312093235371268
157 160 5.759336434765854e-06
158 160 1.4104062836471855e-05
159 160 -1.1459265958078032e-06
160 160 0.26509646980204904
161 160 -1.1546449735057059e-06
162 160 -1.7385595967792064e-05
156 161 -0.00027439819599077024
157 161 -7.0829370921520715e-07
158 161 -1.7345433965527908e-06
159 161 1.4092814480042824e-07
160 161 -1.1546449735057059e-06
161 161 0.26508722305761584
162 161 2.1381123319365561e-06
156 162 -0.0041316389706372173
157 162 -1.0664843772329934e-05
158 162 -2.6117180062291701e-05
159 162 2.1219680873435453e-06
160 162 -1.7385595967792064e-05
161 162 2.1381123319365561e-06
162 162 0.26511927481205061
163 163 0.26520232725001913
164 163 0.0072520573614182592
165 163 0.0023069197007418401
166 163 -0.00094330706577482526
167 163 0.0024649898822163866
168 163 -0.0036666240924481432
169 163 -0.0024865968428415789
163 164 0.0072520573614182592
164 164 0.26514213778839402
165 164 3.1551273769464777e-05
166 164 -1.2901419789930807e-05
167 164 3.3713167644179457e-05
168 164 -5.0147675497047057e-05
169 164 -3.4008681670867191e-05
163 165 0.0023069197007418401
164 165 3.1551273769464777e-05
165 165 0.26505298950317568
166 165 -4.1040132472299528e-06
167 165 1.0724345759664546e-05
168 165 -1.5952253930865527e-05
169 165 -1.0818350411866877e-05
163 166 -0.00094330706577482526
164 166 -1.2901419789930807e-05
165 166 -4.1040132472299528e-06
166 166 0.26504463101239506
167 166 -4.3852203124585218e-06
168 166 6.5229291869936828e-06
169 166 4.4236591244421589e-06
163 167 0.0024649898822163866
164 167 3.3713167644179457e-05
165 167 1.0724345759664546e-05
166 167 -4.3852203124585218e-06
167 167 0.26505441204599134
168 167 -1.7045302671560355e-05
169 167 -1.1559623986456025e-05
163 168 -0.0036666240924481432
164 168 -5.0147675497047057e-05
165 168 -1.5952253930865527e-05
166 168 6.5229291869936828e-06
167 168 -1.7045302671560355e-05
168 168 0.26506830742119253
169 168 1.7194713907008405e-05
163 169 -0.0024865968428415789
164 169 -3.4008681670867191e-05
165 169 -1.0818350411866877e-05
166 169 4.4236591244421589e-06
167 169 -1.1559623986456025e-05
168 169 1.7194713907008405e-05
169 169 0.2650546138181587
170 170 0.26516686447123672
171 170 -0.00067653622248481544
172 170 -0.0032377141608724361
173 170 0.0027653832522419957
174 170 -0.00020109055915156989
175 170 -0.0029163894331095683
176 170 0.00071389379883259085
170 171 -0.00067653622248481544
171 171 0.26511559822583819
172 171 4.1306937854624528e-06
173 171 -3.5280913777082543e-06
174 171 2.565524569898208e-07
175 171 3.7207459055273566e-06
176 171 -9.1078969044115965e-07
170 172 -0.0032377141608724361
171 172 4.1306937854624528e-06
172 172 0.26513450344852613
173 172 -1.6884463883549621e-05
174 172 1.2277886909761182e-06
175 172 1.7806454860743901e-05
176 172 -4.3587860935031477e-06
170 173 0.0027653832522419957
171 173 -3.5280913777082543e-06
172 173 -1.6884463883549621e-05
173 173 0.26512915638678003
174 173 -1.0486738836768035e-06
175 173 -1.5208776811982555e-05
176 173 3.7229086522668569e-06
170 174 -0.00020109055915156989
171 174 2.565524569898208e-07
172 174 1.2277886909761182e-06
173 174 -1.0486738836768035e-06
174 174 0.26511481135364101
175 174 1.1059376419718658e-06
176 174 -2.7071899779085189e-07
170 175 -0.0029163894331095683
171 175 3.7207459055273566e-06
172 175 1.7806454860743901e-05
173 175 -1.5208776811982555e-05
174 175 1.1059376419718658e-06
175 175 0.26513077436257715
176 175 -3.9262013484390341e-06
170 176 0.00071389379883259085
171 176 -9.1078969044115965e-07
172 176 -4.3587860935031477e-06
173 176 3.7229086522668569e-06
174 176 -2.7071899779085189e-07
175 176 -3.9262013484390341e-06
176 176 0.26511569617963426
177 177 0.26528988378792218
178 177 -0.0012587577476939049
179 177 -0.0059341456824307014
180 177 -0.0063471140555629649
181 177 -0.0067478791755184436
182 177 -0.00096132451442164249
183 177 -0.0019502885761010522
177 178 -0.0012587577476939049
178 178 0.2650527497427651
179 178 1.4084656713431735e-05
180 178 1.5064834498128418e-05
181 178 1.6016047939686208e-05
182 178 2.2816975686867808e-06
183 178 4.6289974254995355e-06
177 179 -0.0059341456824307014
178 179 1.4084656713431735e-05
179 179 0.26511616120780329
180 179 7.1019958174939218e-05
181 179 7.5504251636196093e-05
182 179 1.0756577904398984e-05
183 179 2.1822423843535808e-05
177 180 -0.0063471140555629649
178 180 1.5064834498128418e-05
179 180 7.1019958174939218e-05
180 180 0.26512572446013311
181 180 8.0758734696004773e-05
182 180 1.1505148417388235e-05
183 180 2.3341087414460523e-05
177 181 -0.0067478791755184436
178 181 1.6016047939686208e-05
179 181 7.5504251636196093e-05
180 181 8.0758734696004773e-05
181 181 0.26513562003662616
182 181 1.2231598603289489e-05
183 181 2.4814874338038643e-05
177 182 -0.00096132451442164249
178 182 2.2816975686867808e-06
179 182 1.0756577904398984e-05
180 182 1.1505148417388235e-05
181 182 1.2231598603289489e-05
182 182 0.26505150464210087
183 182 3.5352066038758426e-06
177 183 -0.0019502885761010522
178 183 4.6289974254995355e-06
179 183 2.1822423843535808e-05
180 183 2.3341087414460523e-05
181 183 2.4814874338038643e-05
182 183 3.5352066038758426e-06
183 183 0.26505693414511922
184 184 0.2654686206491137
185 184 -0.0034234628102400807
186 184 -0.0075428425219887041
187 184 -0.0053055131959935482
188 184 -0.013166173222337093
189 184 -0.0047319058670757816
190 184 -0.0036039726658690647
184 185 -0.0034234628102400807
185 185 0.26491471400417749
186 185 4.8688778683260672e-05
187 185 3.4246897909879991e-05
188 185 8.4987177215895175e-05
189 185 3.0544283118790589e-05
190 185 2.3263514649481984e-05
184 186 -0.0075428425219887041
185 186 4.8688778683260672e-05
186 186 0.26499989062080126
187 186 7.545545902475671e-05
188 186 0.00018725043316094575
189 186 6.7297566903003276e-05
190 186 5.1256005172351871e-05
184 187 -0.0053055131959935482
185 187 3.4246897909879991e-05
186 187 7.545545902475671e-05
187 187 0.26494568982128974
188 187 0.0001317089202372709
189 187 4.7336017982781011e-05
190 187 3.6052643419649225e-05
184 188 -0.013166173222337093
185 188 8.4987177215895175e-05
186 188 0.00018725043316094575
187 188 0.0001317089202372709
188 188 0.2652194648204852
189 188 0.00011746916639234691
190 188 8.9468319246610055e-05
184 189 -0.0047319058670757816
185 189 3.0544283118790589e-05
186 189 6.7297566903003276e-05
187 189 4.7336017982781011e-05
188 189 0.00011746916639234691
189 189 0.26493483394279849
190 189 3.2154799850437826e-05
184 190 -0.0036039726658690647
185 190 2.3263514649481984e-05
186 190 5.1256005172351871e-05
187 190 3.6052643419649225e-05
188 190 8.9468319246610055e-05
189 190 3.2154799850437826e-05
190 190 0.26491710581050942
191 191 0.45512733221667612
192 191 2.7741049347743791
193 191 -3.1076686392653214
191 192 2.7741049347743791
192 192 54.867001905524646
193 192 -35.532062928064235
191 193 -3.1076686392653214
192 193 -35.532062928064235
193 193 29.784019020881054
194 194 0.75493801042747222
195 194 2.5978665014349418
196 194 -3.8918939478807211
194 195 2.5978665014349418
195 195 42.556622426111545
196 195 -29.52260192393701
194 196 -3.8918939478807211
195 196 -29.52260192393701
196 196 29.449734074118282
197 197 0.6109669545180626
198 197 1.0042789953300129
199 197 -2.3971219446277838
197 198 1.0042789953300129
198 198 23.073715812251713
199 198 -14.110659685635538
197 199 -2.3971219446277838
198 199 -14.110659685635538
199 199 15.89539739803997
200 200 0.33565199478123964
201 200 2.1745294215572741
202 200 -2.4048682920952369
200 201 2.1745294215572741
201 201 48.581389156940737
202 201 -29.939721330858273
200 202 -2.4048682920952369
201 202 -29.939721330858273
202 202 24.346622856028361
203 203 0.57999282266849017
204 203 0.84111375779351372
205 203 -2.1867026632039965
203 204 0.84111375779351372
204 204 21.431273818450087
205 204 -12.623761890151982
203 205 -2.1867026632039965
204 205 -12.623761890151982
205 205 14.375493764623124
206 206 0.44479311510587982
207 206 0.29270638306808361
208 206 -1.3848118333742914
206 207 0.29270638306808361
207 207 15.145595172842709
208 207 -7.3774391164298834
206 208 -1.3848118333742914
207 208 -7.3774391164298834
208 208 8.7546181851426947
209 209 0.1546596647071265
210 209 -0.16494575360252969
211 209 -0.13504593987855656
209 210 -0.16494575360252969
210 210 6.176166408487834
211 210 -0.76909418156788112
209 211 -0.13504593987855656
210 211 -0.76909418156788112
211 211 0.88868614626134446
212 212 0.44000887606389866
213 212 0.26790002718187067
214 212 -1.3505625956234963
212 213 0.26790002718187067
213 213 14.942836682631681
214 213 -7.1579520847005647
212 214 -1.3505625956234963
213 214 -7.1579520847005647
214 214 8.5141795565133904
215 215 3.0083195016364486
216 216 2.9211417046261463
217 217 2.9061758907443953
218 218 2.9713203755333555
219 219 3.169551201132951
220 220 3.5292662721820287
221 221 3.8751642850624965
222 222 3.9306952461311622
223 223 4.073327861301987
224 224 4.3744088359919946
225 225 4.424058274872908
226 226 3.9515646707314498
227 227 3.6177447439995225
228 228 4.0094876207787919
229 229 4.362608813149774
230 230 3.0947738756268022
231 231 2.8316019517461619
232 232 2.8513214455000626
233 233 2.9488395171243358
234 234 3.0079905857919673
235 235 2.9916011105615636
236 236 2.7625063524559876
237 237 2.591649059611473
238 238 2.6845146449847483
239 239 3.0212554727758567
240 240 3.2067225274474893
241 241 3.2188788074744101
242 242 3.073482585903756
243 243 2.926447778641549
244 244 2.9390690194043985
245 245 2.9914376797469791
246 246 3.0097394825238992
247 247 0.27699593787859206
248 247 -0.017320748442574811
249 247 -0.022139893589024857
250 247 -0.022590725907335785
251 247 -0.0113963262119911
252 247 -0.016139782717911402
253 247 -0.011538179209436544
247 248 -0.017320748442574811
248 248 0.27422842242633322
249 248 0.00069637508388034608
250 248 0.00071055529627465377
251 248 0.00035845328659290241
252 248 0.00050765115463642771
253 248 0.00036291504665500668
247 249 -0.022139893589024857
248 249 0.00069637508388034608
249 249 0.27457375313050131
250 249 0.00090825282179898012
251 249 0.00045818560601549544
252 249 0.00064889473923479774
253 249 0.00046388875985565732
247 250 -0.022590725907335785
248 250 0.00071055529627465377
249 250 0.00090825282179898012
250 250 0.27461037335433808
251 250 0.00046751559119117224
252 250 0.00066210811437829927
253 250 0.00047333487775153471
247 251 -0.0113963262119911
248 251 0.00035845328659290241
249 251 0.00045818560601549544
250 251 0.00046751559119117224
251 251 0.27391947310865594
252 251 0.00033401317381355879
253 251 0.00023878288358222959
247 252 -0.016139782717911402
248 252 0.00050765115463642771
249 252 0.00064889473923479774
250 252 0.00066210811437829927
251 252 0.00033401317381355879
252 252 0.27415666428778868
253 252 0.00033817072151887676
247 253 -0.011538179209436544
248 253 0.00036291504665500668
249 253 0.00046388875985565732
250 253 0.00047333487775153471
251 253 0.00023878288358222959
252 253 0.00033817072151887676
253 253 0.27392538095153424
254 254 0.27269488733538783
255 254 0.00098085151698640229
256 254 0.0018047209655439197
257 254 0.0070127228003876874
258 254 0.0050828634825199719
259 254 0.0049438723529920819
260 254 0.0049049199168818168
254 255 0.00098085151698640229
255 255 0.27246234649071488
256 255 3.2470797730968459e-06
257 255 1.2617391161414853e-05
258 255 9.1451606750348612e-06
259 255 8.8950858468777687e-06
260 255 8.8250020667137971e-06
254 256 0.0018047209655439197
255 256 3.2470797730968459e-06
256 256 0.27246655620371479
257 256 2.3215410248266565e-05
258 256 1.6826668377097488e-05
259 256 1.6366542376868084e-05
260 256 1.6237591495704037e-05
254 257 0.0070127228003876874
255 257 1.2617391161414853e-05
256 257 2.3215410248266565e-05
257 257 0.27255079137316185
258 257 6.5384490586371693e-05
259 257 6.3596548763527382e-05
260 257 6.3095475854344079e-05
254 258 0.0050828634825199719
255 258 9.1451606750348612e-06
256 258 1.6826668377097488e-05
257 258 6.5384490586371693e-05
258 258 0.27250797279897931
259 258 4.6095159401789489e-05
260 258 4.5731978756459113e-05
254 259 0.0049438723529920819
255 259 8.8950858468777687e-06
256 259 1.6366542376868084e-05
257 259 6.3596548763527382e-05
258 259 4.6095159401789489e-05
259 259 0.27250541641384091
260 259 4.4481435749595901e-05
254 260 0.0049049199168818168
255 260 8.8250020667137971e-06
256 260 1.6237591495704037e-05
257 260 6.3095475854344079e-05
258 260 4.5731978756459113e-05
259 260 4.4481435749595901e-05
260 260 0.27250471269816079
261 261 0.26548401887636391
262 261 -0.0044419606994517847
263 261 -0.0054217183463797216
264 261 5.9899099824613897e-05
265 261 0.0017155948271858335
266 261 0.0010645975324580996
267 261 0.0031457124823541763
261 262 -0.0044419606994517847
262 262 0.26540231815822785
263 262 4.5367048228042031e-05
264 262 -5.0121477674584479e-07
265 262 -1.4355499177984789e-05
266 262 -8.9081808594375321e-06
267 262 -2.6322224944386776e-05
261 263 -0.0054217183463797216
262 263 4.5367048228042031e-05
263 263 0.26542052298089669
264 263 -6.1176708539878411e-07
265 263 -1.7521873454288983e-05
266 263 -1.0873047031785292e-05
267 263 -3.2128084770342257e-05
261 264 5.9899099824613897e-05
262 264 -5.0121477674584479e-07
263 264 -6.1176708539878411e-07
264 264 0.2653651561390839
265 264 1.9358151421744863e-07
266 264 1.2012533443193637e-07
267 264 3.5495081704445407e-07
261 265 0.0017155948271858335
262 265 -1.4355499177984789e-05
263 265 -1.7521873454288983e-05
264 265 1.9358151421744863e-07
265 265 0.26537069382828959
266 265 3.44055925663031e-06
267 265 1.016629277251039e-05
261 266 0.0010645975324580996
262 266 -8.9081808594375321e-06
263 266 -1.0873047031785292e-05
264 266 1.2012533443193637e-07
265 266 3.44055925663031e-06
266 266 0.26536728438957674
267 266 6.3086050554341174e-06
261 267 0.0031457124823541763
262 267 -2.6322224944386776e-05
263 267 -3.2128084770342257e-05
264 267 3.5495081704445407e-07
265 267 1.016629277251039e-05
266 267 6.3086050554341174e-06
267 267 0.26538379028171988
268 268 0.26578713992431863
269 268 0.016650862571662949
270 268 -0.013943534537579504
271 268 -0.0069132191309021103
272 268 -0.0031727919510381565
273 268 -0.0023026330044691951
274 268 0.00036755937229719009
268 269 0.016650862571662949
269 269 0.26530139716758566
270 269 -0.00043759284664437017
271 269 -0.00021695899492446208
272 269 -9.95723901944124e-05
273 269 -7.2264010856595094e-05
274 269 1.1535192285776498e-05
268 270 -0.013943534537579504
269 270 -0.00043759284664437017
270 270 0.26514528261790943
271 270 0.00018168279426653412
272 270 8.3382530826237616e-05
273 270 6.0514326321913878e-05
274 270 -9.6596408349481529e-06
268 271 -0.0069132191309021103
269 271 -0.00021695899492446208
270 271 0.00018168279426653412
271 271 0.26486891820276603
272 271 4.1341146732731295e-05
273 271 3.0003066818876364e-05
274 271 -4.7892601146308201e-06
268 272 -0.0031727919510381565
269 272 -9.95723901944124e-05
270 272 8.3382530826237616e-05
271 272 4.1341146732731295e-05
272 272 0.26479781302181321
273 272 1.3769777451994213e-05
274 272 -2.1980101679701705e-06
268 273 -0.0023026330044691951
269 273 -7.2264010856595094e-05
270 273 6.0514326321913878e-05
271 273 3.0003066818876364e-05
272 273 1.3769777451994213e-05
273 273 0.26478883300765016
274 273 -1.5951915016901552e-06
268 274 0.00036755937229719009
269 274 1.1535192285776498e-05
270 274 -9.6596408349481529e-06
271 274 -4.7892601146308201e-06
272 274 -2.1980101679701705e-06
273 274 -1.5951915016901552e-06
274 274 0.26477909431527313
275 275 0.26572152860088522
276 275 0.022473906893336129
277 275 -0.008554273197028249
278 275 -0.0019278178635792713
279 275 -0.00017636807671207893
280 275 0.00034935014582236249
281 275 0.0021555422582843807
275 276 0.022473906893336129
276 276 0.26556749137710906
277 276 -0.00036250170382259313
278 276 -8.169452203723082e-05
279 276 -7.4738936710897865e-06
280 276 1.4804299579217608e-05
281 276 9.1344725997428026e-05
275 277 -0.008554273197028249
276 277 -0.00036250170382259313
277 277 0.26475310130847279
278 277 3.1095495034480801e-05
279 277 2.8447981301817979e-06
280 277 -5.6349803215046948e-06
281 277 -3.4768665056692128e-05
275 278 -0.0019278178635792713
276 278 -8.169452203723082e-05
277 278 3.1095495034480801e-05
278 278 0.26462212957917286
279 278 6.4111263778044937e-07
280 278 -1.269916856114473e-06
281 278 -7.8355755124094999e-06
275 279 -0.00017636807671207893
276 279 -7.4738936710897865e-06
277 279 2.8447981301817979e-06
278 279 6.4111263778044937e-07
279 279 0.26461518045353
280 279 -1.1617943672402834e-07
281 279 -7.1684437060363441e-07
275 280 0.00034935014582236249
276 280 1.4804299579217608e-05
277 280 -5.6349803215046948e-06
278 280 -1.269916856114473e-06
279 280 -1.1617943672402834e-07
280 280 0.26461535192918761
281 280 1.41992638390646e-06
275 281 0.0021555422582843807
276 281 9.1344725997428026e-05
277 281 -3.4768665056692128e-05
278 281 -7.8355755124094999e-06
279 281 -7.1684437060363441e-07
280 281 1.41992638390646e-06
281 281 0.26462388295735517
282 282 0.26623888109606886
283 282 -0.0011193752894784724
284 282 0.028237630360677328
285 282 0.0049364556335597795
286 282 0.0045256931179144004
287 282 0.0038916453581420915
288 282 0.0036147918765881896
282 283 -0.0011193752894784724
283 283 0.26459915353627328
284 283 -5.9544803025402628e-05
285 283 -1.0409523553834975e-05
286 283 -9.5433470095600924e-06
287 283 -8.206327986288398e-06
288 283 -7.6225259527799255e-06
282 284 0.028237630360677328
283 284 -5.9544803025402628e-05
284 284 0.26609888463205067
285 284 0.00026259314557578432
286 284 0.00024074276767819955
287 284 0.0002070148041263777
288 284 0.00019228767357331304
282 285 0.0049364556335597795
283 285 -1.0409523553834975e-05
284 285 0.00026259314557578432
285 285 0.26464269920267597
286 285 4.2086250742865635e-05
287 285 3.6189984180932492e-05
288 285 3.36154116811775e-05
282 286 0.0045256931179144004
283 286 -9.5433470095600924e-06
284 286 0.00024074276767819955
285 286 4.2086250742865635e-05
286 286 0.26463537735862241
287 286 3.317861528656516e-05
288 286 3.0818272986616129e-05
282 287 0.0038916453581420915
283 287 -8.206327986288398e-06
284 287 0.0002070148041263777
285 287 3.6189984180932492e-05
286 287 3.317861528656516e-05
287 287 0.26462532340998374
288 287 2.6500645512082403e-05
282 288 0.0036147918765881896
283 288 -7.6225259527799255e-06
284 288 0.00019228767357331304
285 288 3.36154116811775e-05
286 288 3.0818272986616129e-05
287 288 2.6500645512082403e-05
288 288 0.2646214084822886
289 289 0.26620352960115196
290 289 0.02553180967723942
291 289 -0.001928178847522596
292 289 0.0037324084350525443
293 289 0.010982700991367471
294 289 0.0038162272946390794
295 289 0.0039396926626502453
289 290 0.02553180967723942
290 290 0.26588639775806849
291 290 -9.2735772560314942e-05
292 290 0.0001795102047613234
293 290 0.00052821306620078122
294 290 0.0001835414732864755
295 290 0.00018947954085819999
289 291 -0.001928178847522596
290 291 -9.2735772560314942e-05
291 291 0.26466544869322728
292 291 -1.3556727239894505e-05
293 291 -3.9890993788087859e-05
294 291 -1.3861171256873498e-05
295 291 -1.4309617976150353e-05
289 292 0.0037324084350525443
290 292 0.0001795102047613234
291 292 -1.3556727239894505e-05
292 292 0.26468468721386407
293 292 7.7217671943962632e-05
294 292 2.6831303841619516e-05
295 292 2.7699369747358043e-05
289 293 0.010982700991367471
290 293 0.00052821306620078122
291 293 -3.9890993788087859e-05
292 293 7.7217671943962632e-05
293 293 0.26488566007196745
294 293 7.8951752582481777e-05
295 293 8.150605724913935e-05
289 294 0.0038162272946390794
290 294 0.0001835414732864755
291 294 -1.3861171256873498e-05
292 294 2.6831303841619516e-05
293 294 7.8951752582481777e-05
294 294 0.26468587908306601
295 294 2.8321415706124247e-05
289 295 0.0039396926626502453
290 295 0.00018947954085819999
291 295 -1.4309617976150353e-05
292 295 2.7699369747358043e-05
293 295 8.150605724913935e-05
294 295 2.8321415706124247e-05
295 295 0.26468768291825712
296 296 0.27027867410373624
297 296 -0.0057783185036025392
298 296 0.0017960075301294714
299 296 0.019494281295308398
300 296 -6.0915927294794521e-05
301 296 0.0057010213386002309
302 296 0.0050139262792693864
296 297 -0.0057783185036025392
297 297 0.26946171095934635
298 297 -1.9229788143535036e-05
299 297 -0.00020872456993108171
300 297 6.5222464649768894e-07
301 297 -6.1040630790201619e-05
302 297 -5.3683928658529986e-05
296 298 0.0017960075301294714
297 298 -1.9229788143535036e-05
298 298 0.26940581968196359
299 298 6.4875430297852557e-05
300 298 -2.0272340053867974e-07
301 298 1.8972549276178808e-05
302 298 1.6685951121860348e-05
296 299 0.019494281295308398
297 299 -0.00020872456993108171
298 299 6.4875430297852557e-05
299 299 0.27010401564202619
300 299 -2.2004066959327315e-06
301 299 0.00020593243974442971
302 299 0.00018111317430047932
296 300 -6.0915927294794521e-05
297 300 6.5222464649768894e-07
298 300 -2.0272340053867974e-07
299 300 -2.2004066959327315e-06
300 300 0.26939984958643876
301 300 -6.4349976985970654e-07
302 300 -5.6594427825726683e-07
296 301 0.0057010213386002309
297 301 -6.1040630790201619e-05
298 301 1.8972549276178808e-05
299 301 0.00020593243974442971
300 301 -6.4349976985970654e-07
301 301 0.26946006679453666
302 301 5.2965793185571306e-05
296 302 0.0050139262792693864
297 302 -5.3683928658529986e-05
298 302 1.6685951121860348e-05
299 302 0.00018111317430047932
300 302 -5.6594427825726683e-07
301 302 5.2965793185571306e-05
302 302 0.26944642499235283
303 303 0.27841617477296005
304 303 -0.00706613134853916
305 303 0.017504433256818438
306 303 -0.0054547487653391728
307 303 0.00022578587656161129
308 303 -0.0011813321310652288
309 303 0.0094355468429416708
303 304 -0.00706613134853916
304 304 0.27764881041350725
305 304 -0.00022247148672641388
306 304 6.9326784234581022e-05
307 304 -2.8696113095190879e-06
308 304 1.5014065960312759e-05
309 304 -0.00011992048548091575
303 305 0.017504433256818438
304 305 -0.00022247148672641388
305 305 0.27811011692729126
306 305 -0.00017173839654069815
307 305 7.1086875070434247e-06
308 305 -3.7193296098309548e-05
309 305 0.00029707063606451744
303 306 -0.0054547487653391728
304 306 6.9326784234581022e-05
305 306 -0.00017173839654069815
306 306 0.27761252115291241
307 306 -2.2152162159904721e-06
308 306 1.1590211633508392e-05
309 306 -9.2573444767784339e-05
303 307 0.00022578587656161129
304 307 -2.8696113095190879e-06
305 307 7.1086875070434247e-06
306 307 -2.2152162159904721e-06
307 307 0.27755909555771996
308 307 -4.7974823512216512e-07
309 307 3.8318495080904859e-06
303 308 -0.0011813321310652288
304 308 1.5014065960312759e-05
305 308 -3.7193296098309548e-05
306 308 1.1590211633508392e-05
307 308 -4.7974823512216512e-07
308 308 0.27756151395047107
309 308 -2.0048583260603388e-05
303 309 0.0094355468429416708
304 309 -0.00011992048548091575
305 309 0.00029707063606451744
306 309 -9.2573444767784339e-05
307 309 3.8318495080904859e-06
308 309 -2.0048583260603388e-05
309 309 0.27771913609258947
310 310 0.27829336464762755
311 310 0.017142160498607482
312 310 -0.007585732949541131
313 310 -0.0053918404179192723
314 310 -0.0020512766189117178
315 310 0.012907181636600812
316 310 -0.0050772406033278393
310 311 0.017142160498607482
311 311 0.27778360361761928
312 311 -0.00023406770609756748
313 311 -0.00016637228421583926
314 311 -6.3294821469991755e-05
315 311 0.00039826796144287573
316 311 -0.00015666489569716077
310 312 -0.007585732949541131
311 312 -0.00023406770609756748
312 312 0.27735823927149811
313 312 7.3622908755814924e-05
314 312 2.8009165635757703e-05
315 312 -0.00017624116855685827
316 312 6.932720420059748e-05
310 313 -0.0053918404179192723
311 313 -0.00016637228421583926
312 313 7.3622908755814924e-05
313 313 0.27730699005444742
314 313 1.9908551006427053e-05
315 313 -0.00012526993268114904
316 313 4.9276875966578265e-05
310 314 -0.0020512766189117178
311 314 -6.3294821469991755e-05
312 314 2.8009165635757703e-05
313 314 1.9908551006427053e-05
314 314 0.27726223387455168
315 314 -4.7657805877839546e-05
316 314 1.8746939020547283e-05
310 315 0.012907181636600812
311 315 0.00039826796144287573
312 315 -0.00017624116855685827
313 315 -0.00012526993268114904
314 315 -4.7657805877839546e-05
315 315 0.27755453552062537
316 315 -0.000117960759089068
310 316 -0.0050772406033278393
311 316 -0.00015666489569716077
312 316 6.932720420059748e-05
313 316 4.9276875966578265e-05
314 316 1.8746939020547283e-05
315 316 -0.000117960759089068
316 316 0.27730106154637429
317 317 0.32337088430230315
318 317 -0.28478186561130125
319 317 -0.12471290257810114
317 318 -0.28478186561130125
318 318 5.3318536279674369
319 318 -0.23987957028721818
317 319 -0.12471290257810114
318 319 -0.23987957028721818
319 319 0.53558943693747574
320 320 0.29450087101484651
321 320 -0.21907774055381751
322 320 -0.066772147772643009
320 321 -0.21907774055381751
321 321 4.8869121385128533
322 321 -0.12046181591684869
320 322 -0.066772147772643009
321 322 -0.12046181591684869
322 322 0.28266052718450807
323 323 0.34985217630568477
324 323 -0.29994394099158078
325 323 -0.13051774577382094
323 324 -0.29994394099158078
324 324 5.312178321128572
325 324 -0.21469270229442616
323 325 -0.13051774577382094
324 325 -0.21469270229442616
325 325 0.53206822904333384
326 326 0.32098254028561002
327 326 -0.23183948085299069
328 326 -0.069775814651057796
326 327 -0.23183948085299069
327 327 4.8814155161556156
328 327 -0.10859068204865144
326 328 -0.069775814651057796
327 328 -0.10859068204865144
328 328 0.28338710175455328
329 329 0.38860440746800073
330 329 -0.32434545314210195
331 329 -0.13659087489635874
329 330 -0.32434545314210195
330 330 5.3093184629640744
331 330 -0.19399475680504646
329 331 -0.13659087489635874
330 331 -0.19399475680504646
331 331 0.54337761623136061
332 332 0.4123156199796677
333 332 -0.33874779558470103
334 332 -0.14053733991890649
332 333 -0.33874779558470103
333 333 5.3018097819901211
334 333 -0.17831501710788483
332 334 -0.14053733991890649
333 334 -0.17831501710788483
334 334 0.54187843625312881
335 335 0.31620244278608678
336 335 -0.22957966730158508
337 335 -0.069216588710711624
335 336 -0.22957966730158508
336 336 4.8822387698921652
337 336 -0.1107127825748606
335 337 -0.069216588710711624
336 337 -0.1107127825748606
337 337 0.28321309178027981
338 338 0.25639171927377036
339 338 -0.19994027956250174
340 338 -0.062549200185497755
338 339 -0.19994027956250174
339 339 4.9012013824620499
340 339 -0.13931668774177244
338 340 -0.062549200185497755
339 340 -0.13931668774177244
340 340 0.28250739864148899
341 341 0.32964161776515799
342 341 -0.30339247137155212
343 341 -0.36289018233662285
341 342 -0.30339247137155212
342 342 6.8972774645632597
343 342 -1.0717627609656835
341 343 -0.36289018233662285
342 343 -1.0717627609656835
343 343 1.7932297328271496
344 344 0.36353928887437403
345 344 -0.19351529163730385
346 344 -0.67132232933086078
344 345 -0.19351529163730385
345 345 9.0237436523180623
346 345 -2.5735024369548003
344 346 -0.67132232933086078
345 346 -2.5735024369548003
346 346 3.6754625504349931
347 347 0.30075237938286675
348 347 -0.11604168061800202
349 347 -0.61360613656529783
347 348 -0.11604168061800202
348 348 9.486349049346563
349 348 -2.9236635542007106
347 349 -0.61360613656529783
348 349 -2.9236635542007106
349 349 3.6864956545326582
350 350 0.25064559537653114
351 350 -0.18043153166945847
352 350 -0.39660654219608715
350 351 -0.18043153166945847
351 351 7.983282676335957
352 351 -1.8564645298619946
350 352 -0.39660654219608715
351 352 -1.8564645298619946
352 352 2.3644565645286599
353 353 0.36511983665641257
354 353 -0.020961392820923574
355 353 -0.88359451380851539
353 354 -0.020961392820923574
354 354 11.155500964548128
355 354 -4.1935674627008641
353 355 -0.88359451380851539
354 355 -4.1935674627008641
355 355 5.2994094160184133
356 356 0.24018271341854955
357 356 -0.11135342713331731
358 356 -0.46844211075070896
356 357 -0.11135342713331731
357 357 9.0298388752317589
358 357 -2.5720512124611226
356 358 -0.46844211075070896
357 358 -2.5720512124611226
358 358 3.0013321939893642
359 359 0.44328371582213216
360 359 0.64713590579993985
361 359 -1.6649041409139809
359 360 0.64713590579993985
360 360 19.682647329240183
361 360 -10.757356942624169
359 361 -1.6649041409139809
360 361 -10.757356942624169
361 361 11.536347137843483
362 362 0.46705223328681328
363 362 1.0760887879424912
364 362 -2.0390553696489992
362 363 1.0760887879424912
363 363 25.554281939370309
364 363 -15.102167625112276
362 364 -2.0390553696489992
363 364 -15.102167625112276
364 364 15.12222562267652
365 365 0.50928984421679124
366 365 1.3623966469670703
367 365 -2.3549588769832472
365 366 1.3623966469670703
366 366 29.146709221317849
367 366 -17.94947209727934
365 367 -2.3549588769832472
366 367 -17.94947209727934
367 367 17.745886207396552
368 368 0.41663058379434126
369 368 1.7273532356798356
370 368 -2.3287058454143419
368 369 1.7273532356798356
369 369 38.074885873626634
370 369 -23.216235794021305
368 370 -2.3287058454143419
369 370 -23.216235794021305
370 370 20.377753879913307
371 371 0.26574964440756688
372 371 0.012843207128646363
373 371 -0.0092347586652456633
374 371 -0.013057901622363446
375 371 0.0094441627923659826
376 371 0.0037799709829775736
377 371 0.0053666876589808978
371 372 0.012843207128646363
372 372 0.26501806490207275
373 372 -0.00022358828927781566
374 372 -0.0003161526999389745
375 372 0.00022865829838663527
376 372 9.151914806224728e-05
377 372 0.00012993609863089844
371 373 -0.0092347586652456633
372 373 -0.00022358828927781566
373 373 0.26486787885761753
374 373 0.00022732592070326391
375 373 -0.00016441408919555951
376 373 -6.5805778660895593e-05
377 373 -9.3429040016297977e-05
371 374 -0.013057901622363446
372 374 -0.0003161526999389745
373 374 0.00022732592070326391
374 374 0.26502854799118541
375 374 -0.00023248068302269951
376 374 -9.3049035181704958e-05
377 374 -0.00013210818576082654
371 375 0.0094441627923659826
372 375 0.00022865829838663527
373 375 -0.00016441408919555951
374 375 -0.00023248068302269951
375 375 0.26487525258452116
376 375 6.7297967264785997e-05
377 375 9.5547603942167691e-05
371 376 0.0037799709829775736
372 376 9.151914806224728e-05
373 376 -6.5805778660895593e-05
374 376 -9.3049035181704958e-05
375 376 6.7297967264785997e-05
376 376 0.26473404591771582
377 376 3.8242370269852862e-05
371 377 0.0053666876589808978
372 377 0.00012993609863089844
373 377 -9.3429040016297977e-05
374 377 -0.00013210818576082654
375 377 9.5547603942167691e-05
376 377 3.8242370269852862e-05
377 377 0.26476140565188477
378 378 0.26535085138337505
379 378 0.0054761039594337039
380 378 -0.012976832182770105
381 378 0.0017947881714476333
382 378 0.0022495436410833992
383 378 -0.0007520523645172339
384 378 0.0027965811324428833
378 379 0.0054761039594337039
379 379 0.26500186463791159
380 379 -0.00013400527198845241
381 379 1.8533882051417302e-05
382 379 2.3229914915099499e-05
383 379 -7.7660695797930752e-06
384 379 2.8878898178891702e-05
378 380 -0.012976832182770105
379 380 -0.00013400527198845241
380 380 0.26526287059558434
381 380 -4.3920107955979903e-05
382 380 -5.50483901887882e-05
383 380 1.8403409139645418e-05
384 380 -6.8434897888523151e-05
378 381 0.0017947881714476333
379 381 1.8533882051417302e-05
380 381 -4.3920107955979903e-05
381 381 0.26495139010752949
382 381 7.6135838220403478e-06
383 381 -2.5453223539410876e-06
384 381 9.4650330307599645e-06
378 382 0.0022495436410833992
379 382 2.3229914915099499e-05
380 382 -5.50483901887882e-05
381 382 7.6135838220403478e-06
382 382 0.26495485832421123
383 382 -3.1902448472218855e-06
384 382 1.1863241136594291e-05
378 383 -0.0007520523645172339
379 383 -7.7660695797930752e-06
380 383 1.8403409139645418e-05
381 383 -2.5453223539410876e-06
382 383 -3.1902448472218855e-06
383 383 0.26494638218556715
384 383 -3.9660393266774099e-06
378 384 0.0027965811324428833
379 384 2.8878898178891702e-05
380 384 -6.8434897888523151e-05
381 384 9.4650330307599645e-06
382 384 1.1863241136594291e-05
383 384 -3.9660393266774099e-06
384 384 0.26496006375394815
385 385 0.26528758529597379
386 385 0.00075623541665753482
387 385 -0.00062488971362426775
388 385 -0.0019907445824759546
389 385 -0.0002839859997919729
390 385 -0.012100377808303756
391 385 -0.0035846357485898902
385 386 0.00075623541665753482
386 386 0.2649788663713884
387 386 -8.9118346560383559e-07
388 386 -2.8390908306897174e-06
389 386 -4.0500527046562025e-07
390 386 -1.7256895729290015e-05
391 386 -5.1122110665379913e-06
385 387 -0.00062488971362426775
386 387 -8.9118346560383559e-07
387 387 0.26497852426937607
388 387 2.3459872641040309e-06
389 387 3.3466248988466883e-07
390 387 1.4259655647949271e-05
391 387 4.2243037538169352e-06
385 388 -0.0019907445824759546
386 388 -2.8390908306897174e-06
387 388 2.3459872641040309e-06
388 388 0.26498526160697955
389 388 1.0661521932114988e-06
390 388 4.5427747665240548e-05
391 388 1.3457590402424759e-05
385 389 -0.0002839859997919729
386 389 -4.0500527046562025e-07
387 389 3.3466248988466883e-07
388 389 1.0661521932114988e-06
389 389 0.26497793995985525
390 389 6.4804116271739854e-06
391 389 1.9197677586896639e-06
385 390 -0.012100377808303756
386 390 -1.7256895729290015e-05
387 390 1.4259655647949271e-05
388 390 4.5427747665240548e-05
389 390 6.4804116271739854e-06
390 390 0.26525391214748256
391 390 8.1799508431267622e-05
385 391 -0.0035846357485898902
386 391 -5.1122110665379913e-06
387 391 4.2243037538169352e-06
388 391 1.3457590402424759e-05
389 391 1.9197677586896639e-06
390 391 8.1799508431267622e-05
391 391 0.2650020202902863
392 392 0.26519585773088783
393 392 -0.0068389755922130899
394 392 -0.0020520594039411702
395 392 -0.00026036297207000748
396 392 -0.00070867340368126533
397 392 -0.0027168078150790389
398 392 -0.0047861013141993151
392 393 -0.0068389755922130899
393 393 0.26512971987033124
394 393 2.6467361605070176e-05
395 393 3.3581488513990562e-06
396 393 9.1404348232336299e-06
397 393 3.5041254027575415e-05
398 393 6.173090014749225e-05
392 394 -0.0020520594039411702
393 394 2.6467361605070176e-05
394 394 0.26504945272611324
395 394 1.0076247293811016e-06
396 394 2.7426205843583448e-06
397 394 1.0514255224868928e-05
398 394 1.852258023930492e-05
392 395 -0.00026036297207000748
393 395 3.3581488513990562e-06
394 395 1.0076247293811016e-06
395 395 0.26504163894465677
396 395 3.4798059219556138e-07
397 395 1.3340367896717865e-06
398 395 2.3501239936077778e-06
392 396 -0.00070867340368126533
393 396 9.1404348232336299e-06
394 396 2.7426205843583448e-06
395 396 3.4798059219556138e-07
396 396 0.26504245825529271
397 396 3.6310708272239691e-06
398 396 6.3967251425260795e-06
392 397 -0.0027168078150790389
393 397 3.5041254027575415e-05
394 397 1.0514255224868928e-05
395 397 1.3340367896717865e-06
396 397 3.6310708272239691e-06
397 397 0.26505543136340498
398 397 2.4522823585381378e-05
392 398 -0.0047861013141993151
393 398 6.173090014749225e-05
394 398 1.852258023930492e-05
395 398 2.3501239936077778e-06
396 398 6.3967251425260795e-06
397 398 2.4522823585381378e-05
398 398 0.26508471206295281
399 399 0.26517553570898961
400 399 -0.0036577347734193552
401 399 -0.0017229087461476571
402 399 -0.0053758332381619884
403 399 -4.3905837119021875e-05
404 399 -0.00038713274511458998
405 399 -0.0043149674179104288
399 400 -0.0036577347734193552
400 400 0.26508003242023098
401 400 1.1885293632693917e-05
402 400 3.7084585413367677e-05
403 400 3.0287951553766423e-07
404 400 2.6705920210839889e-06
405 400 2.9766320991777777e-05
399 401 -0.0017229087461476571
400 401 1.1885293632693917e-05
401 401 0.26506039829440853
402 401 1.7468012448650471e-05
403 401 1.4266582972088537e-07
404 401 1.2579332935658517e-06
405 401 1.4020878481965541e-05
399 402 -0.0053758332381619884
400 402 3.7084585413367677e-05
401 402 1.7468012448650471e-05
402 402 0.26510930377324154
403 402 4.4514702887100255e-07
404 402 3.9250132231683096e-06
405 402 4.3748053830542714e-05
399 403 -4.3905837119021875e-05
400 403 3.0287951553766423e-07
401 403 1.4266582972088537e-07
402 403 4.4514702887100255e-07
403 403 0.26505480358089339
404 403 3.2056610320999337e-08
405 403 3.5730180618748772e-07
399 404 -0.00038713274511458998
400 404 2.6705920210839889e-06
401 404 1.2579332935658517e-06
402 404 3.9250132231683096e-06
403 404 3.2056610320999337e-08
404 404 0.26505508259933097
405 404 3.1504519248497784e-06
399 405 -0.0043149674179104288
400 405 2.9766320991777777e-05
401 405 1.4020878481965541e-05
402 405 4.3748053830542714e-05
403 405 3.5730180618748772e-07
404 405 3.1504519248497784e-06
405 405 0.26508991476718968
406 406 0.26513484108464858
407 406 0.0014468351482630876
408 406 -0.0044602946870024975
409 406 -0.0013609175531377052
410 406 0.00046471995611944842
411 406 -0.00052112852821334583
412 406 0.0013303572860107508
406 407 0.0014468351482630876
407 407 0.26508956988700821
408 407 -1.2170995983620033e-05
409 407 -3.7135936604243794e-06
410 407 1.2681011270219504e-06
411 407 -1.4220255989626051e-06
412 407 3.6302025585887999e-06
406 408 -0.0044602946870024975
407 408 -1.2170995983620033e-05
408 408 0.2651231425195133
409 408 1.1448244185359757e-05
410 408 -3.9092945220663094e-06
411 408 4.3838119577401403e-06
412 408 -1.1191166598526841e-05
406 409 -0.0013609175531377052
407 409 -3.7135936604243794e-06
408 409 1.1448244185359757e-05
409 409 0.26508911491520559
410 409 -1.1927973169504928e-06
411 409 1.3375812724501683e-06
412 409 -3.4146297795984703e-06
406 410 0.00046471995611944842
407 410 1.2681011270219504e-06
408 410 -3.9092945220663094e-06
409 410 -1.1927973169504928e-06
410 410 0.26508602915736862
411 410 -4.5675118878883403e-07
412 410 1.1660122963955897e-06
406 411 -0.00052112852821334583
407 411 -1.4220255989626051e-06
408 411 4.3838119577401403e-06
409 411 1.3375812724501683e-06
410 411 -4.5675118878883403e-07
411 411 0.26508613403884562
412 411 -1.3075450363123918e-06
406 412 0.0013303572860107508
407 412 3.6302025585887999e-06
408 412 -1.1191166598526841e-05
409 412 -3.4146297795984703e-06
410 412 1.1660122963955897e-06
411 412 -1.3075450363123918e-06
412 412 0.26508895979844993
413 413 0.26597859972736854
414 413 0.0019620115822083883
415 413 -0.0040685615545644638
416 413 -0.0040956738309289682
417 413 0.0019527372020390209
418 413 -0.0011203971973298068
419 413 0.004546150784937965
413 414 0.0019620115822083883
414 414 0.26586754411253533
415 414 -1.5009366194242837e-05
416 414 -1.5109386331300325e-05
417 414 7.203859976910775e-06
418 414 -4.1332671491378267e-06
419 414 1.6771244822098537e-05
413 415 -0.0040685615545644638
414 415 -1.5009366194242837e-05
415 415 0.26589143048778324
416 415 3.1331858026748957e-05
417 415 -1.4938417291877044e-05
418 415 8.5710257626503272e-06
419 415 -3.4778001579672175e-05
413 416 -0.0040956738309289682
414 416 -1.5109386331300325e-05
415 416 3.1331858026748957e-05
416 416 0.26589184668713173
417 416 -1.5037964636223174e-05
418 416 8.6281417767717185e-06
419 416 -3.5009756900954066e-05
413 417 0.0019527372020390209
414 417 7.203859976910775e-06
415 417 -1.4938417291877044e-05
416 417 -1.5037964636223174e-05
417 417 0.26586747584587017
418 417 -4.1137292976642313e-06
419 417 1.6691967563083273e-05
413 418 -0.0011203971973298068
414 418 -4.1332671491378267e-06
415 418 8.5710257626503272e-06
416 418 8.6281417767717185e-06
417 418 -4.1137292976642313e-06
418 418 0.26586266632051825
419 418 -9.5771380071371428e-06
413 419 0.004546150784937965
414 419 1.6771244822098537e-05
415 419 -3.4778001579672175e-05
416 419 -3.5009756900954066e-05
417 419 1.6691967563083273e-05
418 419 -9.5771380071371428e-06
419 419 0.26589916646533496
420 420 0.26514553391432327
421 420 -0.0018907014854746104
422 420 0.0017887650324269497
423 420 -0.0037842235905636923
424 420 -0.00074444257483928175
425 420 -0.0035787937977722504
426 420 0.0011814335645438875
420 421 -0.0018907014854746104
421 421 0.26508465812019832
422 421 -6.378481946774197e-06
423 421 1.3494003637927936e-05
424 421 2.6545764468460871e-06
425 421 1.2761470185576202e-05
426 421 -4.2128242257352058e-06
420 422 0.0017887650324269497
421 422 -6.378481946774197e-06
422 422 0.26508395073585711
423 422 -1.2766479552909663e-05
424 422 -2.511455965154909e-06
425 422 -1.207344036363709e-05
426 422 3.9856914064171393e-06
420 423 -0.0037842235905636923
421 423 1.3494003637927936e-05
422 423 -1.2766479552909663e-05
423 423 0.26510492428548199
424 423 5.3131130907151371e-06
425 423 2.5541978412530941e-05
426 423 -8.4319333011596506e-06
420 424 -0.00074444257483928175
421 424 2.6545764468460871e-06
422 424 -2.511455965154909e-06
423 424 5.3131130907151371e-06
424 424 0.26507896135714576
425 424 5.0246862324225157e-06
426 424 -1.6587524461400414e-06
420 425 -0.0035787937977722504
421 425 1.2761470185576202e-05
422 425 -1.207344036363709e-05
423 425 2.5541978412530941e-05
424 425 5.0246862324225157e-06
425 425 0.26510207155775706
426 425 -7.974198637909886e-06
420 426 0.0011814335645438875
421 426 -4.2128242257352058e-06
422 426 3.9856914064171393e-06
423 426 -8.4319333011596506e-06
424 426 -1.6587524461400414e-06
425 426 -7.974198637909886e-06
426 426 0.26508054859460212
427 427 0.2651572758140342
428 427 -0.0015234772954463697
429 427 -0.0056714205482677037
430 427 0.00072902424526063471
431 427 -0.0005921348014234078
432 427 0.0004137070051553645
433 427 -0.0034157128439095187
427 428 -0.0015234772954463697
428 428 0.26507262247888902
429 428 1.6295482010862687e-05
430 428 -2.0946782861581341e-06
431 428 1.7013589315904545e-06
432 428 -1.1886889718196406e-06
433 428 9.8142408464491953e-06
427 429 -0.0056714205482677037
428 429 1.6295482010862687e-05
429 429 0.26512890801548961
430 429 -7.7978198360000556e-06
431 429 6.333617201544022e-06
432 429 -4.4251102923735295e-06
433 429 3.6535291578396608e-05
427 430 0.00072902424526063471
428 430 -2.0946782861581341e-06
429 430 -7.7978198360000556e-06
430 430 0.26506924748721306
431 430 -8.1414532052921818e-07
432 430 5.6881916331844629e-07
433 430 -4.6963742402162935e-06
427 431 -0.0005921348014234078
428 431 1.7013589315904545e-06
429 431 6.333617201544022e-06
430 431 -8.1414532052921818e-07
431 431 0.26506890640078856
432 431 -4.620115510657412e-07
433 431 3.8145324332063651e-06
427 432 0.0004137070051553645
428 432 -1.1886889718196406e-06
429 432 -4.4251102923735295e-06
430 432 5.6881916331844629e-07
431 432 -4.620115510657412e-07
432 432 0.26506856792191519
433 432 -2.6651005568601704e-06
427 433 -0.0034157128439095187
428 433 9.8142408464491953e-06
429 433 3.6535291578396608e-05
430 433 -4.6963742402162935e-06
431 433 3.8145324332063651e-06
432 433 -2.6651005568601704e-06
433 433 0.26509024915054696
434 434 0.26514720485223309
435 434 -0.0020864037249819986
436 434 0.00026348315634250135
437 434 -0.0055753944328755644
438 434 4.6151887687701285e-05
439 434 -0.001378116330172685
440 434 0.001007787274977915
434 435 -0.0020864037249819986
435 435 0.26508294606995925
436 435 -1.036796473992525e-06
437 435 2.1938970860091003e-05
438 435 -1.8160597089746194e-07
439 435 5.4228367828462975e-06
440 435 -3.9656056490890522e-06
434 436 0.00026348315634250135
435 436 -1.036796473992525e-06
436 436 0.26507486708114592
437 436 -2.7705804106407132e-06
438 436 2.2934254693741292e-08
439 436 -6.8482726270385949e-07
440 436 5.007996682140953e-07
434 437 -0.0055753944328755644
435 437 2.1938970860091003e-05
436 437 -2.7705804106407132e-06
437 437 0.26513336258521714
438 437 -4.8529673667420578e-07
439 437 1.4491180996015017e-05
440 437 -1.0597093646917139e-05
434 438 4.6151887687701285e-05
435 438 -1.8160597089746194e-07
436 438 2.2934254693741292e-08
437 438 -4.8529673667420578e-07
438 438 0.26507474016565685
439 438 -1.1995480603966859e-07
440 438 8.772040825034991e-08
434 439 -0.001378116330172685
435 439 5.4228367828462975e-06
436 439 -6.8482726270385949e-07
437 439 1.4491180996015017e-05
438 439 -1.1995480603966859e-07
439 439 0.26507831805347337
440 439 -2.6193712360640197e-06
434 440 0.001007787274977915
435 440 -3.9656056490890522e-06
436 440 5.007996682140953e-07
437 440 -1.0597093646917139e-05
438 440 8.772040825034991e-08
439 440 -2.6193712360640197e-06
440 440 0.26507665163916727
441 441 0.26513843251476865
442 441 0.003571093663854647
443 441 0.0017779599169703458
444 441 0.0013091909053485219
445 441 0.001106722031403558
446 441 0.0025533358251579419
447 441 0.0014241195066385325
441 442 0.003571093663854647
442 442 0.26511080727840436
443 442 1.1974650647006773e-05
444 442 8.8174674649026606e-06
445 442 7.4538292809130312e-06
446 442 1.7196846902405775e-05
447 442 9.5915174514412282e-06
441 443 0.0017779599169703458
442 443 1.1974650647006773e-05
443 443 0.2650927176653467
444 443 4.3900007105568764e-06
445 443 3.7110787161763682e-06
446 443 8.5618881409428119e-06
447 443 4.775381207217248e-06
441 444 0.0013091909053485219
442 444 8.8174674649026606e-06
443 444 4.3900007105568764e-06
444 444 0.26508998833322212
445 444 2.7326321914666672e-06
446 444 6.3044987571115466e-06
447 444 3.5163254167812269e-06
441 445 0.001106722031403558
442 445 7.4538292809130312e-06
443 445 3.7110787161763682e-06
444 445 2.7326321914666672e-06
445 445 0.26508906580599656
446 445 5.3294959833182251e-06
447 445 2.9725189752216421e-06
441 446 0.0025533358251579419
442 446 1.7196846902405775e-05
443 446 8.5618881409428119e-06
444 446 6.3044987571115466e-06
445 446 5.3294959833182251e-06
446 446 0.26509905154469426
447 446 6.8579453331833174e-06
441 447 0.0014241195066385325
442 447 9.5915174514412282e-06
443 447 4.775381207217248e-06
444 447 3.5163254167812269e-06
445 447 2.9725189752216421e-06
446 447 6.8579453331833174e-06
447 447 0.26509058079006775
448 448 0.26532565536771147
449 448 -0.0062227701052683703
450 448 -0.0042021170290413414
451 448 -0.0079027038379891213
452 448 -0.0031850208235552112
453 448 -0.0027230351872445518
454 448 -0.004942877355380593
448 449 -0.0062227701052683703
449 449 0.26509542575457867
450 449 4.9304993930128442e-05
451 449 9.2725348216336629e-05
452 449 3.7371027814650944e-05
453 449 3.1950379404175778e-05
454 449 5.7996608928335433e-05
448 450 -0.0042021170290413414
449 450 4.9304993930128442e-05
450 450 0.26505570640503129
451 450 6.2615645150344534e-05
452 450 2.5235936683531043e-05
453 450 2.1575477015445453e-05
454 450 3.9163995114985698e-05
448 451 -0.0079027038379891213
449 451 9.2725348216336629e-05
450 451 6.2615645150344534e-05
451 451 0.26514016969095155
452 451 4.7459918966057223e-05
453 451 4.0575882070401363e-05
454 451 7.3653697021568523e-05
448 452 -0.0031850208235552112
449 452 3.7371027814650944e-05
450 452 2.5235936683531043e-05
451 452 4.7459918966057223e-05
452 452 0.26504153942612446
453 452 1.6353267435773387e-05
454 452 2.9684594482439098e-05
448 453 -0.0027230351872445518
449 453 3.1950379404175778e-05
450 453 2.1575477015445453e-05
451 453 4.0575882070401363e-05
452 453 1.6353267435773387e-05
453 453 0.26503639292482645
454 453 2.5378859283105075e-05
448 454 -0.004942877355380593
449 454 5.7996608928335433e-05
450 454 3.9163995114985698e-05
451 454 7.3653697021568523e-05
452 454 2.9684594482439098e-05
453 454 2.5378859283105075e-05
454 454 0.26506847961840818
455 455 0.2652789026084047
456 455 0.0006366747082615559
457 455 0.0012790380783121301
458 455 0.00070293799780333014
459 455 0.0038485842364547789
460 455 0.0037408999187210968
461 455 -0.0014795965279974566
455 456 0.0006366747082615559
456 456 0.26521646050435854
457 456 1.5350414441374685e-06
458 456 8.4363317838908102e-07
459 456 4.6188900896588831e-06
460 456 4.4896524278505616e-06
461 456 -1.7757422781933296e-06
455 457 0.0012790380783121301
456 457 1.5350414441374685e-06
457 457 0.26521878019568795
458 457 1.6948041838091023e-06
459 457 9.2790497683555697e-06
460 457 9.0194197116564086e-06
461 457 -3.5673507390919294e-06
455 458 0.00070293799780333014
456 458 8.4363317838908102e-07
457 458 1.6948041838091023e-06
458 458 0.26521662783338462
459 458 5.0996110094648617e-06
460 458 4.9569226600558182e-06
461 458 -1.9605564748382435e-06
455 459 0.0038485842364547789
456 459 4.6188900896588831e-06
457 459 9.2790497683555697e-06
458 459 5.0996110094648617e-06
459 459 0.26524361675810348
460 459 2.7139142385860557e-05
461 459 -1.0734043069688882e-05
455 460 0.0037408999187210968
456 460 4.4896524278505616e-06
457 460 9.0194197116564086e-06
458 460 4.9569226600558182e-06
459 460 2.7139142385860557e-05
460 460 0.26524207617988699
461 460 -1.0433701948521639e-05
455 461 -0.0014795965279974566
456 461 -1.7757422781933296e-06
457 461 -3.5673507390919294e-06
458 461 -1.9605564748382435e-06
459 461 -1.0734043069688882e-05
460 461 -1.0433701948521639e-05
461 461 0.26521982312332743
462 462 0.26540610494817551
463 462 0.0081750438295985443
464 462 -0.0010678778915536294
465 462 0.0009503165002631576
466 462 0.0008402298921168002
467 462 0.0038615133659654077
468 462 0.0040566464634927074
462 463 0.0081750438295985443
463 463 0.26534180848249889
464 463 -1.6452294014228627e-05
465 463 1.4641080775776183e-05
466 463 1.2945028016768305e-05
467 463 5.9492526008106774e-05
468 463 6.2498850156044288e-05
462 464 -0.0010678778915536294
463 464 -1.6452294014228627e-05
464 464 0.26521800852162952
465 464 -1.9125140849147026e-06
466 464 -1.6909645394926333e-06
467 464 -7.7713042964634904e-06
468 464 -8.1640100922174857e-06
462 465 0.0009503165002631576
463 465 1.4641080775776183e-05
464 465 -1.9125140849147026e-06
465 465 0.26521756138269348
466 465 1.5048082893652072e-06
467 465 6.9157707635942155e-06
468 465 7.2652440511355864e-06
462 466 0.0008402298921168002
463 466 1.2945028016768305e-05
464 466 -1.6909645394926333e-06
465 466 1.5048082893652072e-06
466 466 0.26521718990319904
467 466 6.1146337257010444e-06
468 466 6.4236233124411217e-06
462 467 0.0038615133659654077
463 467 5.9492526008106774e-05
464 467 -7.7713042964634904e-06
465 467 6.9157707635942155e-06
466 467 6.1146337257010444e-06
467 467 0.26524396093824459
468 467 2.9521572026468979e-05
462 468 0.0040566464634927074
463 468 6.2498850156044288e-05
464 468 -8.1640100922174857e-06
465 468 7.2652440511355864e-06
466 468 6.4236233124411217e-06
467 468 2.9521572026468979e-05
468 468 0.26524687279481673
469 469 0.2652357238079549
470 469 -0.0029920546576179341
471 469 -0.0019939922416915283
472 469 -8.5646439707028451e-05
473 469 -0.0012598267531865801
474 469 -0.0023916721355388207
475 469 0.003317475050683655
469 470 -0.0029920546576179341
470 470 0.26519368814945138
471 470 1.124810104197008e-05
472 470 4.831311715096868e-07
473 470 7.1066769062243747e-06
474 470 1.349141148963745e-05
475 470 -1.8713861465503769e-05
469 471 -0.0019939922416915283
470 471 1.124810104197008e-05
471 471 0.26518430604458543
472 471 3.2197266358650498e-07
473 471 4.7360961736245316e-06
474 471 8.9910689870960913e-06
475 471 -1.2471461535402703e-05
469 472 -8.5646439707028451e-05
470 472 4.831311715096868e-07
471 472 3.2197266358650498e-07
472 472 0.26517682381237095
473 472 2.0342595467519014e-07
474 472 3.8618658177516938e-07
475 472 -5.3567724894670539e-07
469 473 -0.0012598267531865801
470 473 7.1066769062243747e-06
471 473 4.7360961736245316e-06
472 473 2.0342595467519014e-07
473 473 0.26517980230181976
474 473 5.6806586369066446e-06
475 473 -7.879609842568458e-06
469 474 -0.0023916721355388207
470 474 1.349141148963745e-05
471 474 8.9910689870960913e-06
472 474 3.8618658177516938e-07
473 474 5.6806586369066446e-06
474 474 0.26518759422205651
475 474 -1.4958757822630083e-05
469 475 0.003317475050683655
470 475 -1.8713861465503769e-05
471 475 -1.2471461535402703e-05
472 475 -5.3567724894670539e-07
473 475 -7.879609842568458e-06
474 475 -1.4958757822630083e-05
475 475 0.26519755919228494
476 476 0.2651896019326962
477 476 -0.0033972001413171632
478 476 -0.0036572757917118339
479 476 -0.0012446891923623016
480 476 -0.0018827440731751027
481 476 -0.00060134649545239265
482 476 -0.0060956459637666154
476 477 -0.0033972001413171632
477 477 0.265084014069359
478 477 2.3431314411456556e-05
479 477 7.9744338332035162e-06
480 477 1.2062302885346128e-05
481 477 3.8526869745793442e-06
482 477 3.9053384336402141e-05
476 478 -0.0036572757917118339
477 478 2.3431314411456556e-05
478 478 0.26508747411841543
479 478 8.5849236422895232e-06
480 478 1.2985743111905046e-05
481 478 4.1476328208644877e-06
482 478 4.2043150587696606e-05
476 479 -0.0012446891923623016
477 479 7.9744338332035162e-06
478 479 8.5849236422895232e-06
479 479 0.26506517072614949
480 479 4.4194682125998536e-06
481 479 1.4115735427217575e-06
482 479 1.4308643408287428e-05
476 480 -0.0018827440731751027
477 480 1.2062302885346128e-05
478 480 1.2985743111905046e-05
479 480 4.4194682125998536e-06
480 480 0.26506893398328096
481 480 2.135176988534977e-06
482 480 2.1643566713229447e-05
476 481 -0.00060134649545239265
477 481 3.8526869745793442e-06
478 481 4.1476328208644877e-06
479 481 1.4115735427217575e-06
480 481 2.135176988534977e-06
481 481 0.26506293097238737
482 481 6.9129326590529738e-06
476 482 -0.0060956459637666154
477 482 3.9053384336402141e-05
478 482 4.2043150587696606e-05
479 482 1.4308643408287428e-05
480 482 2.1643566713229447e-05
481 482 6.9129326590529738e-06
482 482 0.26513232305851275
483 483 0.26519632465328846
484 483 -0.0028428385948129739
485 483 -0.0044303208057667716
486 483 -0.00065874736630649393
487 483 -0.0012998201697156377
488 483 -0.00088535488928947418
489 483 -8.1021553063710628e-05
483 484 -0.0028428385948129739
484 484 0.26515382011411553
485 484 2.3748553668960052e-05
486 484 3.5311883425354439e-06
487 484 6.9676329127921926e-06
488 484 4.745908710944519e-06
489 484 4.3431272488697527e-07
483 485 -0.0044303208057667716
484 485 2.3748553668960052e-05
485 485 0.26517559128368884
486 485 5.5030550139428773e-06
487 485 1.0858459962099748e-05
488 485 7.3960928146715715e-06
489 485 6.7683923553972055e-07
483 486 -0.00065874736630649393
484 486 3.5311883425354439e-06
485 486 5.5030550139428773e-06
486 486 0.26513939944691217
487 486 1.614551680516447e-06
488 486 1.0997299916252995e-06
489 486 1.0063967901473988e-07
483 487 -0.0012998201697156377
484 487 6.9676329127921926e-06
485 487 1.0858459962099748e-05
486 487 1.614551680516447e-06
487 487 0.2651417669780084
488 487 2.1699536081191642e-06
489 487 1.9857913875317592e-07
483 488 -0.00088535488928947418
484 488 4.745908710944519e-06
485 488 7.3960928146715715e-06
486 488 1.0997299916252995e-06
487 488 2.1699536081191642e-06
488 488 0.2651400592284644
489 488 1.3525948858331679e-07
483 489 -8.1021553063710628e-05
484 489 4.3431272488697527e-07
485 489 6.7683923553972055e-07
486 489 1.0063967901473988e-07
487 489 1.9857913875317592e-07
488 489 1.3525948858331679e-07
489 489 0.26513859357199082
490 490 0.26520563098086131
491 490 -0.0012199187585174012
492 490 -0.0055663750901931942
493 490 0.001878254678165793
494 490 0.00092155139505553196
495 490 -0.0040783134242547061
496 490 -0.0018740482404452734
490 491 -0.0012199187585174012
491 491 0.26510096205742795
492 491 1.2804972469618866e-05
493 491 -4.320765139815808e-06
494 491 -2.1199506055233129e-06
495 491 9.3818131681539356e-06
496 491 4.3110885876011862e-06
490 492 -0.0055663750901931942
491 492 1.2804972469618866e-05
492 492 0.26515658362869721
493 492 -1.9715246836662814e-05
494 492 -9.6731361499566792e-06
495 492 4.2808335190718884e-05
496 492 1.9671093634795598e-05
490 493 0.001878254678165793
491 493 -4.320765139815808e-06
492 493 -1.9715246836662814e-05
493 493 0.26510480822807531
494 493 3.2639936999934004e-06
495 493 -1.4444760644699289e-05
496 493 -6.6375914388675966e-06
490 494 0.00092155139505553196
491 494 -2.1199506055233129e-06
492 494 -9.6731361499566792e-06
493 494 3.2639936999934004e-06
494 494 0.26509975719180251
495 494 -7.087212122035169e-06
496 494 -3.2566838360123357e-06
490 495 -0.0040783134242547061
491 495 9.3818131681539356e-06
492 495 4.2808335190718884e-05
493 495 -1.4444760644699289e-05
494 495 -7.087212122035169e-06
495 495 0.26512952010092744
496 495 1.44124109390145e-05
490 496 -0.0018740482404452734
491 496 4.3110885876011862e-06
492 496 1.9671093634795598e-05
493 496 -6.6375914388675966e-06
494 496 -3.2566838360123357e-06
495 496 1.44124109390145e-05
496 496 0.26510477846432684
497 497 0.26517754235035518
498 497 -0.0050019096578842051
499 497 0.0025467344197961247
500 497 0.000893797795425768
501 497 -0.00044402317209473857
502 497 -0.0040537836525583546
503 497 0.0021447012018676929
497 498 -0.0050019096578842051
498 498 0.26512376663972331
499 498 -2.4023453796021482e-05
500 498 -8.4312325126998195e-06
501 498 4.188489414626428e-06
502 498 3.8239513126813952e-05
503 498 -2.0231057399956482e-05
497 499 0.0025467344197961247
498 499 -2.4023453796021482e-05
499 499 0.26508881501347437
500 499 4.2927824591057188e-06
501 499 -2.1325795323726318e-06
502 499 -1.9469740746476581e-05
503 499 1.0300691886373338e-05
497 500 0.000893797795425768
498 500 -8.4312325126998195e-06
499 500 4.2927824591057188e-06
500 500 0.26507809000176857
501 500 -7.4844666557628859e-07
502 500 -6.833068741461117e-06
503 500 3.6151141743855718e-06
497 501 -0.00044402317209473857
498 501 4.188489414626428e-06
499 501 -2.1325795323726318e-06
500 501 -7.4844666557628859e-07
501 501 0.26507695522903885
502 501 3.3945494979428512e-06
503 501 -1.7959257355638092e-06
497 502 -0.0040537836525583546
498 502 3.8239513126813952e-05
499 502 -1.9469740746476581e-05
500 502 -6.833068741461117e-06
501 502 3.3945494979428512e-06
502 502 0.26510757451993261
503 502 -1.639620372443998e-05
497 503 0.0021447012018676929
498 503 -2.0231057399956482e-05
499 503 1.0300691886373338e-05
500 503 3.6151141743855718e-06
501 503 -1.7959257355638092e-06
502 503 -1.639620372443998e-05
503 503 0.26508525801529553
504 504 0.26518088676225543
505 504 0.0030111590575628805
506 504 -0.0010530439115225849
507 504 0.00096731878837873805
508 504 -0.0039293755806049657
509 504 0.0028934842084911636
510 504 0.0051663335131048194
504 505 0.0030111590575628805
505 505 0.26508178578885266
506 505 -5.9800267554877488e-06
507 505 5.4932108455258665e-06
508 505 -2.2314141744006405e-05
509 505 1.6431520845450844e-05
510 505 2.9338579614851343e-05
504 506 -0.0010530439115225849
505 506 -5.9800267554877488e-06
506 506 0.26506677731391409
507 506 -1.9210517030185305e-06
508 506 7.8035635631271221e-06
509 506 -5.7463297861664409e-06
510 506 -1.0260106505680553e-05
504 507 0.00096731878837873805
505 507 5.4932108455258665e-06
506 507 -1.9210517030185305e-06
507 507 0.26506645068065182
508 507 -7.1682990313350295e-06
509 507 5.2785384403791396e-06
510 507 9.4248622351954601e-06
504 508 -0.0039293755806049657
505 508 -2.2314141744006405e-05
506 508 7.8035635631271221e-06
507 508 -7.1682990313350295e-06
508 508 0.265093804585257
509 508 -2.1442114324765362e-05
510 508 -3.828502450532676e-05
504 509 0.0028934842084911636
505 509 1.6431520845450844e-05
506 509 -5.7463297861664409e-06
507 509 5.2785384403791396e-06
508 509 -2.1442114324765362e-05
509 509 0.26508047539977858
510 509 2.8192040072383458e-05
504 510 0.0051663335131048194
505 510 2.9338579614851343e-05
506 510 -1.0260106505680553e-05
507 510 9.4248622351954601e-06
508 510 -3.828502450532676e-05
509 510 2.8192040072383458e-05
510 510 0.26511502307361934
511 511 0.26521444269458838
512 511 0.0028093531306677103
513 511 0.0027334204557195978
514 511 0.0060407901111445648
515 511 0.0061462441647427467
516 511 -0.00092804726912618226
517 511 0.00048953196052680086
511 512 0.0028093531306677103
512 512 0.26505821686064074
513 512 1.4481906106183167e-05
514 512 3.2004646417898003e-05
515 512 3.2563351427780302e-05
516 512 -4.916877454934717e-06
517 512 2.5935841203978099e-06
511 513 0.0027334204557195978
512 513 1.4481906106183167e-05
513 513 0.26505742313795605
514 513 3.1139607990812861e-05
515 513 3.1683212027647604e-05
516 513 -4.7839815033828654e-06
517 513 2.5234833638161886e-06
511 514 0.0060407901111445648
512 514 3.2004646417898003e-05
513 514 3.1139607990812861e-05
514 514 0.26511215040293568
515 514 7.001909768598866e-05
516 514 -1.0572478191953015e-05
517 514 5.5768344448734203e-06
511 515 0.0061462441647427467
512 515 3.2563351427780302e-05
513 515 3.1683212027647604e-05
514 515 7.001909768598866e-05
515 515 0.26511457407727951
516 515 -1.0757041909845307e-05
517 515 5.6741892258933563e-06
511 516 -0.00092804726912618226
512 516 -4.916877454934717e-06
513 516 -4.7839815033828654e-06
514 516 -1.0572478191953015e-05
515 516 -1.0757041909845307e-05
516 516 0.26504495690745211
517 516 -8.5676970755618217e-07
511 517 0.00048953196052680086
512 517 2.5935841203978099e-06
513 517 2.5234833638161886e-06
514 517 5.5768344448734203e-06
515 517 5.6741892258933563e-06
516 517 -8.5676970755618217e-07
517 517 0.26504378459047301
518 518 0.26525391668629805
519 518 0.0012117352774910464
520 518 0.0004746255417746243
521 518 0.006098873091386155
522 518 0.0088531804999689382
523 518 0.0032235719939333425
524 518 0.0023382272716484056
518 519 0.0012117352774910464
519 519 0.26500562367496927
520 519 1.0846075782001032e-06
521 519 1.3937058567613264e-05
522 519 2.0231162919587041e-05
523 519 7.3664611483423739e-06
524 519 5.343283905248105e-06
518 520 0.0004746255417746243
519 520 1.0846075782001032e-06
520 520 0.26500327946543717
521 520 5.4590174077415129e-06
522 520 7.9243600807938367e-06
523 520 2.8853749481759682e-06
524 520 2.0929150660984626e-06
518 521 0.006098873091386155
519 521 1.3937058567613264e-05
520 521 5.4590174077415129e-06
521 521 0.26507300225933533
522 521 0.00010182693978605448
523 521 3.7076672199715529e-05
524 521 2.6893671443509823e-05
518 522 0.0088531804999689382
519 522 2.0231162919587041e-05
520 522 7.9243600807938367e-06
521 522 0.00010182693978605448
522 522 0.26515066756076583
523 522 5.3820839752489079e-05
524 522 3.9039101819076929e-05
518 523 0.0032235719939333425
519 523 7.3664611483423739e-06
520 523 2.8853749481759682e-06
521 523 3.7076672199715529e-05
522 523 5.3820839752489079e-05
523 523 0.2650224515864642
524 523 1.4214705697317494e-05
518 524 0.0023382272716484056
519 524 5.343283905248105e-06
520 524 2.0929150660984626e-06
521 524 2.6893671443509823e-05
522 524 3.9039101819076929e-05
523 524 1.4214705697317494e-05
524 524 0.2650131653125446
525 525 0.26524474446485313
526 525 -0.0010006349077455153
527 525 -0.0010486008360293668
528 525 0.0055059785635763053
529 525 0.0052002708779209598
530 525 0.0076861800265301825
531 525 -0.00029400414519237917
525 526 -0.0010006349077455153
526 526 0.26502292743210681
527 526 1.9787559996615193e-06
528 526 -1.0390024251686946e-05
529 526 -9.8131403733336276e-06
530 526 -1.4504160515040054e-05
531 526 5.5479878161043535e-07
525 527 -0.0010486008360293668
526 527 1.9787559996615193e-06
527 527 0.26502311279857349
528 527 -1.0888075193410282e-05
529 527 -1.0283538101559196e-05
530 527 -1.519942460956315e-05
531 527 5.8139333509313521e-07
525 528 0.0055059785635763053
526 528 -1.0390024251686946e-05
527 528 -1.0888075193410282e-05
528 528 0.26507821014245242
529 528 5.3996657640772083e-05
530 528 7.9808925573472567e-05
531 528 -3.0527719700762169e-06
525 529 0.0052002708779209598
526 529 -9.8131403733336276e-06
527 529 -1.0283538101559196e-05
528 529 5.3996657640772083e-05
529 529 0.26507203779862087
530 529 7.5377705645900131e-05
531 529 -2.88327333454224e-06
525 530 0.0076861800265301825
526 530 -1.4504160515040054e-05
527 530 -1.519942460956315e-05
528 530 7.9808925573472567e-05
529 530 7.5377705645900131e-05
530 530 0.26513245004316677
531 530 -4.261577605327673e-06
525 531 -0.00029400414519237917
526 531 5.5479878161043535e-07
527 531 5.8139333509313521e-07
528 531 -3.0527719700762169e-06
529 531 -2.88327333454224e-06
530 531 -4.261577605327673e-06
531 531 0.26502120219957359
532 532 0.26516231558535636
533 532 -0.002939366002855325
534 532 -0.0025674673124311074
535 532 -0.0025215744358370791
536 532 -0.0017600621119358804
537 532 -0.00051420630783763593
538 532 0.00099250306806101347
532 533 -0.002939366002855325
533 533 0.2651296957339303
534 533 1.4231702250940644e-05
535 533 1.3977313908014894e-05
536 533 9.7561826002430716e-06
537 533 2.8502918160899181e-06
538 533 -5.5015337797678146e-06
532 534 -0.0025674673124311074
533 534 1.4231702250940644e-05
534 534 0.26512583362214909
535 534 1.2208856106914446e-05
536 534 8.5217968418702232e-06
537 534 2.4896630979578468e-06
538 534 -4.8054608150425192e-06
532 535 -0.0025215744358370791
533 535 1.3977313908014894e-05
534 535 1.2208856106914446e-05
535 535 0.26512539318945166
536 535 8.3694717201715902e-06
537 535 2.44516095346624e-06
538 535 -4.7195643290018213e-06
532 536 -0.0017600621119358804
533 536 9.7561826002430716e-06
534 536 8.5217968418702232e-06
535 536 8.3694717201715902e-06
536 536 0.26511924446552182
537 536 1.7067254056104349e-06
538 536 -3.2942618081241118e-06
532 537 -0.00051420630783763593
533 537 2.8502918160899181e-06
534 537 2.4896630979578468e-06
535 537 2.44516095346624e-06
536 537 1.7067254056104349e-06
537 537 0.26511390118764983
538 537 -9.6242637684126492e-07
532 538 0.00099250306806101347
533 538 -5.5015337797678146e-06
534 538 -4.8054608150425192e-06
535 538 -4.7195643290018213e-06
536 538 -3.2942618081241118e-06
537 538 -9.6242637684126492e-07
538 538 0.2651152602055879
539 539 0.26539982205444768
540 539 -0.006594034258095456
541 539 -0.0062148576587616891
542 539 -0.0057806846705089343
543 539 -0.0031054256985560014
544 539 -0.0035755622438650432
545 539 -0.0035666245772820039
539 540 -0.006594034258095456
540 540 0.26519777353998897
541 540 7.7247458122698957e-05
542 540 7.1850913009428529e-05
543 540 3.8598831183875456e-05
544 540 4.4442384663255817e-05
545 540 4.4331294102056131e-05
539 541 -0.0062148576587616891
540 541 7.7247458122698957e-05
541 541 0.26518861861267612
542 541 6.7719271621534015e-05
543 541 3.6379283487623829e-05
544 541 4.1886815246520077e-05
545 541 4.1782112723290026e-05
539 542 -0.0057806846705089343
540 542 7.1850913009428529e-05
541 542 6.7719271621534015e-05
542 542 0.26517880148361611
543 542 3.3837808993827801e-05
544 542 3.896058189693822e-05
545 542 3.8863193943065089e-05
539 543 -0.0031054256985560014
540 543 3.8598831183875456e-05
541 543 3.6379283487623829e-05
542 543 3.3837808993827801e-05
543 543 0.26513399102956964
544 543 2.0929906948686016e-05
545 543 2.0877589434079084e-05
539 544 -0.0035755622438650432
540 544 4.4442384663255817e-05
541 544 4.1886815246520077e-05
542 544 3.896058189693822e-05
543 544 2.0929906948686016e-05
544 544 0.26513991164035339
545 544 2.4038289036546642e-05
539 545 -0.0035666245772820039
540 545 4.4331294102056131e-05
541 545 4.1782112723290026e-05
542 545 3.8863193943065089e-05
543 545 2.0877589434079084e-05
544 545 2.4038289036546642e-05
545 545 0.26513979131499393
546 546 0.26535715784346814
547 546 -0.0066229988747611513
548 546 -0.0032536921559080893
549 546 -0.0025634061222210586
550 546 -0.0043706778215581226
551 546 -0.0060860686129468053
552 546 -0.0054155688770528877
546 547 -0.0066229988747611513
547 547 0.26516367815652081
548 547 4.062528273499847e-05
549 547 3.2006438682516309e-05
550 547 5.4571856751097526e-05
551 547 7.5990058769575926e-05
552 547 6.7618264500419006e-05
546 548 -0.0032536921559080893
547 548 4.062528273499847e-05
548 548 0.26510094209208251
549 548 1.5723858700430801e-05
550 548 2.680961081256251e-05
551 548 3.7331768103989076e-05
552 548 3.3218942198456285e-05
546 549 -0.0025634061222210586
547 549 3.2006438682516309e-05
548 549 1.5723858700430801e-05
549 549 0.26509337200731498
550 549 2.1121826281720291e-05
551 549 2.9411658609845968e-05
552 549 2.6171387987830202e-05
546 550 -0.0043706778215581226
547 550 5.4571856751097526e-05
548 550 2.680961081256251e-05
549 550 2.1121826281720291e-05
550 550 0.26511699733265065
551 550 5.0147685482592129e-05
552 550 4.4622935104286932e-05
546 551 -0.0060860686129468053
547 551 7.5990058769575926e-05
548 551 3.7331768103989076e-05
549 551 2.9411658609845968e-05
550 551 5.0147685482592129e-05
551 551 0.26515081354065934
552 551 6.2136413582400982e-05
546 552 -0.0054155688770528877
547 552 6.7618264500419006e-05
548 552 3.3218942198456285e-05
549 552 2.6171387987830202e-05
550 552 4.4622935104286932e-05
551 552 6.2136413582400982e-05
552 552 0.2651362749087427
553 553 0.24755004071323158
554 553 -0.17744729317935359
555 553 -0.39408242712191455
553 554 -0.17744729317935359
554 554 8.0166732903826148
555 554 -1.8764112608492032
553 555 -0.39408242712191455
554 555 -1.8764112608492032
555 555 2.3676153499224655
556 556 0.37697570709962247
557 556 0.078266627453419391
558 556 -1.0142573893608535
556 557 0.078266627453419391
557 557 12.416308773459154
558 557 -5.1661217627585572
556 558 -1.0142573893608535
557 558 -5.1661217627585572
558 558 6.2779937419384533
559 559 0.40282961313887006
560 559 0.17541821886858855
561 559 -1.1719564035296377
559 560 0.17541821886858855
560 560 13.69843070663398
561 560 -6.1716754603709347
559 561 -1.1719564035296377
560 561 -6.1716754603709347
561 561 7.3651254094053131
562 562 0.19770817174851585
563 562 -0.16458622056746497
564 562 -0.28245695367886603
562 563 -0.16458622056746497
563 563 7.5055791940976615
564 563 -1.5453426579206067
562 564 -0.28245695367886603
563 564 -1.5453426579206067
564 564 1.8091212445186042
565 565 0.48503503237530099
566 565 0.3910302357952824
567 565 -1.5735517215627985
565 566 0.3910302357952824
566 566 16.39392530672049
567 566 -8.3839173160780973
565 567 -1.5735517215627985
566 567 -8.3839173160780973
567 567 9.9520251660474646
568 568 0.27707402732784014
569 568 -0.086654858210264751
570 568 -0.59010371040155563
568 569 -0.086654858210264751
569 569 9.72113509933477
570 569 -3.0803176672397115
568 570 -0.59010371040155563
569 570 -3.0803176672397115
570 570 3.6935345922451219
571 571 0.27789641380249491
572 571 -0.087735200006300862
573 571 -0.59093384009254757
571 572 -0.087735200006300862
572 572 9.7139924992559852
573 572 -3.0753416516290417
571 573 -0.59093384009254757
572 573 -3.0753416516290417
573 573 3.6936760326322724
574 574 0.42177058140134538
575 574 0.1505596837061054
576 574 -1.197851616129199
574 575 0.1505596837061054
575 575 13.438061246509339
576 575 -5.9983843842826854
574 576 -1.197851616129199
575 576 -5.9983843842826854
576 576 7.3579719077079631
577 577 0.54093459850289993
578 577 0.95628711787239173
579 577 -2.1637485096699889
577 578 0.95628711787239173
578 578 22.949218233328843
579 578 -13.709651868057225
577 579 -2.1637485096699889
578 579 -13.709651868057225
579 579 14.871412305355145
580 580 0.44001556791997676
581 580 1.647023875816606
582 580 -2.3519812173074803
580 581 1.647023875816606
581 581 36.015078792292812
582 581 -22.007641146684257
580 582 -2.3519812173074803
581 582 -22.007641146684257
582 582 19.880660456086684
583 583 0.40578555014472178
584 583 0.36430404535417427
585 583 -1.3424601758170291
583 584 0.36430404535417427
584 584 15.932870280070954
585 584 -7.9375571554967017
583 585 -1.3424601758170291
584 585 -7.9375571554967017
585 585 8.9128512970603744
586 586 0.37450615727785314
587 586 0.21956804104291294
588 586 -1.1378834007155103
586 587 0.21956804104291294
587 587 14.190676272442197
588 587 -6.5083156900529566
586 588 -1.1378834007155103
587 588 -6.5083156900529566
588 588 7.4318289644776891
589 589 0.23687835488156639
590 589 -0.10731942303471265
591 589 -0.46497428775386795
589 590 -0.10731942303471265
590 590 9.0606365879663446
591 590 -2.5877044032737198
589 591 -0.46497428775386795
590 591 -2.5877044032737198
591 591 2.9974127577792609
592 592 0.47213239361443737
593 592 0.40272812756783688
594 592 -1.5490512772660838
592 593 0.40272812756783688
593 593 16.548824073919814
594 593 -8.4692190067311444
592 594 -1.5490512772660838
593 594 -8.4692190067311444
594 594 9.9143188928052304
595 595 0.2214652372619122
596 595 -0.14679475460005675
597 595 -0.37357323141326648
595 596 -0.14679475460005675
596 596 8.2160511889790122
597 596 -2.0156721144232259
595 597 -0.37357323141326648
596 597 -2.0156721144232259
597 597 2.3756664259929505
598 598 0.44343879749560949
599 598 0.27276638761841698
600 598 -1.3638625090506231
598 599 0.27276638761841698
599 599 14.967401451788479
600 599 -7.2025013080862514
598 600 -1.3638625090506231
599 600 -7.2025013080862514
600 600 8.5848046236574493
601 601 0.2652577357296515
602 601 0.0065324137188150048
603 601 0.0043608133225839663
604 601 0.0041112158886042497
605 601 0.0052659614875741065
606 601 0.0044234210505895988
607 601 0.0034203323877770877
601 602 0.0065324137188150048
602 602 0.26507873828890344
603 602 5.3722422441640694e-05
604 602 5.0647542184977366e-05
605 602 6.4873267133855767e-05
606 602 5.4493709484498327e-05
607 602 4.213630069312565e-05
601 603 0.0043608133225839663
602 603 5.3722422441640694e-05
603 603 0.2650341263727542
604 603 3.3810546334540497e-05
605 603 4.3307147981463967e-05
606 603 3.6378114514175076e-05
607 603 2.8128736074652465e-05
601 604 0.0041112158886042497
602 604 5.0647542184977366e-05
603 604 3.3810546334540497e-05
604 604 0.2650301384937746
605 604 4.0828400965815918e-05
606 604 3.4295960713017138e-05
607 604 2.6518747334945128e-05
601 605 0.0052659614875741065
602 605 6.4873267133855767e-05
603 605 4.3307147981463967e-05
604 605 4.0828400965815918e-05
605 605 0.26505055929868565
606 605 4.3928904048728182e-05
607 605 3.3967251039190576e-05
601 606 0.0044234210505895988
602 606 5.4493709484498327e-05
603 606 3.6378114514175076e-05
604 606 3.4295960713017138e-05
605 606 4.3928904048728182e-05
606 606 0.26503516353396983
607 606 2.8532577314125789e-05
601 607 0.0034203323877770877
602 607 4.213630069312565e-05
603 607 2.8128736074652465e-05
604 607 2.6518747334945128e-05
605 607 3.3967251039190576e-05
606 607 2.8532577314125789e-05
607 607 0.26502032545544801
608 608 0.2652545593301166
609 608 0.0043336413242564984
610 608 0.0045381402989683574
611 608 0.0056604655431679047
612 608 0.0055839870915559012
613 608 0.0038378776782769975
614 608 0.0048511877680565592
608 609 0.0043336413242564984
609 609 0.26502432579608259
610 609 3.7089890916222608e-05
611 609 4.6262573587436417e-05
612 609 4.5637520759436452e-05
613 609 3.1366695399315609e-05
614 609 3.964840513463945e-05
608 610 0.0045381402989683574
609 610 3.7089890916222608e-05
610 610 0.26502774737571555
611 610 4.8445645087426281e-05
612 610 4.7791096818317405e-05
613 610 3.2846849516675501e-05
614 610 4.1519362510279038e-05
608 611 0.0056604655431679047
609 611 4.6262573587436417e-05
610 611 4.8445645087426281e-05
611 611 0.26504933397416225
612 611 5.961028945530473e-05
613 611 4.0970187707292698e-05
614 611 5.1787495621754558e-05
608 612 0.0055839870915559012
609 612 4.5637520759436452e-05
610 612 4.7791096818317405e-05
611 612 5.961028945530473e-05
612 612 0.26504771215629763
613 612 4.0416640212972419e-05
614 612 5.1087795668135803e-05
608 613 0.0038378776782769975
609 613 3.1366695399315609e-05
610 613 3.2846849516675501e-05
611 613 4.0970187707292698e-05
612 613 4.0416640212972419e-05
613 613 0.26501668564149483
614 613 3.5112672614091382e-05
608 614 0.0048511877680565592
609 614 3.964840513463945e-05
610 614 4.1519362510279038e-05
611 614 5.1787495621754558e-05
612 614 5.1087795668135803e-05
613 614 3.5112672614091382e-05
614 614 0.26503329068850118
615 615 1.0000000000000002e-08
616 616 1.0000000000000002e-08
617 617 1.0000000000000002e-08
618 618 1.0000000000000002e-08
619 619 1.0000000000000002e-08
620 620 1.0000000000000002e-08
621 621 1.0000000000000002e-08
622 622 1.0000000000000002e-08
623 623 1.0000000000000002e-08
624 624 1.0000000000000002e-08
625 625 1.0000000000000002e-08
626 626 1.0000000000000002e-08
627 627 1.0000000000000002e-08
628 628 1.0000000000000002e-08
629 629 1.0000000000000002e-08
630 630 1.0000000000000002e-08
631 631 0.26568201618881609
632 631 -0.007863553139984894
633 631 -0.0099701810912860706
634 631 -0.0082624216811008865
635 631 -0.01303153526997098
636 631 -0.008579122093721428
637 631 -0.0069037034455675678
631 632 -0.007863553139984894
632 632 0.26481706401339483
633 632 0.00014781982770119633
634 632 0.00012250025732856752
635 632 0.0001932080551648931
636 632 0.00012719571872468822
637 632 0.00010235563872715142
631 633 -0.0099701810912860706
632 633 0.00014781982770119633
633 633 0.26488789788038269
634 633 0.00015531779687284061
635 633 0.00024496805248179113
636 633 0.0001612711616677476
637 633 0.00012977648089320518
631 634 -0.0082624216811008865
632 634 0.00012250025732856752
633 634 0.00015531779687284061
634 634 0.26482919138209199
635 634 0.00020300828334719124
636 634 0.00013364755669929802
637 634 0.00010754749583898278
631 635 -0.01303153526997098
632 635 0.0001932080551648931
633 635 0.00024496805248179113
634 635 0.00020300828334719124
635 635 0.26502066319851247
636 635 0.0002107896348180928
637 635 0.00016962448048718135
631 636 -0.008579122093721428
632 636 0.00012719571872468822
633 636 0.0001612711616677476
634 636 0.00013364755669929802
635 636 0.0002107896348180928
636 636 0.26483924775447709
637 636 0.00011166981464854197
631 637 -0.0069037034455675678
632 637 0.00010235563872715142
633 637 0.00012977648089320518
634 637 0.00010754749583898278
635 637 0.00016962448048718135
636 637 0.00011166981464854197
637 637 0.26479033924986889
638 638 0.26540763866953176
639 638 -0.0067295390938317953
640 638 -0.004771669020382052
641 638 -0.0065631080537959623
642 638 -0.010271926265012761
643 638 -0.003697206295747203
644 638 -0.0055788433716423783
638 639 -0.0067295390938317953
639 639 0.26500005914999553
640 639 6.0550222052878859e-05
641 639 8.3282735729764594e-05
642 639 0.00013034588392459842
643 639 4.6915798481947222e-05
644 639 7.0792882638815303e-05
638 640 -0.004771669020382052
639 640 6.0550222052878859e-05
640 640 0.26495759842179029
641 640 5.9052729239456001e-05
642 640 9.2423479169235844e-05
643 640 3.3266269659981319e-05
644 640 5.0196633118722865e-05
638 641 -0.0065631080537959623
639 641 8.3282735729764594e-05
640 641 5.9052729239456001e-05
641 641 0.26499588751875081
642 641 0.00012712224546682576
643 641 4.5755504288453503e-05
644 641 6.9042074311464623e-05
638 642 -0.010271926265012761
639 642 0.00013034588392459842
640 642 9.2423479169235844e-05
641 642 0.00012712224546682576
642 642 0.26511362362280844
643 642 7.1611980545959941e-05
644 642 0.00010805781204542454
638 643 -0.003697206295747203
639 643 4.6915798481947222e-05
640 643 3.3266269659981319e-05
641 643 4.5755504288453503e-05
642 643 7.1611980545959941e-05
643 643 0.26494044000549766
644 643 3.8893583607564505e-05
638 644 -0.0055788433716423783
639 644 7.0792882638815303e-05
640 644 5.0196633118722865e-05
641 644 6.9042074311464623e-05
642 644 0.00010805781204542454
643 644 3.8893583607564505e-05
644 644 0.2649733523662795
645 645 0.26512411135969072
646 645 0.0010907253953724996
647 645 0.0008901561985705063
648 645 0.00063746313975055532
649 645 0.0023807484702539675
650 645 0.0021546434029850502
651 645 -0.00058961246133092354
645 646 0.0010907253953724996
646 646 0.26510174941416709
647 646 1.8311443331276908e-06
648 646 1.3113283014897275e-06
649 646 4.897448421871176e-06
650 646 4.4323266676376805e-06
651 646 -1.2128944549747732e-06
645 647 0.0008901561985705063
646 647 1.8311443331276908e-06
647 647 0.26510100010044829
648 647 1.0701933051933462e-06
649 647 3.9968759216604994e-06
650 647 3.6172835747897862e-06
651 647 -9.898600710024432e-07
645 648 0.00063746313975055532
646 648 1.3113283014897275e-06
647 648 1.0701933051933462e-06
648 648 0.26510027207025327
649 648 2.86226291330295e-06
650 648 2.5904273302332886e-06
651 648 -7.0886357898562196e-07
645 649 0.0023807484702539675
646 649 4.897448421871176e-06
647 649 3.9968759216604994e-06
648 649 2.86226291330295e-06
649 649 0.26511019543815884
650 649 9.6745294263919807e-06
651 649 -2.6474093575812935e-06
645 650 0.0021546434029850502
646 650 4.4323266676376805e-06
647 650 3.6172835747897862e-06
648 650 2.5904273302332886e-06
649 650 9.6745294263919807e-06
650 650 0.26510826139551791
651 650 -2.3959789026788375e-06
645 651 -0.00058961246133092354
646 651 -1.2128944549747732e-06
647 651 -9.898600710024432e-07
648 651 -7.0886357898562196e-07
649 651 -2.6474093575812935e-06
650 651 -2.3959789026788375e-06
651 651 0.26510016133131581
652 652 1.0000000000000002e-08
653 653 1.0000000000000002e-08
654 654 1.0000000000000002e-08
655 655 1.0000000000000002e-08
656 656 1.0000000000000002e-08
657 657 1.0000000000000002e-08
658 658 1.0000000000000002e-08
659 659 1.0000000000000002e-08
660 660 1.0000000000000002e-08
661 661 1.0000000000000002e-08
662 662 1.0000000000000002e-08
663 663 1.0000000000000002e-08
664 664 1.0000000000000002e-08
665 665 1.0000000000000002e-08
666 666 1.0000000000000002e-08
667 667 1.0000000000000002e-08
668 668 0.26530057499998194
669 668 0.0038750795120354011
670 668 -0.00027495675846420472
671 668 -0.0012383702684480946
672 668 -0.00010314414179780745
673 668 -0.0012040644267871531
674 668 -0.0017588228722485197
668 669 0.0038750795120354011
669 669 0.26528895894224908
670 669 -2.0082117546452127e-06
671 669 -9.044730319019854e-06
672 669 -7.533376489384073e-07
673 669 -8.7941694858862707e-06
674 669 -1.2845979077281558e-05
668 670 -0.00027495675846420472
669 670 -2.0082117546452127e-06
670 670 0.26526079887490556
671 670 6.417699874226199e-07
672 670 5.3453168467335761e-08
673 670 6.2399141171532721e-07
674 670 9.1148807538482975e-07
668 671 -0.0012383702684480946
669 671 -9.044730319019854e-06
670 671 6.417699874226199e-07
671 671 0.26526354683238251
672 671 2.4074627208304603e-07
673 671 2.8103779530693493e-06
674 671 4.1052263596150024e-06
668 672 -0.00010314414179780745
669 672 -7.533376489384073e-07
670 672 5.3453168467335761e-08
671 672 2.4074627208304603e-07
672 672 0.26526067643379758
673 672 2.3407702000152363e-07
674 672 3.4192523878893049e-07
668 673 -0.0012040644267871531
669 673 -8.7941694858862707e-06
670 673 6.2399141171532721e-07
671 673 2.8103779530693493e-06
672 673 2.3407702000152363e-07
673 673 0.26526338890569473
674 673 3.9915016933633118e-06
668 674 -0.0017588228722485197
669 674 -1.2845979077281558e-05
670 674 9.1148807538482975e-07
671 674 4.1052263596150024e-06
672 674 3.4192523878893049e-07
673 674 3.9915016933633118e-06
674 674 0.26526648692088106
675 675 1.0000000000000002e-08
676 676 1.0000000000000002e-08
677 677 1.0000000000000002e-08
678 678 1.0000000000000002e-08
679 679 1.0000000000000002e-08
680 680 1.0000000000000002e-08
681 681 1.0000000000000002e-08
682 682 1.0000000000000002e-08
683 683 1.0000000000000002e-08
684 684 1.0000000000000002e-08
685 685 1.0000000000000002e-08
686 686 1.0000000000000002e-08
687 687 1.0000000000000002e-08
688 688 1.0000000000000002e-08
689 689 1.0000000000000002e-08
690 690 1.0000000000000002e-08
691 691 3.844532702229658
692 692 3.9087425782727352
693 693 3.9119982255886563
694 694 4.0581957618541153
695 695 4.0892978495224943
696 696 3.9947462701311767
697 697 4.0934797976581647
698 698 4.439076851043084
699 699 4.3658126614898656
700 700 3.8705560683729994
701 701 3.5507538175238111
702 702 3.9652405294539728
703 703 4.5790320546858005
704 704 4.4248665430558063
705 705 4.0492162218208669
706 706 3.9568294004853617
707 707 2.4850043243544619
708 708 2.3835123378578267
709 709 2.5354080146389566
710 710 2.3962369378870951
711 711 2.4619609617689044
712 712 2.9557238989322205
713 713 3.3808136320561806
714 714 3.7276505353702909
715 715 3.8175550282437638
716 716 4.0358031747400354
717 717 4.1051549078610368
718 718 4.2515768895277803
719 719 4.2140722602992478
720 720 4.0920863087206696
721 721 3.8719104565222464
722 722 3.8365496208815379
723 723 0.28136167905083043
724 723 -0.0057118015354815227
725 723 -0.0017729758263663722
726 723 -0.00026926981872982389
727 723 -0.0012214476049854145
728 723 0.0047337396225985515
729 723 -0.0014489972484003821
723 724 -0.0057118015354815227
724 724 0.28130975038108519
725 724 1.7999722894623321e-05
726 724 2.7336989308847635e-06
727 724 1.2400461468838775e-05
728 724 -4.8058185675716887e-05
729 724 1.4710606066034988e-05
723 725 -0.0017729758263663722
724 725 1.7999722894623321e-05
725 725 0.28125734986713602
726 725 8.4855576492184317e-07
727 725 3.8491740799228102e-06
728 725 -1.4917535375270976e-05
729 725 4.5662561600330165e-06
723 726 -0.00026926981872982389
724 726 2.7336989308847635e-06
725 726 8.4855576492184317e-07
726 726 0.28125189152430596
727 726 5.8459139224957137e-07
728 726 -2.2655932397156671e-06
729 726 6.9349787526767663e-07
723 727 -0.0012214476049854145
724 727 1.2400461468838775e-05
725 727 3.8491740799228102e-06
726 727 5.8459139224957137e-07
727 727 0.2812544144430833
728 727 -1.0277065025614567e-05
729 727 3.1458086272123186e-06
723 728 0.0047337396225985515
724 728 -4.8058185675716887e-05
725 728 -1.4917535375270976e-05
726 728 -2.2655932397156671e-06
727 728 -1.0277065025614567e-05
728 728 0.281291591579306
729 728 -1.2191631374908736e-05
723 729 -0.0014489972484003821
724 729 1.4710606066034988e-05
725 729 4.5662561600330165e-06
726 729 6.9349787526767663e-07
727 729 3.1458086272123186e-06
728 729 -1.2191631374908736e-05
729 729 0.2812554945075274
730 730 0.27613658571519573
731 730 -0.00087049236649553363
732 730 0.0022317262499605764
733 730 0.00034463440078102173
734 730 -0.00030925684040653575
735 730 0.005631789442085893
736 730 -0.0039876973564126677
730 731 -0.00087049236649553363
731 731 0.27604093906872607
732 731 -3.5182625254552262e-06
733 731 -5.4330780814717092e-07
734 731 4.87535938765887e-07
735 731 -8.8783800189181843e-06
736 731 6.286508559090254e-06
730 732 0.0022317262499605764
731 732 -3.5182625254552262e-06
732 732 0.27604858670992849
733 732 1.3929062952406801e-06
734 732 -1.249921072511306e-06
735 732 2.2761961515083378e-05
736 732 -1.6117046756429591e-05
730 733 0.00034463440078102173
731 733 -5.4330780814717092e-07
732 733 1.3929062952406801e-06
733 733 0.27603978185813838
734 733 -1.9301910342100223e-07
735 733 3.5150166681464678e-06
736 733 -2.4888754843296496e-06
730 734 -0.00030925684040653575
731 734 4.87535938765887e-07
732 734 -1.249921072511306e-06
733 734 -1.9301910342100223e-07
734 734 0.27603973996375963
735 734 -3.1541916486102174e-06
736 734 2.233386355815759e-06
730 735 0.005631789442085893
731 735 -8.8783800189181843e-06
732 735 2.2761961515083378e-05
733 735 3.5150166681464678e-06
734 735 -3.1541916486102174e-06
735 735 0.27609700685655275
736 735 -4.0671571507512746e-05
730 736 -0.0039876973564126677
731 736 6.286508559090254e-06
732 736 -1.6117046756429591e-05
733 736 -2.4888754843296496e-06
734 736 2.233386355815759e-06
735 736 -4.0671571507512746e-05
736 736 0.27606836505077614
737 737 0.2791948769534453
738 737 0.00068206672843647059
739 737 0.0047288730814347719
740 737 0.0036399245285348167
741 737 0.0059914544934002523
742 737 0.0051699462799707488
743 737 0.0029618386856750446
737 738 0.00068206672843647059
738 738 0.27900317114004136
739 738 5.778257051597771e-06
740 738 4.4476599841221823e-06
741 738 7.3210178365187092e-06
742 738 6.3172087798048677e-06
743 738 3.6191001484870294e-06
737 739 0.0047288730814347719
738 739 5.778257051597771e-06
739 739 0.27904239925695562
740 739 3.0836307794258594e-05
741 739 5.0757737817205039e-05
742 739 4.3798175901502162e-05
743 739 2.5091775566341774e-05
737 740 0.0036399245285348167
738 740 4.4476599841221823e-06
739 740 3.0836307794258594e-05
740 740 0.27902607314531014
741 740 3.9069421342500516e-05
742 740 3.3712483296462351e-05
743 740 1.9313728191814193e-05
737 741 0.0059914544934002523
738 741 7.3210178365187092e-06
739 741 5.0757737817205039e-05
740 741 3.9069421342500516e-05
741 741 0.27906664747240789
742 741 5.5492032306388593e-05
743 741 3.1791132660032408e-05
737 742 0.0051699462799707488
738 742 6.3172087798048677e-06
739 742 4.3798175901502162e-05
740 742 3.3712483296462351e-05
741 742 5.5492032306388593e-05
742 742 0.27905022105148042
743 742 2.743214493456244e-05
737 743 0.0029618386856750446
738 743 3.6191001484870294e-06
739 743 2.5091775566341774e-05
740 743 1.9313728191814193e-05
741 743 3.1791132660032408e-05
742 743 2.743214493456244e-05
743 743 0.27901805346685993
744 744 0.27770349044200565
745 744 0.0059469851833248875
746 744 0.0023991956542323526
747 744 0.005593883983053753
748 744 0.001466084098710763
749 744 0.0057197603165261733
750 744 0.006473946905408496
744 745 0.0059469851833248875
745 745 0.27749845191301603
746 745 2.5701672339182412e-05
747 745 5.9925155742185424e-05
748 745 1.570560244233435e-05
749 745 6.1273621121596492e-05
750 745 6.9352935768513508e-05
744 746 0.0023991956542323526
745 746 2.5701672339182412e-05
746 746 0.27744511295860791
747 746 2.4175640060274525e-05
748 746 6.3361202298611934e-06
749 746 2.4719652224158381e-05
750 746 2.7979094780768528e-05
744 747 0.005593883983053753
745 747 5.9925155742185424e-05
746 747 2.4175640060274525e-05
747 747 0.277491111228298
748 747 1.4773085057068392e-05
749 747 5.7635510634343159e-05
750 747 6.5235117393775657e-05
744 748 0.001466084098710763
745 748 1.570560244233435e-05
746 748 6.3361202298611934e-06
747 748 1.4773085057068392e-05
748 748 0.2774386159512352
749 748 1.5105516295666374e-05
750 748 1.7097274197727206e-05
744 749 0.0057197603165261733
745 749 6.1273621121596492e-05
746 749 2.4719652224158381e-05
747 749 5.7635510634343159e-05
748 749 1.5105516295666374e-05
749 749 0.27749367657143953
750 749 6.6703070146469079e-05
744 750 0.006473946905408496
745 750 6.9352935768513508e-05
746 750 2.7979094780768528e-05
747 750 6.5235117393775657e-05
748 750 1.7097274197727206e-05
749 750 6.6703070146469079e-05
750 750 0.27751024241014965
751 751 0.28161471753691236
752 751 -0.0057162728170237686
753 751 -0.0067968649396442414
754 751 -0.0060732242080708352
755 751 -0.0048063607962199311
756 751 -0.0056722217518570782
757 751 -0.0060822191247896671
751 752 -0.0057162728170237686
752 752 0.28130318346828365
753 752 6.9027368788193073e-05
754 752 6.1678242964443826e-05
755 752 4.8812274799615463e-05
756 752 5.7605755916983524e-05
757 752 6.1769593232410513e-05
751 753 -0.0067968649396442414
752 753 6.9027368788193073e-05
753 753 0.28132720649664517
754 753 7.3337767556405309e-05
755 753 5.8039643983004615e-05
756 753 6.8495426171367958e-05
757 753 7.3446386485809937e-05
751 754 -0.0060732242080708352
752 754 6.1678242964443826e-05
753 754 7.3337767556405309e-05
754 754 0.28131066006726069
755 754 5.1860346497314132e-05
756 754 6.1202934597057623e-05
757 754 6.5626781812188676e-05
751 755 -0.0048063607962199311
752 755 4.8812274799615463e-05
753 755 5.8039643983004615e-05
754 755 5.1860346497314132e-05
755 755 0.28128617271356143
756 755 4.8436114884411868e-05
757 755 5.193715569812269e-05
751 756 -0.0056722217518570782
752 756 5.7605755916983524e-05
753 756 6.8495426171367958e-05
754 756 6.1202934597057623e-05
755 756 4.8436114884411868e-05
756 756 0.28130229217124353
757 756 6.1293580896418191e-05
751 757 -0.0060822191247896671
752 757 6.1769593232410513e-05
753 757 7.3446386485809937e-05
754 757 6.5626781812188676e-05
755 757 5.193715569812269e-05
756 757 6.1293580896418191e-05
757 757 0.28131085432023656
758 758 0.28035528592783998
759 758 0.00083545425371351397
760 758 0.0014841440510769189
761 758 0.0021713343083123817
762 758 0.00048317897624900152
763 758 0.0017009722995049682
764 758 0.0064235356897762719
758 759 0.00083545425371351397
759 759 0.28026376911412026
760 759 2.2117286294574866e-06
761 759 3.2358060191886782e-06
762 759 7.2005192093478934e-07
763 759 2.5348544368044598e-06
764 759 9.5726002992170539e-06
758 760 0.0014841440510769189
759 760 2.2117286294574866e-06
760 760 0.28026645311688902
761 760 5.7482528007626333e-06
762 760 1.2791373916306977e-06
763 760 4.5030462362327404e-06
764 760 1.7005261178898601e-05
758 761 0.0021713343083123817
759 761 3.2358060191886782e-06
760 761 5.7482528007626333e-06
761 761 0.28027093390410135
762 761 1.8714052059014039e-06
763 761 6.5880524047206152e-06
764 761 2.4879058736085938e-05
758 762 0.00048317897624900152
759 762 7.2005192093478934e-07
760 762 1.2791373916306977e-06
761 762 1.8714052059014039e-06
762 762 0.28026294052487699
763 762 1.4660148850417019e-06
764 762 5.536244733996696e-06
758 763 0.0017009722995049682
759 763 2.5348544368044598e-06
760 763 4.5030462362327404e-06
761 763 6.5880524047206152e-06
762 763 1.4660148850417019e-06
763 763 0.28026768501353411
764 763 1.9489670285148487e-05
758 764 0.0064235356897762719
759 764 9.5726002992170539e-06
760 764 1.7005261178898601e-05
761 764 2.4879058736085938e-05
762 764 5.536244733996696e-06
763 764 1.9489670285148487e-05
764 764 0.28033612469438024
765 765 0.27753263099945097
766 765 0.0018597430031209465
767 765 -0.0045945866864133883
768 765 0.0011078621818206113
769 765 -0.0037555982560045528
770 765 0.0054068946549806389
771 765 -0.00032681861905956965
765 766 0.0018597430031209465
766 766 0.27741408959668906
767 766 -1.5397597805449394e-05
768 766 3.7127205260888243e-06
769 766 -1.2585939805163664e-05
770 766 1.811984297086248e-05
771 766 -1.0952501269575282e-06
765 767 -0.0045945866864133883
766 767 -1.5397597805449394e-05
767 767 0.27744589766108274
768 767 -9.1724589208910413e-06
769 767 3.1094184179083881e-05
770 767 -4.4765964509135817e-05
771 767 2.7058693825796135e-06
765 768 0.0011078621818206113
766 768 3.7127205260888243e-06
767 768 -9.1724589208910413e-06
768 768 0.27741006883145131
769 768 -7.497534180481975e-06
770 768 1.079411979733689e-05
771 768 -6.5244831853337382e-07
765 769 -0.0037555982560045528
766 769 -1.2585939805163664e-05
767 769 3.1094184179083881e-05
768 769 -7.497534180481975e-06
769 769 0.27743327340909857
770 769 -3.6591534715413504e-05
771 769 2.2117676796136075e-06
765 770 0.0054068946549806389
766 770 1.811984297086248e-05
767 770 -4.4765964509135817e-05
768 770 1.079411979733689e-05
769 770 -3.6591534715413504e-05
770 770 0.27746053757863204
771 770 -3.1842582805127514e-06
765 771 -0.00032681861905956965
766 771 -1.0952501269575282e-06
767 771 2.7058693825796135e-06
768 771 -6.5244831853337382e-07
769 771 2.2117676796136075e-06
770 771 -3.1842582805127514e-06
771 771 0.27740804960915971
772 772 0.28128386307983799
773 772 -0.0055063662707748196
774 772 -0.0029782260716244833
775 772 -0.0034946133156452219
776 772 0.0031015478831726393
777 772 0.0025851379475642883
778 772 -0.0034349328423266255
772 773 -0.0055063662707748196
773 773 0.28119641438137061
774 773 2.915795652352187e-05
775 773 3.4213582405624635e-05
776 773 -3.0365323571236196e-05
777 773 -2.5309475529932239e-05
778 773 3.3629288062456226e-05
772 774 -0.0029782260716244833
773 774 2.915795652352187e-05
774 774 0.28115827563078488
775 774 1.85050863152563e-05
776 774 -1.6423680134239183e-05
777 774 -1.3689125673032911e-05
778 774 1.8189059272964766e-05
772 775 -0.0034946133156452219
773 775 3.4213582405624635e-05
774 775 1.85050863152563e-05
775 775 0.28116421861618174
776 775 -1.9271341365198708e-05
777 775 -1.6062649277134345e-05
778 775 2.1342815221442144e-05
772 776 0.0031015478831726393
773 776 -3.0365323571236196e-05
774 776 -1.6423680134239183e-05
775 776 -1.9271341365198708e-05
776 776 0.28115960872748963
777 776 1.4255962352287406e-05
778 776 -1.8942228336008822e-05
772 777 0.0025851379475642883
773 777 -2.5309475529932239e-05
774 777 -1.3689125673032911e-05
775 777 -1.6062649277134345e-05
776 777 1.4255962352287406e-05
777 777 0.28115438731322023
778 777 -1.5788333802137937e-05
772 778 -0.0034349328423266255
773 778 3.3629288062456226e-05
774 778 1.8189059272964766e-05
775 778 2.1342815221442144e-05
776 778 -1.8942228336008822e-05
777 778 -1.5788333802137937e-05
778 778 0.2811634833046493
779 779 0.26669332837922488
780 779 -0.02827754304674784
781 779 0.010870642792667078
782 779 -0.011278617208612335
783 779 0.0073761540492313822
784 779 -0.005674598162231711
785 779 0.0038866959469793161
779 780 -0.02827754304674784
780 780 0.26603994947851989
781 780 -0.00057864992203117546
782 780 0.0006003666105913666
783 780 -0.00039263648405012916
784 780 0.00030206178666349211
785 780 -0.00020689082969367563
779 781 0.010870642792667078
780 781 -0.00057864992203117546
781 781 0.26475716976371866
782 781 -0.00023079695989123742
783 781 0.00015093995112735084
784 781 -0.00011612061835447452
785 781 7.953436063948014e-05
779 782 -0.011278617208612335
780 782 0.0006003666105913666
781 782 -0.00023079695989123742
782 782 0.26477418003156589
783 782 -0.0001566047162731181
784 782 0.00012047861652955261
785 782 -8.2519279282134786e-05
779 783 0.0073761540492313822
780 783 -0.00039263648405012916
781 783 0.00015093995112735084
782 783 -0.0001566047162731181
783 783 0.26463713990797438
784 783 -7.8792357141234325e-05
785 783 5.39671579200144e-05
779 784 -0.005674598162231711
780 784 0.00030206178666349211
781 784 -0.00011612061835447452
782 784 0.00012047861652955261
783 784 -7.8792357141234325e-05
784 784 0.26459533755158626
785 784 -4.1517833427800164e-05
779 785 0.0038866959469793161
780 785 -0.00020689082969367563
781 785 7.953436063948014e-05
782 785 -8.2519279282134786e-05
783 785 5.39671579200144e-05
784 785 -4.1517833427800164e-05
785 785 0.26456315804049013
786 786 0.35351029330454453
787 786 -0.24702444821905273
788 786 -0.07375278457653002
786 787 -0.24702444821905273
787 787 4.875708031040241
788 787 -0.094663150634967635
786 788 -0.07375278457653002
787 788 -0.094663150634967635
788 788 0.28469407984666018
789 789 0.371174393737214
790 789 -0.31476148767438478
791 789 -0.1335089654542988
789 790 -0.31476148767438478
790 790 5.3174980143503969
791 790 -0.20474865265384057
789 791 -0.1335089654542988
790 791 -0.20474865265384057
791 791 0.53715681579046837
792 792 0.38284451243176071
793 792 -0.32158619405966726
794 792 -0.13540958142938511
792 793 -0.32158619405966726
793 793 5.3128822828131108
794 793 -0.1977729796640802
792 794 -0.13540958142938511
793 794 -0.1977729796640802
794 794 0.5399392242913732
795 795 0.39236274636042801
796 795 -0.26449282441100663
797 795 -0.077926376970742811
795 796 -0.26449282441100663
796 796 4.868721000300491
797 796 -0.079877478148362269
795 797 -0.077926376970742811
796 797 -0.079877478148362269
797 797 0.28529077733376351
798 798 0.3742876165483206
799 798 -0.25628799905808008
800 798 -0.075608332510593387
798 799 -0.25628799905808008
799 799 4.8709157986065961
800 799 -0.086839040286951871
798 800 -0.075608332510593387
799 800 -0.086839040286951871
800 800 0.28447235555194184
801 801 0.38333215424894868
802 801 -0.26048346016804591
803 801 -0.076951960595840529
801 802 -0.26048346016804591
802 802 4.8705547811363488
803 802 -0.083207545686587614
801 803 -0.076951960595840529
802 803 -0.083207545686587614
803 803 0.28518312163654946
804 804 0.40982218708373352
805 804 -0.37969451349390676
806 804 -0.21793912768623958
804 805 -0.37969451349390676
805 805 5.7621507555188227
806 805 -0.34787426543673416
804 806 -0.21793912768623958
805 806 -0.34787426543673416
806 806 0.88607930584324479
807 807 0.3494840031188487
808 807 -0.32541700507028504
809 807 -0.37347824060265228
807 808 -0.32541700507028504
808 808 6.8735102320543167
809 808 -1.0286730479218678
807 809 -0.37347824060265228
808 809 -1.0286730479218678
809 809 1.7990028032676868
810 810 0.25970857618945897
811 810 -0.23265353865249949
812 810 -0.32293080003640284
810 811 -0.23265353865249949
811 811 7.1511854523983427
812 811 -1.2919231779697298
810 812 -0.32293080003640284
811 812 -1.2919231779697298
812 812 1.8004743403807604
813 813 0.4258202395715931
814 813 0.29040252456798527
815 813 -1.3327699044217869
813 814 0.29040252456798527
814 814 15.183753821534316
815 814 -7.3278910105302968
813 815 -1.3327699044217869
814 815 -7.3278910105302968
815 815 8.5468141587693385
816 816 0.35411313697859609
817 816 0.53524146611942525
818 816 -1.3373153910500943
816 817 0.53524146611942525
817 817 18.756297416649112
818 817 -9.6867455977279953
816 818 -1.3373153910500943
817 818 -9.6867455977279953
818 818 9.7882537763324198
819 819 0.26557649725391558
820 819 -0.0034446341238666984
821 819 -0.0064370933851107164
822 819 -0.0017727705478969703
823 819 -0.0071930950162542046
824 819 0.015791855188528221
825 819 -0.0017722611004862038
819 820 -0.0034446341238666984
820 820 0.2649188896287975
821 820 4.1799357807888601e-05
822 820 1.1511510865172523e-05
823 820 4.6708465194245179e-05
824 820 -0.00010254463714981507
825 820 1.1508202761136595e-05
819 821 -0.0064370933851107164
820 821 4.1799357807888601e-05
821 821 0.26497463358925644
822 821 2.1511913247741998e-05
823 821 8.7285540791497157e-05
824 821 -0.0001916283070245743
825 821 2.1505731292317651e-05
819 822 -0.0017727705478969703
820 822 1.1511510865172523e-05
821 822 2.1511913247741998e-05
822 822 0.2649024462122283
823 822 2.4038370536978676e-05
824 822 -5.2774287789935559e-05
825 822 5.9226617923846143e-06
819 823 -0.0071930950162542046
820 823 4.6708465194245179e-05
821 823 8.7285540791497157e-05
822 823 2.4038370536978676e-05
823 823 0.26499405860107261
824 823 -0.00021413401014501327
825 823 2.4031462544489947e-05
819 824 0.015791855188528221
820 824 -0.00010254463714981507
821 824 -0.0001916283070245743
822 824 -5.2774287789935559e-05
823 824 -0.00021413401014501327
824 824 0.26536663565450541
825 824 -5.2759121854162585e-05
819 825 -0.0017722611004862038
820 825 1.1508202761136595e-05
821 825 2.1505731292317651e-05
822 825 5.9226617923846143e-06
823 825 2.4031462544489947e-05
824 825 -5.2759121854162585e-05
825 825 0.26490244280770603
826 826 0.26529986981626202
827 826 -0.0073196649113489165
828 826 -0.0061415265653117935
829 826 -0.0011804249277658119
830 826 -0.0013789549687945257
831 826 -0.001898519692299067
832 826 -0.0026218262354258059
826 827 -0.0073196649113489165
827 827 0.26520278938943143
828 827 8.4754481493556514e-05
829 827 1.6290135950878384e-05
830 827 1.9029896254663523e-05
831 827 2.6200009136970148e-05
832 827 3.6181806068347789e-05
826 828 -0.0061415265653117935
827 828 8.4754481493556514e-05
828 828 0.26517288913181097
829 828 1.3668153379499868e-05
830 828 1.5966934934676589e-05
831 828 2.1982980652110301e-05
832 828 3.035815516707401e-05
826 829 -0.0011804249277658119
827 829 1.6290135950878384e-05
828 829 1.3668153379499868e-05
829 829 0.26510440339876989
830 829 3.0689060474576273e-06
831 829 4.2252130756723594e-06
832 829 5.8349536941842322e-06
826 830 -0.0013789549687945257
827 830 1.9029896254663523e-05
828 830 1.5966934934676589e-05
829 830 3.0689060474576273e-06
830 830 0.26510536137806645
831 830 4.9358315195372704e-06
832 830 6.8163067383795698e-06
826 831 -0.001898519692299067
827 831 2.6200009136970148e-05
828 831 2.1982980652110301e-05
829 831 4.2252130756723594e-06
830 831 4.9358315195372704e-06
831 831 0.26510857188887171
832 831 9.3845650252649574e-06
826 832 -0.0026218262354258059
827 832 3.6181806068347789e-05
828 832 3.035815516707401e-05
829 832 5.8349536941842322e-06
830 832 6.8163067383795698e-06
831 832 9.3845650252649574e-06
832 832 0.26511473626601967
833 833 0.26533292003360176
834 833 -0.0052821710512786137
835 833 -0.0019726483617201734
836 833 -0.0011026063591841318
837 833 -0.0055989788629205286
838 833 -0.0052947751920542916
839 833 0.0010394076517179988
833 834 -0.0052821710512786137
834 834 0.26520931600021097
835 834 1.9641978415977961e-05
836 834 1.0978829642769819e-05
837 834 5.574993704458421e-05
838 834 5.272093195013065e-05
839 834 -1.034954990287486e-05
833 835 -0.0019726483617201734
834 835 1.9641978415977961e-05
835 835 0.26516405594682207
836 835 4.1000887889028756e-06
837 835 2.0820041780051983e-05
838 835 1.9688847451203144e-05
839 835 -3.8650816988414874e-06
833 836 -0.0011026063591841318
834 836 1.0978829642769819e-05
835 836 4.1000887889028756e-06
836 836 0.26515901230304301
837 836 1.163730490980483e-05
838 836 1.1005026960695782e-05
839 836 -2.1603767516845269e-06
833 837 -0.0055989788629205286
834 837 5.574993704458421e-05
835 837 2.0820041780051983e-05
836 837 1.163730490980483e-05
837 837 0.26521581421059742
838 837 5.5882965689041879e-05
839 837 -1.0970282973496435e-05
833 838 -0.0052947751920542916
834 838 5.272093195013065e-05
835 838 1.9688847451203144e-05
836 838 1.1005026960695782e-05
837 838 5.5882965689041879e-05
838 838 0.26520956730261014
839 838 -1.0374245654427465e-05
833 839 0.0010394076517179988
834 839 -1.034954990287486e-05
835 839 -3.8650816988414874e-06
836 839 -2.1603767516845269e-06
837 839 -1.0970282973496435e-05
838 839 -1.0374245654427465e-05
839 839 0.26515875711895176
840 840 0.26525119723618928
841 840 -0.0051523698553772356
842 840 -0.0040182583426513485
843 840 0.00075388685344643825
844 840 0.00034577318192298027
845 840 -0.0039182706310155651
846 840 -0.00074963435342171626
840 841 -0.0051523698553772356
841 841 0.2651894519844068
842 841 3.9034540299039537e-05
843 841 -7.3234780475448513e-06
844 841 -3.3589421219726695e-06
845 841 3.8063230336753629e-05
846 841 7.282168014831238e-06
840 842 -0.0040182583426513485
841 842 3.9034540299039537e-05
842 842 0.26516984282265771
843 842 -5.7114740571388063e-06
844 842 -2.6195901270584344e-06
845 842 2.9684959958628965e-05
846 842 5.679256963209992e-06
840 843 0.00075388685344643825
841 843 -7.3234780475448513e-06
842 843 -5.7114740571388063e-06
843 843 0.26514047191225448
844 843 4.9147525863266586e-07
845 843 -5.5693534734573602e-06
846 843 -1.0655156530038092e-06
840 844 0.00034577318192298027
841 844 -3.3589421219726695e-06
842 844 -2.6195901270584344e-06
843 844 4.9147525863266586e-07
844 844 0.26513962576924877
845 844 -2.5544059602147873e-06
846 844 -4.887029612515255e-07
840 845 -0.0039182706310155651
841 845 3.8063230336753629e-05
842 845 2.9684959958628965e-05
843 845 -5.5693534734573602e-06
844 845 -2.5544059602147873e-06
845 845 0.26516834665101741
846 845 5.5379380486156988e-06
840 846 -0.00074963435342171626
841 846 7.282168014831238e-06
842 846 5.679256963209992e-06
843 846 -1.0655156530038092e-06
844 846 -4.887029612515255e-07
845 846 5.5379380486156988e-06
846 846 0.26514045985750839
847 847 0.26523014999108918
848 847 -0.0020199763922136601
849 847 -0.0023339946608545523
850 847 -0.0028373822160186364
851 847 -0.0063561375682009303
852 847 -0.0027441542212769637
853 847 -0.0027973324049217646
847 848 -0.0020199763922136601
848 848 0.26509956102352578
849 848 8.8900968908231858e-06
850 848 1.0807480942338028e-05
851 848 2.4210286244621735e-05
852 848 1.0452379056249235e-05
853 848 1.0654932735145475e-05
847 849 -0.0023339946608545523
848 849 8.8900968908231858e-06
849 849 0.26510213912967251
850 849 1.2487573079535367e-05
851 849 2.7973930314493801e-05
852 849 1.2077268330734639e-05
853 849 1.2311310276424006e-05
847 850 -0.0028373822160186364
848 850 1.0807480942338028e-05
849 850 1.2487573079535367e-05
850 850 0.26510704785810435
851 850 3.400724676783467e-05
852 850 1.4682050029696715e-05
853 850 1.4966569298587532e-05
847 851 -0.0063561375682009303
848 851 2.4210286244621735e-05
849 851 2.7973930314493801e-05
850 851 3.400724676783467e-05
851 851 0.2651680480540401
852 851 3.2889869135398827e-05
853 851 3.3527232548640893e-05
847 852 -0.0027441542212769637
848 852 1.0452379056249235e-05
849 852 1.2077268330734639e-05
850 852 1.4682050029696715e-05
851 852 3.2889869135398827e-05
852 852 0.26510606665152997
853 852 1.4474812059822758e-05
847 853 -0.0027973324049217646
848 853 1.0654932735145475e-05
849 853 1.2311310276424006e-05
850 853 1.4966569298587532e-05
851 853 3.3527232548640893e-05
852 853 1.4474812059822758e-05
853 853 0.26510662232559973
854 854 0.26523981317910134
855 854 0.0032133330156196068
856 854 -0.00071641727067609038
857 854 0.0040009502120001489
858 854 0.0036230116184021669
859 854 -0.0023859417686171967
860 854 0.0031632156831006716
854 855 0.0032133330156196068
855 855 0.265154315653579
856 855 -4.3404925616977212e-06
857 855 2.4240195408076921e-05
858 855 2.1950413012487212e-05
859 855 -1.4455489730940784e-05
860 855 1.916468893971104e-05
854 856 -0.00071641727067609038
855 856 -4.3404925616977212e-06
856 856 0.26513581504241807
857 856 -5.4043868315220269e-06
858 856 -4.8938765151879993e-06
859 856 3.222872465750312e-06
860 856 -4.2727952804158972e-06
854 857 0.0040009502120001489
855 857 2.4240195408076921e-05
856 857 -5.4043868315220269e-06
857 857 0.26516502901142353
858 857 2.7330659215495994e-05
859 857 -1.799866195705253e-05
860 857 2.386212879385259e-05
854 858 0.0036230116184021669
855 858 2.1950413012487212e-05
856 858 -4.8938765151879993e-06
857 858 2.7330659215495994e-05
858 858 0.26515959626806979
859 858 -1.6298468596412509e-05
860 858 2.1608059405647411e-05
854 859 -0.0023859417686171967
855 859 -1.4455489730940784e-05
856 859 3.222872465750312e-06
857 859 -1.799866195705253e-05
858 859 -1.6298468596412509e-05
859 859 0.26514558071337341
860 859 -1.4230032057538103e-05
854 860 0.0031632156831006716
855 860 1.916468893971104e-05
856 860 -4.2727952804158972e-06
857 860 2.386212879385259e-05
858 860 2.1608059405647411e-05
859 860 -1.4230032057538103e-05
860 860 0.26515371310667157
861 861 0.26517242908072319
862 861 -0.0045299665431283694
863 861 -0.0024974001452264228
864 861 0.0010652121647133157
865 861 0.0031261865186508315
866 861 -0.00050256612919359807
867 861 -0.00039330782436550427
861 862 -0.0045299665431283694
862 862 0.26513932917112837
863 862 2.1334553750340591e-05
864 862 -9.0997937303044749e-06
865 862 -2.6706090509055933e-05
866 862 4.2932743945241238e-06
867 862 3.3599128819601337e-06
861 863 -0.0024974001452264228
862 863 2.1334553750340591e-05
863 863 0.2651123928802403
864 863 -5.0167757238883623e-06
865 863 -1.4723242143348491e-05
866 863 2.3669102176142923e-06
867 863 1.8523419189671448e-06
861 864 0.0010652121647133157
862 864 -9.0997937303044749e-06
863 864 -5.0167757238883623e-06
864 864 0.26510277079887573
865 864 6.279881365864441e-06
866 864 -1.0095545006698952e-06
867 864 -7.9007649177233387e-07
861 865 0.0031261865186508315
862 865 -2.6706090509055933e-05
863 865 -1.4723242143348491e-05
864 865 6.279881365864441e-06
865 865 0.26511906120818335
866 865 -2.9628423091534052e-06
867 865 -2.3187178658876421e-06
861 866 -0.00050256612919359807
862 866 4.2932743945241238e-06
863 866 2.3669102176142923e-06
864 866 -1.0095545006698952e-06
865 866 -2.9628423091534052e-06
866 866 0.26510110730829317
867 866 3.7275736927370069e-07
861 867 -0.00039330782436550427
862 867 3.3599128819601337e-06
863 867 1.8523419189671448e-06
864 867 -7.9007649177233387e-07
865 867 -2.3187178658876421e-06
866 867 3.7275736927370069e-07
867 867 0.26510092272099867
868 868 0.26523946685767863
869 868 -0.0026351706981169506
870 868 -0.0023517793741736617
871 868 -0.003825803924448274
872 868 0.00079222473211248165
873 868 -0.0054377336009197455
874 868 -0.0010030446654753693
868 869 -0.0026351706981169506
869 869 0.26514260918146043
870 869 1.1684959515964604e-05
871 869 1.9008740557946358e-05
872 869 -3.9362169869922001e-06
873 869 2.7017711645537938e-05
874 869 4.9836887071527116e-06
868 870 -0.0023517793741736617
869 870 1.1684959515964604e-05
870 870 0.2651399445113371
871 870 1.6964504047172953e-05
872 870 -3.5129086434116893e-06
873 870 2.411217498386426e-05
874 870 4.4477332406432911e-06
868 871 -0.003825803924448274
869 871 1.9008740557946358e-05
870 871 1.6964504047172953e-05
871 871 0.26515711351958393
872 871 -5.7146940830344585e-06
873 871 3.9224960765150213e-05
874 871 7.2354386103632978e-06
868 872 0.00079222473211248165
869 872 -3.9362169869922001e-06
870 872 -3.5129086434116893e-06
871 872 -5.7146940830344585e-06
872 872 0.26513069953971269
873 872 -8.1224716812362797e-06
874 872 -1.498271612452801e-06
868 873 -0.0054377336009197455
869 873 2.7017711645537938e-05
870 873 2.411217498386426e-05
871 873 3.9224960765150213e-05
872 873 -8.1224716812362797e-06
873 873 0.2651852678263476
874 873 1.0283952974573443e-05
868 874 -0.0010030446654753693
869 874 4.9836887071527116e-06
870 874 4.4477332406432911e-06
871 874 7.2354386103632978e-06
872 874 -1.498271612452801e-06
873 874 1.0283952974573443e-05
874 874 0.26513141315341721
875 875 0.26521002822781758
876 875 -0.0049835268910722293
877 875 -0.0012429056321001464
878 875 -0.0022855891915346052
879 875 -0.0048790577234189792
880 875 0.00059708186554004985
881 875 -0.0019848058786492268
875 876 -0.0049835268910722293
876 876 0.26514427411396113
877 876 1.1680117650666326e-05
878 876 2.147866255389573e-05
879 876 4.5850599403619163e-05
880 876 -5.6110345439525603e-06
881 876 1.8652072673598747e-05
875 877 -0.0012429056321001464
876 877 1.1680117650666326e-05
877 877 0.26510035482716754
878 877 5.3568388897509811e-06
879 877 1.143526853161309e-05
880 877 -1.3994078067644636e-06
881 877 4.6518794185475415e-06
875 878 -0.0022855891915346052
876 878 2.147866255389573e-05
877 878 5.3568388897509811e-06
878 878 0.26510729250719334
879 878 2.1028407534036143e-05
880 878 -2.573382302794401e-06
881 878 8.5543785825389631e-06
875 879 -0.0048790577234189792
876 879 4.5850599403619163e-05
877 879 1.143526853161309e-05
878 879 2.1028407534036143e-05
879 879 0.2651423312109023
880 879 -5.4934109971567212e-06
881 879 1.8261071170083322e-05
875 880 0.00059708186554004985
876 880 -5.6110345439525603e-06
877 880 -1.3994078067644636e-06
878 880 -2.573382302794401e-06
879 880 -5.4934109971567212e-06
880 880 0.2650981140372044
881 880 -2.2347254447632342e-06
875 881 -0.0019848058786492268
876 881 1.8652072673598747e-05
877 881 4.6518794185475415e-06
878 881 8.5543785825389631e-06
879 881 1.8261071170083322e-05
880 881 -2.2347254447632342e-06
881 881 0.26510487039615549
882 882 0.26542463873034339
883 882 -0.0039613960135399277
884 882 -0.0035472278173900849
885 882 -0.005031193467112856
886 882 -0.0033570169641981241
887 882 -0.0059294941106052051
888 882 0.0032254526156704775
882 883 -0.0039613960135399277
883 883 0.26524612311043333
884 883 2.6481122141967296e-05
885 883 3.7559371876066938e-05
886 883 2.5061140935400712e-05
887 883 4.4265456256638533e-05
888 883 -2.4078973518408494e-05
882 884 -0.0035472278173900849
883 884 2.6481122141967296e-05
884 884 0.26524026259064498
885 884 3.3632499317690499e-05
886 884 2.2440971808356865e-05
887 884 3.9637455393584462e-05
888 884 -2.156149104678169e-05
882 885 -0.005031193467112856
883 885 3.7559371876066938e-05
884 885 3.3632499317690499e-05
885 885 0.26526425259138947
886 885 3.1829044135355231e-05
887 885 5.6219593692718534e-05
888 885 -3.0581636838762677e-05
882 886 -0.0033570169641981241
883 886 2.5061140935400712e-05
884 886 2.2440971808356865e-05
885 886 3.1829044135355231e-05
886 886 0.26523778773132728
887 886 3.7512000081182432e-05
888 886 -2.0405312244847083e-05
882 887 -0.0059294941106052051
883 887 4.4265456256638533e-05
884 887 3.9637455393584462e-05
885 887 5.6219593692718534e-05
886 887 3.7512000081182432e-05
887 887 0.2652828074885808
888 887 -3.6041872910160336e-05
882 888 0.0032254526156704775
883 888 -2.4078973518408494e-05
884 888 -2.156149104678169e-05
885 888 -3.0581636838762677e-05
886 888 -2.0405312244847083e-05
887 888 -3.6041872910160336e-05
888 888 0.26523615570889814
889 889 0.26523772319035083
890 889 -0.0062536795685248659
891 889 -0.0035346295060638406
892 889 -0.0070420143188997487
893 889 -0.0023450784784763042
894 889 -0.00062115272634896983
895 889 -0.0019611115374770899
889 890 -0.0062536795685248659
890 890 0.26510229169345795
891 890 4.1685549121291886e-05
892 890 8.3049788754305248e-05
893 890 2.7656614063822842e-05
894 890 7.3255464092130191e-06
895 890 2.3128311238161477e-05
889 891 -0.0035346295060638406
890 891 4.1685549121291886e-05
891 891 0.26505210011180741
892 891 4.6940402140332184e-05
893 891 1.5631738568733112e-05
894 891 4.1404571824187793e-06
895 891 1.3072305741292861e-05
889 892 -0.0070420143188997487
890 892 8.3049788754305248e-05
891 892 4.6940402140332184e-05
892 892 0.26512205809812489
893 892 3.114298871818671e-05
894 892 8.2489999914739952e-06
895 892 2.6043851004269038e-05
889 893 -0.0023450784784763042
890 893 2.7656614063822842e-05
891 893 1.5631738568733112e-05
892 893 3.114298871818671e-05
893 893 0.26503891011053404
894 893 2.7470197407919065e-06
895 893 8.6729267679616414e-06
889 894 -0.00062115272634896983
890 894 7.3255464092130191e-06
891 894 4.1404571824187793e-06
892 894 8.2489999914739952e-06
893 894 2.7470197407919065e-06
894 894 0.26502926672432542
895 894 2.2972417156992676e-06
889 895 -0.0019611115374770899
890 895 2.3128311238161477e-05
891 895 1.3072305741292861e-05
892 895 2.6043851004269038e-05
893 895 8.6729267679616414e-06
894 895 2.2972417156992676e-06
895 895 0.26503579198908195
896 896 0.26523152310850051
897 896 -0.00087054044740807093
898 896 -0.0032584925738898566
899 896 -0.0059689302397597579
900 896 -0.0028875233870111431
901 896 -0.0030750596341240976
902 896 0.0037176693062118044
896 897 -0.00087054044740807093
897 897 0.26508470323737693
898 897 5.3489919526230177e-06
899 897 9.7983221057733012e-06
900 897 4.7400259506178163e-06
901 897 5.0478768521881767e-06
902 897 -6.1027554154287037e-06
896 898 -0.0032584925738898566
897 898 5.3489919526230177e-06
898 898 0.26510329584168218
899 898 3.6675791358464934e-05
900 898 1.7742242082053734e-05
901 898 1.8894549111117134e-05
902 898 -2.2843031889727876e-05
896 899 -0.0059689302397597579
897 899 9.7983221057733012e-06
898 899 3.6675791358464934e-05
899 899 0.2651504571777038
900 899 3.2500367235235681e-05
901 899 3.4611171576598203e-05
902 899 -4.184403085860832e-05
896 900 -0.0028875233870111431
897 900 4.7400259506178163e-06
898 900 1.7742242082053734e-05
899 900 3.2500367235235681e-05
900 900 0.26509899654142666
901 900 1.6743463797510409e-05
902 900 -2.0242424162744205e-05
896 901 -0.0030750596341240976
897 901 5.0478768521881767e-06
898 901 1.8894549111117134e-05
899 901 3.4611171576598203e-05
900 901 1.6743463797510409e-05
901 901 0.26510110510118884
902 901 -2.1557110747457565e-05
896 902 0.0037176693062118044
897 902 -6.1027554154287037e-06
898 902 -2.2843031889727876e-05
899 902 -4.184403085860832e-05
900 902 -2.0242424162744205e-05
901 902 -2.1557110747457565e-05
902 902 0.26510933619965921
903 903 0.26517573336189876
904 903 0.00044834707277478255
905 903 0.0023716173962387123
906 903 0.0029250575363235871
907 903 -0.0038751369886936837
908 903 -0.0028324755730965352
909 903 0.0010221009607088753
903 904 0.00044834707277478255
904 904 0.26510357355395031
905 904 2.0051856891116033e-06
906 904 2.4731154025797748e-06
907 904 -3.2764008416362154e-06
908 904 -2.3948380092585903e-06
909 904 8.6417911358344896e-07
903 905 0.0023716173962387123
904 905 2.0051856891116033e-06
905 905 0.26511380129201745
906 905 1.3082015848490661e-05
907 905 -1.7331147463471641e-05
908 905 -1.2667952639415143e-05
909 905 4.5712403262866414e-06
903 906 0.0029250575363235871
904 906 2.4731154025797748e-06
905 906 1.3082015848490661e-05
906 906 0.2651193293120136
907 906 -2.1375540414555358e-05
908 906 -1.5624143420637089e-05
909 906 5.6379840137608681e-06
903 907 -0.0038751369886936837
904 907 -3.2764008416362154e-06
905 907 -1.7331147463471641e-05
906 907 -2.1375540414555358e-05
907 907 0.26513151294736309
908 907 2.0698976117257448e-05
909 907 -7.4692412446862277e-06
903 908 -0.0028324755730965352
904 908 -2.3948380092585903e-06
905 908 -1.2667952639415143e-05
906 908 -1.5624143420637089e-05
907 908 2.0698976117257448e-05
908 908 0.26511832409817121
909 908 -5.459534317590868e-06
903 909 0.0010221009607088753
904 909 8.6417911358344896e-07
905 909 4.5712403262866414e-06
906 909 5.6379840137608681e-06
907 909 -7.4692412446862277e-06
908 909 -5.459534317590868e-06
909 909 0.26510516455678285
910 910 0.26518601173883632
911 910 0.0041807924918676838
912 910 0.0015524882829662211
913 910 0.0052072736626294002
914 910 -0.0013187785809490192
915 910 0.0015549330458408503
916 910 0.0023126682573226171
910 911 0.0041807924918676838
911 911 0.26511240455436086
912 911 1.2240343613165443e-05
913 911 4.1055909804735848e-05
914 911 -1.0397697140526463e-05
915 911 1.2259618951966067e-05
916 911 1.8233860083506521e-05
910 912 0.0015524882829662211
911 912 1.2240343613165443e-05
912 912 0.26508398707799768
913 912 1.524563083251625e-05
914 912 -3.8610629472517709e-06
915 912 4.5524657857523498e-06
916 912 6.7709301975529033e-06
910 913 0.0052072736626294002
911 913 4.1055909804735848e-05
912 913 1.524563083251625e-05
913 913 0.26513057785430655
914 913 -1.2950572069094225e-05
915 913 1.5269638712426575e-05
916 913 2.2710694100604983e-05
910 914 -0.0013187785809490192
911 914 -1.0397697140526463e-05
912 914 -3.8610629472517709e-06
913 914 -1.2950572069094225e-05
914 914 0.26508272159309998
915 914 -3.8671431112398772e-06
916 914 -5.751642582817462e-06
910 915 0.0015549330458408503
911 915 1.2259618951966067e-05
912 915 4.5524657857523498e-06
913 915 1.5269638712426575e-05
914 915 -3.8671431112398772e-06
915 915 0.26508400140461136
916 915 6.781592641163786e-06
910 916 0.0023126682573226171
911 916 1.8233860083506521e-05
912 916 6.7709301975529033e-06
913 916 2.2710694100604983e-05
914 916 -5.751642582817462e-06
915 916 6.781592641163786e-06
916 916 0.26508952810387487
917 917 0.2652078650955732
918 917 0.0046849096560239506
919 917 0.0025790814271741702
920 917 0.0057117523026961039
921 917 0.0029229830428408364
922 917 -0.00179550863311987
923 917 0.0018716218757345506
917 918 0.0046849096560239506
918 918 0.26510500000177001
919 918 2.2785995604651889e-05
920 918 5.0462913459344839e-05
921 918 2.5824341203378948e-05
922 918 -1.5863187331471946e-05
923 918 1.6535642258020798e-05
917 919 0.0025790814271741702
918 919 2.2785995604651889e-05
919 919 0.26507615304654136
920 919 2.7780250297195566e-05
921 919 1.421651294406579e-05
922 919 -8.7328155346128896e-06
923 919 9.1030075210141416e-06
917 920 0.0057117523026961039
918 920 5.0462913459344839e-05
919 920 2.7780250297195566e-05
920 920 0.26512513258743675
921 920 3.1484543174562232e-05
922 920 -1.9340094776882361e-05
923 920 2.0159938969659066e-05
917 921 0.0029229830428408364
918 921 2.5824341203378948e-05
919 921 1.421651294406579e-05
920 921 3.1484543174562232e-05
921 921 0.26507972134872726
922 921 -9.8972725153150798e-06
923 921 1.0316826891320965e-05
917 922 -0.00179550863311987
918 922 -1.5863187331471946e-05
919 922 -8.7328155346128896e-06
920 922 -1.9340094776882361e-05
921 922 -9.8972725153150798e-06
922 922 0.26506968879205517
923 922 -6.3373449240973573e-06
917 923 0.0018716218757345506
918 923 1.6535642258020798e-05
919 923 9.1030075210141416e-06
920 923 2.0159938969659066e-05
921 923 1.0316826891320965e-05
922 923 -6.3373449240973573e-06
923 923 0.26507021515865731
924 924 0.26515794801876014
925 924 0.0027606064182532004
926 924 0.0039305252253805335
927 924 0.0031062282491992267
928 924 4.0243881521359544e-05
929 924 0.00023034683139913935
930 924 0.00096907604376337501
924 925 0.0027606064182532004
925 925 0.26510874225537051
926 925 2.0463150837020693e-05
927 925 1.6171685348088466e-05
928 925 2.095182121007865e-07
929 925 1.1992346278083013e-06
930 925 5.0452161273569585e-06
924 926 0.0039305252253805335
925 926 2.0463150837020693e-05
926 926 0.26512350519083644
927 926 2.3025092159931552e-05
928 926 2.983100424579387e-07
929 926 1.7074588846073003e-06
930 926 7.183330852581677e-06
924 927 0.0031062282491992267
925 927 1.6171685348088466e-05
926 927 2.3025092159931552e-05
927 927 0.26511256629549423
928 927 2.3574942985207769e-07
929 927 1.3493761565160585e-06
930 927 5.6768660517814976e-06
924 928 4.0243881521359544e-05
925 928 2.095182121007865e-07
926 928 2.983100424579387e-07
927 928 2.3574942985207769e-07
928 928 0.26509437300516964
929 928 1.7482338648030503e-08
930 928 7.3548724199330355e-08
924 929 0.00023034683139913935
925 929 1.1992346278083013e-06
926 929 1.7074588846073003e-06
927 929 1.3493761565160585e-06
928 929 1.7482338648030503e-08
929 929 0.26509447001576436
930 929 4.2097618152893853e-07
924 930 0.00096907604376337501
925 930 5.0452161273569585e-06
926 930 7.183330852581677e-06
927 930 5.6768660517814976e-06
928 930 7.3548724199330355e-08
929 930 4.2097618152893853e-07
930 930 0.26509614101028117
931 931 0.26513672207021582
932 931 0.0015976603444838994
933 931 0.00029217742445610928
934 931 0.0027958491079292029
935 931 -0.00073283033590684223
936 931 -0.00037842053740647769
937 931 -0.00072717704033049922
931 932 0.0015976603444838994
932 932 0.2651195393378068
933 932 8.8033759587647377e-07
934 932 8.4239604982811122e-06
935 932 -2.2080353993759378e-06
936 932 -1.1401901661322418e-06
937 932 -2.1910018840531118e-06
931 933 0.00029217742445610928
932 933 8.8033759587647377e-07
933 933 0.26511488654347676
934 933 1.5405596631384516e-06
935 933 -4.0380178322945144e-07
936 933 -2.0851605116249979e-07
937 933 -4.0068672272636018e-07
931 934 0.0027958491079292029
932 934 8.4239604982811122e-06
933 934 1.5405596631384516e-06
934 934 0.26512946718181662
935 934 -3.8639838704987837e-06
936 934 -1.9952924724311474e-06
937 934 -3.8341758210065085e-06
931 935 -0.00073283033590684223
932 935 -2.2080353993759378e-06
933 935 -4.0380178322945144e-07
934 935 -3.8639838704987837e-06
935 935 0.26511573835190816
936 935 5.2299347938956725e-07
937 935 1.0049899856416869e-06
931 936 -0.00037842053740647769
932 936 -1.1401901661322418e-06
933 936 -2.0851605116249979e-07
934 936 -1.9952924724311474e-06
935 936 5.2299347938956725e-07
936 936 0.26511499561334545
937 936 5.1895893472264831e-07
931 937 -0.00072717704033049922
932 937 -2.1910018840531118e-06
933 937 -4.0068672272636018e-07
934 937 -3.8341758210065085e-06
935 937 1.0049899856416869e-06
936 937 5.1895893472264831e-07
937 937 0.26511572278598511
938 938 0.26516532986896413
939 938 -0.0019613413538506039
940 938 -0.00035789014601675785
941 938 -0.0038661967393546215
942 938 -0.005435652082959555
943 938 -0.0006421850766027545
944 938 -0.0019606718977996664
938 939 -0.0019613413538506039
939 939 0.26507314647773361
940 939 1.3238464943960881e-06
941 939 1.4301178886888227e-05
942 939 2.0106641758294896e-05
943 939 2.3754620569358515e-06
944 939 7.2525847594626868e-06
938 940 -0.00035789014601675785
939 940 1.3238464943960881e-06
940 940 0.26506613298173337
941 940 2.6095666570185729e-06
942 940 3.6689018669061935e-06
943 940 4.3345563521871091e-07
944 940 1.3233946316724241e-06
938 941 -0.0038661967393546215
939 941 1.4301178886888227e-05
940 941 2.6095666570185729e-06
941 941 0.26509408190528949
942 941 3.963421902703246e-05
943 941 4.6825116091880258e-06
944 941 1.4296297528157598e-05
938 942 -0.005435652082959555
939 942 2.0106641758294896e-05
940 942 3.6689018669061935e-06
941 942 3.963421902703246e-05
942 942 0.26512161486780378
943 942 6.5833442263504525e-06
944 942 2.0099778846358282e-05
938 943 -0.0006421850766027545
939 943 2.3754620569358515e-06
940 943 4.3345563521871091e-07
941 943 4.6825116091880258e-06
942 943 6.5833442263504525e-06
943 943 0.26506666919368121
944 943 2.3746512508797482e-06
938 944 -0.0019606718977996664
939 944 7.2525847594626868e-06
940 944 1.3233946316724241e-06
941 944 1.4296297528157598e-05
942 944 2.0099778846358282e-05
943 944 2.3746512508797482e-06
944 944 0.26507314152590244
945 945 0.2652231526868678
946 945 -0.0027422890274963821
947 945 -0.002442830505628932
948 945 -0.0047680962956963245
949 945 -0.0062634600353199199
950 945 -0.00094388180260053718
951 945 -0.0038721570547342508
945 946 -0.0027422890274963821
946 946 0.26506508799095924
947 946 1.2632990766350606e-05
948 946 2.4658000765015824e-05
949 946 3.2391208726628675e-05
950 946 4.881243323801126e-06
951 946 2.0024690294967061e-05
945 947 -0.002442830505628932
946 947 1.2632990766350606e-05
947 947 0.26506215982918213
948 947 2.1965342045508247e-05
949 947 2.8854082118339732e-05
950 947 4.3482105559329793e-06
951 947 1.7837990025061899e-05
945 948 -0.0047680962956963245
946 948 2.4658000765015824e-05
947 948 2.1965342045508247e-05
948 948 0.26509377993414412
949 948 5.6319520223427074e-05
950 948 8.4871572533903057e-06
951 948 3.4817501240949905e-05
945 949 -0.0062634600353199199
946 949 3.2391208726628675e-05
947 949 2.8854082118339732e-05
948 949 5.6319520223427074e-05
949 949 0.26512488873354223
950 949 1.1148887726547585e-05
951 949 4.5736917635079709e-05
945 950 -0.00094388180260053718
946 950 4.881243323801126e-06
947 950 4.3482105559329793e-06
948 950 8.4871572533903057e-06
949 950 1.1148887726547585e-05
950 950 0.26505258646247615
951 950 6.8923955799753597e-06
945 951 -0.0038721570547342508
946 951 2.0024690294967061e-05
947 951 1.7837990025061899e-05
948 951 3.4817501240949905e-05
949 951 4.5736917635079709e-05
950 951 6.8923955799753597e-06
951 951 0.26507918155450177
952 952 0.26579044066526952
953 952 -0.011858882592911135
954 952 -0.01125216400582486
955 952 -0.0083268811394728495
956 952 -0.0064632121628421264
957 952 -0.0088697644678013138
958 952 -0.0053548998344819833
952 953 -0.011858882592911135
953 953 0.26514018385190719
954 953 0.00025145419050235474
955 953 0.00018608235315905163
956 953 0.0001444345977903565
957 953 0.00019821426732164214
958 953 0.00011966693716904742
952 954 -0.01125216400582486
953 954 0.00025145419050235474
954 954 0.26511376061809533
955 954 0.00017656209511569796
956 954 0.000137045102666244
957 954 0.00018807332197813941
958 954 0.00011354459347677182
952 955 -0.0083268811394728495
953 955 0.00018608235315905163
954 955 0.00017656209511569796
955 955 0.26500583154935314
956 955 0.00010141678347897604
957 955 0.0001391789345415758
958 955 8.402582235927281e-05
952 956 -0.0064632121628421264
953 956 0.0001444345977903565
954 956 0.000137045102666244
955 956 0.00010141678347897604
956 956 0.26495388954023813
957 956 0.00010802880063656923
958 956 6.5219703268112758e-05
952 957 -0.0088697644678013138
953 957 0.00019821426732164214
954 957 0.00018807332197813941
955 957 0.0001391789345415758
956 957 0.00010802880063656923
957 957 0.26502342411988056
958 957 8.950401009173588e-05
952 958 -0.0053548998344819833
953 958 0.00011966693716904742
954 958 0.00011354459347677182
955 958 8.402582235927281e-05
956 958 6.5219703268112758e-05
957 958 8.950401009173588e-05
958 958 0.26492920703032702
959 959 3.7420782780672761
960 960 3.6966503546811653
961 961 3.9478733490537623
962 962 5.0540232075437954
963 963 6.4736648913586601
964 964 6.3934229938166682
965 965 5.1500516931720783
966 966 3.8770617607468769
967 967 3.3625166320714217
968 968 3.497756717211709
969 969 3.7852723370367283
970 970 3.5261567618906731
971 971 2.8554136199249669
972 972 3.0404283343819261
973 973 3.4131255804500777
974 974 2.9698990681675483
975 975 0.19645781102015308
976 975 -0.19578608537795414
977 975 -0.09764079306450521
975 976 -0.19578608537795414
976 976 5.4421160423203681
977 976 -0.3706663763486463
975 977 -0.09764079306450521
976 977 -0.3706663763486463
977 977 0.53925022151394453
978 978 0.29721930867320123
979 978 -0.28821856696374915
980 978 -0.26277439890077064
978 979 -0.28821856696374915
979 979 6.3545655710070923
980 979 -0.76577826529127624
978 980 -0.26277439890077064
979 980 -0.76577826529127624
980 980 1.2920067030119866
981 981 0.33359907135405453
982 981 -0.32145102978234685
983 981 -0.27824203576952744
981 982 -0.32145102978234685
982 982 6.2878993942746231
983 982 -0.69303029141349715
981 983 -0.27824203576952744
982 983 -0.69303029141349715
983 983 1.292753778037844
984 984 0.35852337353954067
985 984 -0.33895442343560972
986 984 -0.20485295791716404
984 985 -0.33895442343560972
985 985 5.7754465711602112
986 985 -0.39426554410798775
984 986 -0.20485295791716404
985 986 -0.39426554410798775
986 986 0.87530942869547423
987 987 0.41272784041927346
988 987 -0.27443761722428117
989 987 -0.081003268075934443
987 988 -0.27443761722428117
988 988 4.8658010234512155
989 988 -0.073590951427088214
987 989 -0.081003268075934443
988 989 -0.073590951427088214
989 989 0.2867467317305723
990 990 0.26584015831166097
991 990 0.0012442481000381632
992 990 -0.015804611219802263
993 990 -0.0048210348292814899
994 990 -0.0069887574793152333
995 990 -0.0020079328891550166
996 990 -0.0022154237690432291
990 991 0.0012442481000381632
991 991 0.26521722646628376
992 991 -3.7029831420752843e-05
993 991 -1.129557092667953e-05
994 991 -1.637449398156132e-05
995 991 -4.7045394129300022e-06
996 991 -5.1906856519451946e-06
990 992 -0.015804611219802263
991 992 -3.7029831420752843e-05
992 992 0.2656846692555187
993 992 0.00014347790203287912
994 992 0.00020799108416692065
995 992 5.9757709404832462e-05
996 992 6.5932806078372513e-05
990 993 -0.0048210348292814899
991 993 -1.129557092667953e-05
992 993 0.00014347790203287912
993 993 0.26525807768727006
994 993 6.3445550605659753e-05
995 993 1.8228477395117082e-05
996 993 2.0112127408602785e-05
990 994 -0.0069887574793152333
991 994 -1.637449398156132e-05
992 994 0.00020799108416692065
993 994 6.3445550605659753e-05
994 994 0.26530628433225323
995 994 2.6424701800098713e-05
996 994 2.9155313294586174e-05
990 995 -0.0020079328891550166
991 995 -4.7045394129300022e-06
992 995 5.9757709404832462e-05
993 995 1.8228477395117082e-05
994 995 2.6424701800098713e-05
995 995 0.26522190327684725
996 995 8.3765837677277771e-06
990 996 -0.0022154237690432291
991 996 -5.1906856519451946e-06
992 996 6.5932806078372513e-05
993 996 2.0112127408602785e-05
994 996 2.9155313294586174e-05
995 996 8.3765837677277771e-06
996 996 0.26522355340510972
997 997 0.26554570123512899
998 997 -0.014695420942662237
999 997 -0.0096427714470938668
1000 997 -0.0091578914700555757
1001 997 -0.006200618531958726
1002 997 -0.0017404568622888879
1003 997 -0.0010975104914192706
997 998 -0.014695420942662237
998 998 0.26513170205416181
999 998 0.00026723093132960694
1000 998 0.00025379341198592567
1001 998 0.00017183825979971094
1002 998 4.8233426541353694e-05
1003 998 3.0415400009753158e-05
997 999 -0.0096427714470938668
998 999 0.00026723093132960694
999 999 0.26489979694693033
1000 999 0.00016653295445615622
1001 999 0.00011275601233745723
1002 999 3.164958050968265e-05
1003 999 1.995783257317526e-05
997 1000 -0.0091578914700555757
998 1000 0.00025379341198592567
999 1000 0.00016653295445615622
1000 1000 0.26488260558694077
1001 1000 0.00010708615559833552
1002 1000 3.0058103624120717e-05
1003 1000 1.8954267005650403e-05
997 1001 -0.006200618531958726
998 1001 0.00017183825979971094
999 1001 0.00011275601233745723
1000 1001 0.00010708615559833552
1001 1001 0.26479695244168688
1002 1001 2.0351719058549576e-05
1003 1001 1.2833541393149581e-05
997 1002 -0.0017404568622888879
998 1002 4.8233426541353694e-05
999 1002 3.164958050968265e-05
1000 1002 3.0058103624120717e-05
1001 1002 2.0351719058549576e-05
1002 1002 0.26473015916616061
1003 1002 3.6022575925372795e-06
997 1003 -0.0010975104914192706
998 1003 3.0415400009753158e-05
999 1003 1.995783257317526e-05
1000 1003 1.8954267005650403e-05
1001 1003 1.2833541393149581e-05
1002 1003 3.6022575925372795e-06
1003 1003 0.26472671816383742
1004 1004 0.26560676258544513
1005 1004 -0.0088244988223812326
1006 1004 -0.012784346471446047
1007 1004 -0.0057000800050511198
1008 1004 -0.0041561131302927197
1009 1004 -0.0039813076552190239
1010 1004 -0.0014097888552013051
1004 1005 -0.0088244988223812326
1005 1005 0.26517135293059008
1006 1005 0.00021260607337896767
1007 1005 9.4793396794009839e-05
1008 1005 6.9116938837966157e-05
1009 1005 6.6209891086751712e-05
1010 1005 2.344505239022021e-05
1004 1006 -0.012784346471446047
1005 1006 0.00021260607337896767
1006 1006 0.26533260939089559
1007 1006 0.00013733036314156019
1008 1006 0.00010013202006545992
1009 1006 9.5920482797609173e-05
1010 1006 3.3965631230816963e-05
1004 1007 -0.0057000800050511198
1005 1007 9.4793396794009839e-05
1006 1007 0.00013733036314156019
1007 1007 0.26508583053102303
1008 1007 4.4645264168591208e-05
1009 1007 4.2767491266814689e-05
1010 1007 1.5144052601370136e-05
1004 1008 -0.0041561131302927197
1005 1008 6.9116938837966157e-05
1006 1008 0.00010013202006545992
1007 1008 4.4645264168591208e-05
1008 1008 0.26505715217390158
1009 1008 3.1183164419828815e-05
1010 1008 1.104201972720093e-05
1004 1009 -0.0039813076552190239
1005 1009 6.6209891086751712e-05
1006 1009 9.5920482797609173e-05
1007 1009 4.2767491266814689e-05
1008 1009 3.1183164419828815e-05
1009 1009 0.2650544714697311
1010 1009 1.0577594086301557e-05
1004 1010 -0.0014097888552013051
1005 1010 2.344505239022021e-05
1006 1010 3.3965631230816963e-05
1007 1010 1.5144052601370136e-05
1008 1010 1.104201972720093e-05
1009 1010 1.0577594086301557e-05
1010 1010 0.26502834541120857
1011 1011 0.2655994972796128
1012 1011 -0.0011801270419239587
1013 1011 -0.0026905249532496009
1014 1011 -0.0057847065998922424
1015 1011 -0.0031001222282127246
1016 1011 -0.0027852671795810992
1017 1011 -0.0011808896490671501
1011 1012 -0.0011801270419239587
1012 1012 0.26548752877514686
1013 1012 5.9786377311619658e-06
1014 1012 1.2854244336238636e-05
1015 1012 6.8888072204722094e-06
1016 1012 6.1891652151742039e-06
1017 1012 2.6240646472073467e-06
1011 1013 -0.0026905249532496009
1012 1013 5.9786377311619658e-06
1013 1013 0.26549853686472441
1014 1013 2.9305883106817126e-05
1015 1013 1.5705519038517867e-05
1016 1013 1.4110432910733698e-05
1017 1013 5.9825011727054331e-06
1011 1014 -0.0057847065998922424
1012 1014 1.2854244336238636e-05
1013 1014 2.9305883106817126e-05
1014 1014 0.26554791490283064
1015 1014 3.376732095612688e-05
1016 1014 3.0337839568249325e-05
1017 1014 1.286255084748946e-05
1011 1015 -0.0031001222282127246
1012 1015 6.8888072204722094e-06
1013 1015 1.5705519038517867e-05
1014 1015 3.376732095612688e-05
1015 1015 0.26550300288422968
1016 1015 1.625856198190471e-05
1017 1015 6.8932588205184509e-06
1011 1016 -0.0027852671795810992
1012 1016 6.1891652151742039e-06
1013 1016 1.4110432910733698e-05
1014 1016 3.0337839568249325e-05
1015 1016 1.625856198190471e-05
1016 1016 0.26549951371272446
1017 1016 6.1931647011920724e-06
1011 1017 -0.0011808896490671501
1012 1017 2.6240646472073467e-06
1013 1017 5.9825011727054331e-06
1014 1017 1.286255084748946e-05
1015 1017 6.8932588205184509e-06
1016 1017 6.1931647011920724e-06
1017 1017 0.26548753216543319
1018 1018 0.26546677118108841
1019 1018 0.014080554280029937
1020 1018 -0.0038713402146645461
1021 1018 0.005442672322465235
1022 1018 0.0024195453975472021
1023 1018 -0.0046976943975373551
1024 1018 -0.00090456331169183472
1018 1019 0.014080554280029937
1019 1019 0.26532848355849387
1020 1019 -0.00010276849417393572
1021 1019 0.00014448103443431834
1022 1019 6.4229187646570223e-05
1023 1019 -0.0001247048702915615
1024 1019 -2.4012513567117069e-05
1018 1020 -0.0038713402146645461
1019 1020 -0.00010276849417393572
1020 1020 0.26498295694767426
1021 1020 -3.9723950331642799e-05
1022 1020 -1.7659321653555951e-05
1023 1020 3.4286645946101326e-05
1024 1020 6.6020561107741188e-06
1018 1021 0.005442672322465235
1019 1021 0.00014448103443431834
1020 1021 -3.9723950331642799e-05
1021 1021 0.26501054898100013
1022 1021 2.4827035565937288e-05
1023 1021 -4.8203198007277301e-05
1024 1021 -9.281754140170904e-06
1018 1022 0.0024195453975472021
1019 1022 6.4229187646570223e-05
1020 1022 -1.7659321653555951e-05
1021 1022 2.4827035565937288e-05
1022 1022 0.26496573842316762
1023 1022 -2.1428779646381003e-05
1024 1022 -4.1262130402961891e-06
1018 1023 -0.0046976943975373551
1019 1023 -0.0001247048702915615
1020 1023 3.4286645946101326e-05
1021 1023 -4.8203198007277301e-05
1022 1023 -2.1428779646381003e-05
1023 1023 0.26499630681746489
1024 1023 8.0112933206771276e-06
1018 1024 -0.00090456331169183472
1019 1024 -2.4012513567117069e-05
1020 1024 6.6020561107741188e-06
1021 1024 -9.281754140170904e-06
1022 1024 -4.1262130402961891e-06
1023 1024 8.0112933206771276e-06
1024 1024 0.26495624415228131
1025 1025 0.2655864496641816
1026 1025 -0.014056711506969083
1027 1025 0.021344860672759029
1028 1025 0.013291193496686421
1029 1025 -0.0055114505039995333
1030 1025 0.0034322365633789563
1031 1025 0.0022434590766448278
1025 1026 -0.014056711506969083
1026 1026 0.26430330132010382
1027 1026 -0.00056662727898887019
1028 1026 -0.00035283213701898196
1029 1026 0.00014630867121792379
1030 1026 -9.1113214303410338e-05
1031 1026 -5.9555559139558745e-05
1025 1027 0.021344860672759029
1026 1027 -0.00056662727898887019
1027 1027 0.26479056071882462
1028 1027 0.00053576918056603593
1029 1027 -0.00022216705527568038
1030 1027 0.00013835375818798941
1031 1027 9.043403298786489e-05
1025 1028 0.013291193496686421
1026 1028 -0.00035283213701898196
1027 1028 0.00053576918056603593
1028 1028 0.26426376466736107
1029 1028 -0.00013834081025539948
1030 1028 8.6151256701205576e-05
1031 1028 5.6312207868446487e-05
1025 1029 -0.0055114505039995333
1026 1029 0.00014630867121792379
1027 1029 -0.00022216705527568038
1028 1029 -0.00013834081025539948
1029 1029 0.26398751319820912
1030 1029 -3.5724285203163128e-05
1031 1029 -2.3350946362736431e-05
1025 1030 0.0034322365633789563
1026 1030 -9.1113214303410338e-05
1027 1030 0.00013835375818798941
1028 1030 8.6151256701205576e-05
1029 1030 -3.5724285203163128e-05
1030 1030 0.26395239467892107
1031 1030 1.4541720339777112e-05
1025 1031 0.0022434590766448278
1026 1031 -5.9555559139558745e-05
1027 1031 9.043403298786489e-05
1028 1031 5.6312207868446487e-05
1029 1031 -2.3350946362736431e-05
1030 1031 1.4541720339777112e-05
1031 1031 0.26393965260580288
1032 1032 0.26622354672766202
1033 1032 -0.02804601284698657
1034 1032 0.013140648825383823
1035 1032 0.008755720082857606
1036 1032 -0.0050791394865941746
1037 1032 0.0031903880694686467
1038 1032 0.0014509801526874251
1032 1033 -0.02804601284698657
1033 1033 0.26568167496381351
1034 1033 -0.00069481017514384433
1035 1033 -0.00046295761230062964
1036 1033 0.00026855886974495988
1037 1033 -0.00016869137306540829
1038 1033 -7.6720395424580175e-05
1032 1034 0.013140648825383823
1033 1034 -0.00069481017514384433
1034 1034 0.26452429113202969
1035 1034 0.00021691366389481001
1036 1034 -0.00012583028523570312
1037 1034 7.9038475287674219e-05
1038 1034 3.5946491913816339e-05
1032 1035 0.008755720082857606
1033 1035 -0.00046295761230062964
1034 1035 0.00021691366389481001
1035 1035 0.2643432768368415
1036 1035 -8.3841731874131122e-05
1037 1035 5.2663972273417796e-05
1038 1035 2.3951436899379063e-05
1032 1036 -0.0050791394865941746
1033 1036 0.00026855886974495988
1034 1036 -0.00012583028523570312
1035 1036 -8.3841731874131122e-05
1036 1036 0.26424738159075395
1037 1036 -3.0550047119313236e-05
1038 1036 -1.3894081556408221e-05
1032 1037 0.0031903880694686467
1033 1037 -0.00016869137306540829
1034 1037 7.9038475287674219e-05
1035 1037 5.2663972273417796e-05
1036 1037 -3.0550047119313236e-05
1037 1037 0.26421793508724373
1038 1037 8.7273665452163116e-06
1032 1038 0.0014509801526874251
1033 1038 -7.6720395424580175e-05
1034 1038 3.5946491913816339e-05
1035 1038 2.3951436899379063e-05
1036 1038 -1.3894081556408221e-05
1037 1038 8.7273665452163116e-06
1038 1038 0.26420271470011375
1039 1039 0.26559687541616217
1040 1039 0.0057015520654701592
1041 1039 -0.014324452653540114
1042 1039 -0.005413742271769397
1043 1039 -0.0098892866347463724
1044 1039 0.0053959241410711069
1045 1039 0.0028834995645742705
1039 1040 0.0057015520654701592
1040 1040 0.26489984976824005
1041 1040 -0.00015397088206157069
1042 1040 -5.8191310551216191e-05
1043 1040 -0.00010629810596883739
1044 1040 5.7999786772496028e-05
1045 1040 3.099420146234575e-05
1039 1041 -0.014324452653540114
1040 1041 -0.00015397088206157069
1041 1041 0.2652253978646939
1042 1041 0.00014619855493148236
1043 1041 0.00026706099823821215
1044 1041 -0.00014571737484774354
1045 1041 -7.7869142697207752e-05
1039 1042 -0.005413742271769397
1040 1042 -5.8191310551216191e-05
1041 1042 0.00014619855493148236
1042 1042 0.26489381870333123
1043 1042 0.00010093226249352221
1044 1042 -5.5072003868122305e-05
1045 1042 -2.9429638931588259e-05
1039 1043 -0.0098892866347463724
1040 1043 -0.00010629810596883739
1041 1043 0.00026706099823821215
1042 1043 0.00010093226249352221
1043 1043 0.26502293787516767
1044 1043 -0.00010060006636106837
1045 1043 -5.3759141152548069e-05
1039 1044 0.0053959241410711069
1040 1044 5.7999786772496028e-05
1041 1044 -0.00014571737484774354
1042 1044 -5.5072003868122305e-05
1043 1044 -0.00010060006636106837
1044 1044 0.26489345559024652
1045 1044 2.9332777809177431e-05
1039 1045 0.0028834995645742705
1040 1045 3.099420146234575e-05
1041 1045 -7.7869142697207752e-05
1042 1045 -2.9429638931588259e-05
1043 1045 -5.3759141152548069e-05
1044 1045 2.9332777809177431e-05
1045 1045 0.26485423983274153
1046 1046 0.26591734410191809
1047 1046 -0.0066831565253134889
1048 1046 0.0039987228427805785
1049 1046 0.0096627257992856538
1050 1046 -0.016009941495607572
1051 1046 -0.011121193752284935
1052 1046 0.0012705130965800693
1046 1047 -0.0066831565253134889
1047 1047 0.26499242373110293
1048 1047 -5.0344386828742748e-05
1049 1047 -0.00012165484445554585
1050 1047 0.00020156703013703619
1051 1047 0.00014001712603644748
1052 1047 -1.5995908023656105e-05
1046 1048 0.0039987228427805785
1047 1048 -5.0344386828742748e-05
1048 1048 0.26493840449134159
1049 1048 7.2789557392042472e-05
1050 1048 -0.00012060329347480008
1051 1048 -8.3776233302596025e-05
1052 1048 9.570807232022813e-06
1046 1049 0.0096627257992856538
1047 1049 -0.00012165484445554585
1048 1049 7.2789557392042472e-05
1049 1049 0.2650841745553556
1050 1049 -0.00029143219001580506
1051 1049 -0.00020244133007654626
1052 1049 2.3127405823542645e-05
1046 1050 -0.016009941495607572
1047 1050 0.00020156703013703619
1048 1050 -0.00012060329347480008
1049 1050 -0.00029143219001580506
1050 1050 0.26539114910369038
1051 1050 0.00033542024457095676
1052 1050 -3.8319250889584888e-05
1046 1051 -0.011121193752284935
1047 1051 0.00014001712603644748
1048 1051 -8.3776233302596025e-05
1049 1051 -0.00020244133007654626
1050 1051 0.00033542024457095676
1051 1051 0.26514127933536719
1052 1051 -2.6618199304626376e-05
1046 1052 0.0012705130965800693
1047 1052 -1.5995908023656105e-05
1048 1052 9.570807232022813e-06
1049 1052 2.3127405823542645e-05
1050 1052 -3.8319250889584888e-05
1051 1052 -2.6618199304626376e-05
1052 1052 0.26491132294113451
1053 1053 4.6580993928533747
1054 1054 10.354881056165706
1055 1055 5.7233498897120727
1056 1056 3.5886264041221314
1057 1057 3.2044899203718993
1058 1058 3.5839722872705684
1059 1059 4.3271588532271323
1060 1060 5.4010423090171056
1061 1061 5.6481403571788302
1062 1062 5.0345066871148907
1063 1063 4.2706212530343386
1064 1064 3.8546517851925062
1065 1065 4.3347708877380935
1066 1066 4.6306073681038322
1067 1067 4.5490767983411331
1068 1068 4.228333268588492
1069 1069 0.27846689150959103
1070 1069 -0.011497902603272313
1071 1069 -0.015886650017762658
1072 1069 -0.0090886354180785833
1073 1069 -0.0077542709216839832
1074 1069 -0.0086655302629825327
1075 1069 -0.0041091287290652518
1069 1070 -0.011497902603272313
1070 1070 0.2775905387664816
1071 1070 0.0003286374951947376
1072 1070 0.00018801108951200824
1073 1070 0.00016040790033860776
1074 1070 0.0001792585697410509
1075 1070 8.5003054227471484e-05
1069 1071 -0.015886650017762658
1070 1071 0.0003286374951947376
1071 1071 0.27780676699738133
1072 1071 0.00025977488952510852
1073 1071 0.00022163556786768685
1074 1071 0.00024768153448701886
1075 1071 0.00011744870517240347
1069 1072 -0.0090886354180785833
1070 1072 0.00018801108951200824
1071 1072 0.00025977488952510852
1072 1072 0.2775013039279044
1073 1072 0.00012679607530700196
1074 1072 0.00014169678089627833
1075 1072 6.7191538835681221e-05
1069 1073 -0.0077542709216839832
1070 1073 0.00016040790033860776
1071 1073 0.00022163556786768685
1072 1073 0.00012679607530700196
1073 1073 0.27746086890719079
1074 1073 0.00012089331096004334
1075 1073 5.7326691170859119e-05
1069 1074 -0.0086655302629825327
1070 1074 0.0001792585697410509
1071 1074 0.00024768153448701886
1072 1074 0.00014169678089627833
1073 1074 0.00012089331096004334
1074 1074 0.27748778896856774
1075 1074 6.406355700425427e-05
1069 1075 -0.0041091287290652518
1070 1075 8.5003054227471484e-05
1071 1075 0.00011744870517240347
1072 1075 6.7191538835681221e-05
1073 1075 5.7326691170859119e-05
1074 1075 6.406355700425427e-05
1075 1075 0.2773830670805546
1076 1076 0.28336318315996584
1077 1076 0.001086465124619355
1078 1076 0.013339197573933308
1079 1076 0.017972678092815664
1080 1076 0.0097414089267886389
1081 1076 0.010823557262125178
1082 1076 0.0063364117453156123
1076 1077 0.001086465124619355
1077 1077 0.28203110623874078
1078 1077 2.5632778295540904e-05
1079 1077 3.4536535678167184e-05
1080 1077 1.8719220097206175e-05
1081 1077 2.0798690635732051e-05
1082 1077 1.2176132526466807e-05
1076 1078 0.013339197573933308
1077 1078 2.5632778295540904e-05
1078 1078 0.28234372778700217
1079 1078 0.00042402619512676239
1080 1078 0.00022982732684959296
1081 1078 0.00025535825990396816
1082 1078 0.0001494938344328729
1076 1079 0.017972678092815664
1077 1079 3.4536535678167184e-05
1078 1079 0.00042402619512676239
1079 1079 0.28260033367136445
1080 1079 0.0003096597482349215
1081 1079 0.00034405906188570578
1082 1079 0.00020142175331244101
1076 1080 0.0097414089267886389
1077 1080 1.8719220097206175e-05
1078 1080 0.00022982732684959296
1079 1080 0.0003096597482349215
1080 1080 0.28219685780224174
1081 1080 0.00018648417333728937
1082 1080 0.00010917302672613761
1076 1081 0.010823557262125178
1077 1081 2.0798690635732051e-05
1078 1081 0.00025535825990396816
1079 1081 0.00034405906188570578
1080 1081 0.00018648417333728937
1081 1081 0.28223621869873677
1082 1081 0.00012130078052676652
1076 1082 0.0063364117453156123
1077 1082 1.2176132526466807e-05
1078 1082 0.0001494938344328729
1079 1082 0.00020142175331244101
1080 1082 0.00010917302672613761
1081 1082 0.00012130078052676652
1082 1082 0.28210003132689482
1083 1083 0.28049207371470852
1084 1083 0.025421928053394736
1085 1083 0.038039086106410054
1086 1083 0.03701712081104528
1087 1083 0.033838816144633799
1088 1083 0.029947300252492835
1089 1083 0.025005598013119978
1083 1084 0.025421928053394736
1084 1084 0.27051738144814036
1085 1084 0.0017587613925673755
1086 1084 0.0017115101757268008
1087 1084 0.001564559233596798
1088 1084 0.0013846325158382825
1089 1084 0.0011561497629177771
1083 1085 0.038039086106410054
1084 1085 0.0017587613925673755
1085 1085 0.27197363472484032
1086 1085 0.002560949854382702
1087 1085 0.0023410656847256805
1088 1085 0.0020718395310175644
1089 1085 0.001729958494539211
1083 1086 0.03701712081104528
1084 1086 0.0017115101757268008
1085 1086 0.002560949854382702
1086 1086 0.2718341292907584
1087 1086 0.0022781701704310863
1088 1086 0.0020161770975841813
1089 1086 0.0016834811018149247
1083 1087 0.033838816144633799
1084 1087 0.001564559233596798
1085 1087 0.0023410656847256805
1086 1087 0.0022781701704310863
1087 1087 0.27142454797697008
1088 1087 0.0018430673327736312
1089 1087 0.0015389367470817119
1083 1088 0.029947300252492835
1084 1088 0.0013846325158382825
1085 1088 0.0020718395310175644
1086 1088 0.0020161770975841813
1087 1088 0.0018430673327736312
1088 1088 0.2709730941557732
1089 1088 0.0013619566546733102
1083 1089 0.025005598013119978
1084 1089 0.0011561497629177771
1085 1089 0.001729958494539211
1086 1089 0.0016834811018149247
1087 1089 0.0015389367470817119
1088 1089 0.0013619566546733102
1089 1089 0.27047919812041676
1090 1090 0.28614603087998025
1091 1090 -0.011810792093259602
1092 1090 -0.0078769770202796966
1093 1090 -0.00056096608142250739
1094 1090 -0.00059059751289706054
1095 1090 -0.011457076353097909
1096 1090 -0.00029936530441032323
1090 1091 -0.011810792093259602
1091 1091 0.28580658440837114
1092 1091 0.00016272859080004965
1093 1091 1.1588864570950491e-05
1094 1091 1.2201013251190142e-05
1095 1091 0.00023668900960713908
1096 1091 6.1845164706840795e-06
1090 1092 -0.0078769770202796966
1091 1092 0.00016272859080004965
1092 1092 0.28567111672374101
1093 1092 7.7289667954282971e-06
1094 1092 8.1372273971870994e-06
1095 1092 0.00015785511038605117
1096 1092 4.124642423341066e-06
1090 1093 -0.00056096608142250739
1091 1093 1.1588864570950491e-05
1092 1093 7.7289667954282971e-06
1093 1093 0.2855631384949941
1094 1093 5.7950004867245796e-07
1095 1093 1.1241795231571741e-05
1096 1093 2.9374016091880319e-07
1090 1094 -0.00059059751289706054
1091 1094 1.2201013251190142e-05
1092 1094 8.1372273971870994e-06
1093 1094 5.7950004867245796e-07
1094 1094 0.28556319818007947
1095 1094 1.1835610964976815e-05
1096 1094 3.092561461768033e-07
1090 1095 -0.011457076353097909
1091 1095 0.00023668900960713908
1092 1095 0.00015785511038605117
1093 1095 1.1241795231571741e-05
1094 1095 1.1835610964976815e-05
1095 1095 0.2857921885937259
1096 1095 5.9992993570733306e-06
1090 1096 -0.00029936530441032323
1091 1096 6.1845164706840795e-06
1092 1096 4.124642423341066e-06
1093 1096 2.9374016091880319e-07
1094 1096 3.092561461768033e-07
1095 1096 5.9992993570733306e-06
1096 1096 0.28556274482704586
1097 1097 0.54698728311708922
1098 1097 -0.33072330582426446
1099 1097 -0.094405872422693382
1097 1098 -0.33072330582426446
1098 1098 4.8511949245499038
1099 1098 -0.034969515261835171
1097 1099 -0.094405872422693382
1098 1099 -0.034969515261835171
1099 1099 0.28896414027386108
1100 1100 0.45434220061814767
1101 1100 -0.29257673985635713
1102 1100 -0.085405461863966331
1100 1101 -0.29257673985635713
1101 1101 4.8595153921483334
1102 1101 -0.060528200162559831
1100 1102 -0.085405461863966331
1101 1102 -0.060528200162559831
1102 1102 0.28752823747161521
1103 1103 0.36649907505673651
1104 1103 -0.31152578353185295
1105 1103 -0.13307534362378043
1103 1104 -0.31152578353185295
1104 1104 5.3217070406859968
1105 1104 -0.20593614920939346
1103 1105 -0.13307534362378043
1104 1105 -0.20593614920939346
1105 1105 0.53454318848288718
1106 1106 0.547747127098556
1107 1106 -0.41246057172659756
1108 1106 -0.1651078039575696
1106 1107 -0.41246057172659756
1107 1107 5.2769247320254484
1108 1107 -0.098043728095174892
1106 1108 -0.1651078039575696
1107 1108 -0.098043728095174892
1108 1108 0.55552853607359565
1109 1109 0.26798746366711707
1110 1109 -0.026489338405262627
1111 1109 -0.030071604071593545
1112 1109 -0.0097036021576889838
1113 1109 -0.013016366720543055
1114 1109 -0.0034202910908228273
1115 1109 -0.0028780367381767056
1109 1110 -0.026489338405262627
1110 1110 0.26575641445486642
1111 1110 0.0014961270331943256
1112 1110 0.00048277509483423949
1113 1110 0.00064759226272772174
1114 1110 0.00017016684411615997
1115 1110 0.00014318852284238694
1109 1111 -0.030071604071593545
1110 1111 0.0014961270331943256
1111 1111 0.26613696749177068
1112 1111 0.00054806282004374362
1113 1111 0.00073516891311662638
1114 1111 0.00019317922871781165
1115 1111 0.00016255251454891511
1109 1112 -0.0097036021576889838
1110 1112 0.00048277509483423949
1111 1112 0.00054806282004374362
1112 1112 0.26461536352739579
1113 1112 0.00023722667519166792
1114 1112 6.2335696364717265e-05
1115 1112 5.2452969491063017e-05
1109 1113 -0.013016366720543055
1110 1113 0.00064759226272772174
1111 1113 0.00073516891311662638
1112 1113 0.00023722667519166792
1113 1113 0.26475672760632629
1114 1113 8.3616812651439353e-05
1115 1113 7.0360168871529279e-05
1109 1114 -0.0034202910908228273
1110 1114 0.00017016684411615997
1111 1114 0.00019317922871781165
1112 1114 6.2335696364717265e-05
1113 1114 8.3616812651439353e-05
1114 1114 0.26446048471357791
1115 1114 1.8488435667709967e-05
1109 1115 -0.0028780367381767056
1110 1115 0.00014318852284238694
1111 1115 0.00016255251454891511
1112 1115 5.2452969491063017e-05
1113 1115 7.0360168871529279e-05
1114 1115 1.8488435667709967e-05
1115 1115 0.26445407012107058
1116 1116 0.26770363289057542
1117 1116 -0.012793681041814695
1118 1116 -0.0061622145224526715
1119 1116 -0.015124954722635812
1120 1116 -0.015535436320807991
1121 1116 -0.029364533537314181
1122 1116 -0.011969523426088844
1116 1117 -0.012793681041814695
1117 1117 0.26485982763677152
1118 1117 0.00014811935538911649
1119 1117 0.00036355413068526386
1120 1117 0.00037342075728497498
1121 1117 0.00070582673858584006
1122 1117 0.00028770794780470506
1116 1118 -0.0061622145224526715
1117 1118 0.00014811935538911649
1118 1118 0.26462365293822637
1119 1118 0.0001751097699312831
1120 1118 0.00017986213709767084
1121 1118 0.00033996906477763245
1122 1118 0.00013857763753783036
1116 1119 -0.015124954722635812
1117 1119 0.00036355413068526386
1118 1119 0.0001751097699312831
1119 1119 0.26498211087601753
1120 1119 0.00044146575391147138
1121 1119 0.00083444299011711744
1122 1119 0.00034013429517791002
1116 1120 -0.015535436320807991
1117 1120 0.00037342075728497498
1118 1120 0.00017986213709767084
1119 1120 0.00044146575391147138
1120 1120 0.26500575650457725
1121 1120 0.00085708923920996467
1122 1120 0.0003493653224198524
1116 1121 -0.029364533537314181
1117 1121 0.00070582673858584006
1118 1121 0.00033996906477763245
1119 1121 0.00083444299011711744
1120 1121 0.00085708923920996467
1121 1121 0.26617234948843294
1122 1121 0.00066035800444378984
1116 1122 -0.011969523426088844
1117 1122 0.00028770794780470506
1118 1122 0.00013857763753783036
1119 1122 0.00034013429517791002
1120 1122 0.0003493653224198524
1121 1122 0.00066035800444378984
1122 1122 0.26482148370874603
1123 1123 0.2654149448021455
1124 1123 -0.0039345559227355201
1125 1123 -0.0076963805605271994
1126 1123 -0.0050249356245774431
1127 1123 0.0021377893893624513
1128 1123 -0.0078173475869154543
1129 1123 0.00017029288926185467
1123 1124 -0.0039345559227355201
1124 1124 0.26513183578152977
1125 1124 5.7079802270703057e-05
1126 1124 3.7267171187575082e-05
1127 1124 -1.5854802745468335e-05
1128 1124 5.7976947869626452e-05
1129 1124 -1.2629682706993844e-06
1123 1125 -0.0076963805605271994
1124 1125 5.7079802270703057e-05
1125 1125 0.2652143090932737
1126 1125 7.2898273021489428e-05
1127 1125 -3.1013562403855104e-05
1128 1125 0.0001134086446615455
1129 1125 -2.4704908604819929e-06
1123 1126 -0.0050249356245774431
1124 1126 3.7267171187575082e-05
1125 1126 7.2898273021489428e-05
1126 1126 0.26515025034066814
1127 1126 -2.0248628994186861e-05
1128 1126 7.4044043718104357e-05
1129 1126 -1.612973453872269e-06
1123 1127 0.0021377893893624513
1124 1127 -1.5854802745468335e-05
1125 1127 -3.1013562403855104e-05
1126 1127 -2.0248628994186861e-05
1127 1127 0.265111269853401
1128 1127 -3.1501014705907589e-05
1129 1127 6.8621725582830887e-07
1123 1128 -0.0078173475869154543
1124 1128 5.7976947869626452e-05
1125 1128 0.0001134086446615455
1126 1128 7.4044043718104357e-05
1127 1128 -3.1501014705907589e-05
1128 1128 0.26521784648687124
1129 1128 -2.5093205325286928e-06
1123 1129 0.00017029288926185467
1124 1129 -1.2629682706993844e-06
1125 1129 -2.4704908604819929e-06
1126 1129 -1.612973453872269e-06
1127 1129 6.8621725582830887e-07
1128 1129 -2.5093205325286928e-06
1129 1129 0.26510271001711316
1130 1130 0.26594972772403053
1131 1130 0.0088291743788889362
1132 1130 0.010200102237482842
1133 1130 0.0065443527478239241
1134 1130 0.0051014541174883776
1135 1130 0.0085847045707161951
1136 1130 0.014913653666506261
1130 1131 0.0088291743788889362
1131 1131 0.2650662525739525
1132 1131 0.00016964346762510991
1133 1131 0.00010884270251949371
1134 1131 8.484506785048576e-05
1135 1131 0.00014277690732958948
1136 1131 0.00024803711414273091
1130 1132 0.010200102237482842
1131 1132 0.00016964346762510991
1132 1132 0.26511539418645258
1133 1132 0.00012574297956526205
1134 1132 9.8019172493683235e-05
1135 1132 0.00016494623272993861
1136 1132 0.00028655045357303639
1130 1133 0.0065443527478239241
1131 1133 0.00010884270251949371
1132 1133 0.00012574297956526205
1133 1133 0.26500008604656383
1134 1133 6.2888785417386576e-05
1135 1133 0.00010582897173742119
1136 1133 0.00018384984822403816
1130 1134 0.0051014541174883776
1131 1134 8.484506785048576e-05
1132 1134 9.8019172493683235e-05
1133 1134 6.2888785417386576e-05
1134 1134 0.26496843282435001
1135 1134 8.249580430989843e-05
1136 1134 0.00014331464109021267
1130 1135 0.0085847045707161951
1131 1135 0.00014277690732958948
1132 1135 0.00016494623272993861
1133 1135 0.00010582897173742119
1134 1135 8.249580430989843e-05
1135 1135 0.2650582333327765
1136 1135 0.00024116924823454567
1130 1136 0.014913653666506261
1131 1136 0.00024803711414273091
1132 1136 0.00028655045357303639
1133 1136 0.00018384984822403816
1134 1136 0.00014331464109021267
1135 1136 0.00024116924823454567
1136 1136 0.26533837753898148
1137 1137 0.26789636325756461
1138 1137 0.011992585981347455
1139 1137 0.020314525132640919
1140 1137 0.018810244487350084
1141 1137 0.014324203245127252
1142 1137 0.017455670227964144
1143 1137 0.014934659218050024
1137 1138 0.011992585981347455
1138 1138 0.26508162708670302
1139 1138 0.00045733063136930752
1140 1138 0.00042346552190819102
1141 1138 0.00032247354398801559
1142 1138 0.00039297067660726867
1143 1138 0.00033621643060225179
1137 1139 0.020314525132640919
1138 1139 0.00045733063136930752
1139 1139 0.2655863272397887
1140 1139 0.00071731826655157302
1141 1139 0.00054624556573079402
1142 1139 0.00066566232660291639
1143 1139 0.00056952496651675928
1137 1140 0.018810244487350084
1138 1140 0.00042346552190819102
1139 1140 0.00071731826655157302
1140 1140 0.26547584526301715
1141 1140 0.00050579634889015633
1142 1140 0.0006163703570555161
1143 1140 0.0005273519214395448
1137 1141 0.014324203245127252
1138 1141 0.00032247354398801559
1139 1141 0.00054624556573079402
1140 1141 0.00050579634889015633
1141 1141 0.26519681341625778
1142 1141 0.00046937264822221697
1143 1141 0.00040158415322503782
1137 1142 0.017455670227964144
1138 1142 0.00039297067660726867
1139 1142 0.00066566232660291639
1140 1142 0.0006163703570555161
1141 1142 0.00046937264822221697
1142 1142 0.26538362799972964
1143 1142 0.00048937594835210747
1137 1143 0.014934659218050024
1138 1143 0.00033621643060225179
1139 1143 0.00056952496651675928
1140 1143 0.0005273519214395448
1141 1143 0.00040158415322503782
1142 1143 0.00048937594835210747
1143 1143 0.2652303425675116
1144 1144 0.26816493529488666
1145 1144 0.012263327337699019
1146 1144 0.019250265881736235
1147 1144 0.0059671675912446043
1148 1144 0.016213587696221353
1149 1144 0.02523379055049713
1150 1144 0.019022387090203766
1144 1145 0.012263327337699019
1145 1145 0.26503564626442427
1146 1145 0.00044298023807529975
1147 1145 0.00013731432783547289
1148 1145 0.00037310128503425605
1149 1145 0.00058067096913226048
1150 1145 0.0004377363727725801
1144 1146 0.019250265881736235
1145 1146 0.00044298023807529975
1146 1146 0.2654488118568642
1147 1146 0.000215548133668323
1148 1146 0.0005856729368747738
1149 1146 0.00091150388779386688
1150 1146 0.00068713337986785346
1144 1147 0.0059671675912446043
1145 1147 0.00013731432783547289
1146 1147 0.000215548133668323
1147 1147 0.26482026223536503
1148 1147 0.00018154598951819725
1149 1147 0.00028254656283461437
1150 1147 0.00021299654043219953
1144 1148 0.016213587696221353
1145 1148 0.00037310128503425605
1146 1148 0.0005856729368747738
1147 1148 0.00018154598951819725
1148 1148 0.26524673154940875
1149 1148 0.00076771657653902647
1150 1148 0.00057873991881111583
1144 1149 0.02523379055049713
1145 1149 0.00058067096913226048
1146 1149 0.00091150388779386688
1147 1149 0.00028254656283461437
1148 1149 0.00076771657653902647
1149 1149 0.26594827192034176
1150 1149 0.00090071378205175954
1144 1150 0.019022387090203766
1145 1150 0.0004377363727725801
1146 1150 0.00068713337986785346
1147 1150 0.00021299654043219953
1148 1150 0.00057873991881111583
1149 1150 0.00090071378205175954
1150 1150 0.26543244626280998
1151 1151 0.26599738253995664
1152 1151 -0.0055400641311495712
1153 1151 0.013256013576357294
1154 1151 0.014602271101525378
1155 1151 0.007539447930476304
1156 1151 -0.0028982837271652063
1157 1151 0.0070896600926899679
1151 1152 -0.0055400641311495712
1152 1152 0.26504735007695918
1153 1152 -0.00013830691709159509
1154 1152 -0.0001523531253913096
1155 1152 -7.8663000292681544e-05
1156 1152 3.0239308737273509e-05
1157 1152 -7.3970128726792773e-05
1151 1153 0.013256013576357294
1152 1153 -0.00013830691709159509
1153 1153 0.26532048219585286
1154 1153 0.00036454363176633412
1155 1153 0.00018822125072050574
1156 1153 -7.2355243129248729e-05
1157 1153 0.00017699236099705514
1151 1154 0.014602271101525378
1152 1154 -0.0001523531253913096
1153 1154 0.00036454363176633412
1154 1154 0.26539111373732877
1155 1154 0.00020733667133466158
1156 1154 -7.9703514914504771e-05
1157 1154 0.00019496739523468826
1151 1155 0.007539447930476304
1152 1155 -7.8663000292681544e-05
1153 1155 0.00018822125072050574
1154 1155 0.00020733667133466158
1155 1155 0.26509659980991895
1156 1155 -4.1152536916745583e-05
1157 1155 0.00010066560977346688
1151 1156 -0.0028982837271652063
1152 1156 3.0239308737273509e-05
1153 1156 -7.2355243129248729e-05
1154 1156 -7.9703514914504771e-05
1155 1156 -4.1152536916745583e-05
1156 1156 0.26500536738257469
1157 1156 -3.8697461854235533e-05
1151 1157 0.0070896600926899679
1152 1157 -7.3970128726792773e-05
1153 1157 0.00017699236099705514
1154 1157 0.00019496739523468826
1155 1157 0.00010066560977346688
1156 1157 -3.8697461854235533e-05
1157 1157 0.26508420780082831
1158 1158 0.2659858974856964
1159 1158 -0.015609916569501184
1160 1158 -0.0042584872197858033
1161 1158 -0.0027963085637244837
1162 1158 -0.007401016432765522
1163 1158 -0.010837662099086534
1164 1158 -0.0037731125691778198
1158 1159 -0.015609916569501184
1159 1159 0.26558594422362353
1160 1159 0.00012516098038228591
1161 1159 8.2186162180085688e-05
1162 1159 0.00021752289598204639
1163 1159 0.00031852917324050138
1164 1159 0.00011089535881588835
1158 1160 -0.0042584872197858033
1159 1160 0.00012516098038228591
1160 1160 0.2651612986961025
1161 1160 2.2420921965140404e-05
1162 1160 5.9341667101552086e-05
1163 1160 8.6896839411932801e-05
1164 1160 3.0252978364644275e-05
1158 1161 -0.0027963085637244837
1159 1161 8.2186162180085688e-05
1160 1161 2.2420921965140404e-05
1161 1161 0.26514187651886661
1162 1161 3.8966328495898139e-05
1163 1161 5.7060257238578975e-05
1164 1161 1.9865425939562037e-05
1158 1162 -0.007401016432765522
1159 1162 0.00021752289598204639
1160 1162 5.9341667101552086e-05
1161 1162 3.8966328495898139e-05
1162 1162 0.26523028651467906
1163 1162 0.00015102192474712882
1164 1162 5.2578011500547405e-05
1158 1163 -0.010837662099086534
1159 1163 0.00031852917324050138
1160 1163 8.6896839411932801e-05
1161 1163 5.7060257238578975e-05
1162 1163 0.00015102192474712882
1163 1163 0.26534830258557951
1164 1163 7.6992495241885869e-05
1158 1164 -0.0037731125691778198
1159 1164 0.00011089535881588835
1160 1164 3.0252978364644275e-05
1161 1164 1.9865425939562037e-05
1162 1164 5.2578011500547405e-05
1163 1164 7.6992495241885869e-05
1164 1164 0.26515395876173115
1165 1165 0.26736713561654835
1166 1165 -0.010074951451486656
1167 1165 -0.020525559405531857
1168 1165 0.0014405920975002465
1169 1165 -0.0076673511202484512
1170 1165 -0.0074667217695222532
1171 1165 -0.025542929340359458
1165 1166 -0.010074951451486656
1166 1166 0.26513091756110424
1167 1166 0.0003884861042094559
1168 1166 -2.7266005308579693e-05
1169 1166 0.00014511952183425254
1170 1166 0.00014132222143849879
1171 1166 0.00048344958173755201
1165 1167 -0.020525559405531857
1166 1167 0.0003884861042094559
1167 1167 0.26573168689683557
1168 1167 -5.5548655932254419e-05
1169 1167 0.00029564999699048663
1170 1167 0.00028791380935434742
1171 1167 0.00098492515396383473
1165 1168 0.0014405920975002465
1166 1168 -2.7266005308579693e-05
1167 1168 -5.5548655932254419e-05
1168 1168 0.26494412822158003
1169 1168 -2.0750277294546187e-05
1170 1168 -2.0207310812940938e-05
1171 1168 -6.9127245956917096e-05
1165 1169 -0.0076673511202484512
1166 1169 0.00014511952183425254
1167 1169 0.00029564999699048663
1168 1169 -2.0750277294546187e-05
1169 1169 0.26505066998921994
1170 1169 0.000107550601914075
1171 1169 0.00036792015425266331
1165 1170 -0.0074667217695222532
1166 1170 0.00014132222143849879
1167 1170 0.00028791380935434742
1168 1170 -2.0207310812940938e-05
1169 1170 0.000107550601914075
1170 1170 0.26504496588024729
1171 1170 0.00035829289439340663
1165 1171 -0.025542929340359458
1166 1171 0.00048344958173755201
1167 1171 0.00098492515396383473
1168 1171 -6.9127245956917096e-05
1169 1171 0.00036792015425266331
1170 1171 0.00035829289439340663
1171 1171 0.26616591468610479
1172 1172 0.26622468748630596
1173 1172 -0.0021437549935090202
1174 1172 -0.010661916451499116
1175 1172 -0.014520817945641926
1176 1172 0.0078158921775502051
1177 1172 0.0018066981894655327
1178 1172 -0.018848367941988502
1172 1173 -0.0021437549935090202
1173 1173 0.26482339054733683
1174 1173 4.3041129536790972e-05
1175 1173 5.8619143098861579e-05
1176 1173 -3.1552003731208151e-05
1177 1173 -7.293466532064033e-06
1178 1173 7.6089045514341749e-05
1172 1174 -0.010661916451499116
1173 1174 4.3041129536790972e-05
1174 1174 0.26502880048874039
1175 1174 0.00029154096810079497
1176 1174 -0.00015692316924187456
1177 1174 -3.6273889060142038e-05
1178 1174 0.00037842712838201577
1172 1175 -0.014520817945641926
1173 1175 5.8619143098861579e-05
1174 1175 0.00029154096810079497
1175 1175 0.26521179573733761
1176 1175 -0.00021371887337327878
1177 1175 -4.9402613650069892e-05
1178 1175 0.0005153924683169585
1172 1176 0.0078158921775502051
1173 1176 -3.1552003731208151e-05
1174 1176 -0.00015692316924187456
1175 1176 -0.00021371887337327878
1176 1176 0.26492977150987229
1177 1176 2.6591167455136539e-05
1178 1176 -0.00027741219375977303
1172 1177 0.0018066981894655327
1173 1177 -7.293466532064033e-06
1174 1177 -3.6273889060142038e-05
1175 1177 -4.9402613650069892e-05
1176 1177 2.6591167455136539e-05
1177 1177 0.26482088314945929
1178 1177 -6.4125770521893062e-05
1172 1178 -0.018848367941988502
1173 1178 7.6089045514341749e-05
1174 1178 0.00037842712838201577
1175 1178 0.0005153924683169585
1176 1178 -0.00027741219375977303
1177 1178 -6.4125770521893062e-05
1178 1178 0.26548372812835525
1179 1179 0.2660972584949225
1180 1179 -0.0011600697782496983
1181 1179 -0.001366098577393425
1182 1179 0.0028093069020249588
1183 1179 -0.019322696539381914
1184 1179 0.0079684245335238657
1185 1179 0.013364453351852454
1179 1180 -0.0011600697782496983
1180 1180 0.26491983421302184
1181 1180 2.9844185036303116e-06
1182 1180 -6.1372931935680278e-06
1183 1180 4.2212922293057296e-05
1184 1180 -1.7408050938758569e-05
1185 1180 -2.9196371721779503e-05
1179 1181 -0.001366098577393425
1180 1181 2.9844185036303116e-06
1181 1181 0.26492081434327347
1182 1181 -7.2272786154549713e-06
1183 1181 4.9709952085099739e-05
1184 1181 -2.0499726885835324e-05
1185 1181 -3.4381657570935848e-05
1179 1182 0.0028093069020249588
1180 1182 -6.1372931935680278e-06
1181 1182 -7.2272786154549713e-06
1182 1182 0.26493216239362621
1183 1182 -0.00010222579380652006
1184 1182 4.2156565553188727e-05
1185 1182 7.070399568191046e-05
1179 1183 -0.019322696539381914
1180 1183 4.2212922293057296e-05
1181 1183 4.9709952085099739e-05
1182 1183 -0.00010222579380652006
1183 1183 0.2656204192229572
1184 1183 -0.00028995711459637083
1185 1183 -0.00048630922157296829
1179 1184 0.0079684245335238657
1180 1184 -1.7408050938758569e-05
1181 1184 -2.0499726885835324e-05
1182 1184 4.2156565553188727e-05
1183 1184 -0.00028995711459637083
1184 1184 0.26503687437072476
1185 1184 0.00020054749212476585
1179 1185 0.013364453351852454
1180 1185 -2.9196371721779503e-05
1181 1185 -3.4381657570935848e-05
1182 1185 7.070399568191046e-05
1183 1185 -0.00048630922157296829
1184 1185 0.00020054749212476585
1185 1185 0.26525365340630769
1186 1186 0.26630423883896404
1187 1186 -0.0049203755844078453
1188 1186 0.0099590667483318226
1189 1186 0.0073499178347282727
1190 1186 0.011624842781225751
1191 1186 -0.016225100759740246
1192 1186 0.010736844670497812
1186 1187 -0.0049203755844078453
1187 1187 0.26504908117051773
1188 1187 -9.2229689090055471e-05
1189 1187 -6.8066682738921261e-05
1190 1187 -0.00010765623552154788
1191 1187 0.00015025865739641957
1192 1187 -9.9432594518367241e-05
1186 1188 0.0099590667483318226
1187 1188 -9.2229689090055471e-05
1188 1188 0.26519019131653054
1189 1188 0.00013777010008800446
1190 1188 0.00021790117787568404
1191 1188 -0.00030413044143778666
1192 1188 0.00020125614981633704
1186 1189 0.0073499178347282727
1187 1189 -6.8066682738921261e-05
1188 1189 0.00013777010008800446
1189 1189 0.26510519026381874
1190 1189 0.00016081383868072317
1191 1189 -0.0002244521311177874
1192 1189 0.00014852959642344145
1186 1190 0.011624842781225751
1187 1190 -0.00010765623552154788
1188 1190 0.00021790117787568404
1189 1190 0.00016081383868072317
1190 1190 0.26525786200077384
1191 1190 -0.00035499998705112187
1192 1190 0.00023491870869944914
1186 1191 -0.016225100759740246
1187 1191 0.00015025865739641957
1188 1191 -0.00030413044143778666
1189 1191 -0.0002244521311177874
1190 1191 -0.00035499998705112187
1191 1191 0.26549899705714702
1192 1191 -0.00032788225963385705
1186 1192 0.010736844670497812
1187 1192 -9.9432594518367241e-05
1188 1192 0.00020125614981633704
1189 1192 0.00014852959642344145
1190 1192 0.00023491870869944914
1191 1192 -0.00032788225963385705
1192 1192 0.26522048792502012
1193 1193 0.26608443540596033
1194 1193 0.010845797895112971
1195 1193 -0.0094675165227476165
1196 1193 0.0036399691916813434
1197 1193 -0.0070257419147187203
1198 1193 0.0073867326733373425
1199 1193 0.017898153230252758
1193 1194 0.010845797895112971
1194 1194 0.26509159700393869
1195 1194 -0.0001933927927551212
1196 1194 7.4353586374049547e-05
1197 1194 -0.00014351470597379453
1198 1194 0.00015088865782276207
1199 1194 0.00036560525984201099
1193 1195 -0.0094675165227476165
1194 1195 -0.0001933927927551212
1195 1195 0.2650388665653825
1196 1195 -6.4904750607518456e-05
1197 1195 0.00012527689186209135
1198 1195 -0.00013171376369422298
1199 1195 -0.00031914423187964265
1193 1196 0.0036399691916813434
1194 1196 7.4353586374049547e-05
1195 1196 -6.4904750607518456e-05
1196 1196 0.26489500396419946
1197 1196 -4.8165115499082172e-05
1198 1196 5.0639894930780578e-05
1199 1196 0.00012270115071397525
1193 1197 -0.0070257419147187203
1194 1197 -0.00014351470597379453
1195 1197 0.00012527689186209135
1196 1197 -4.8165115499082172e-05
1197 1197 0.26496301671241584
1198 1197 -9.7743363648579933e-05
1199 1197 -0.00023683349285634923
1193 1198 0.0073867326733373425
1194 1198 0.00015088865782276207
1195 1198 -0.00013171376369422298
1196 1198 5.0639894930780578e-05
1197 1198 -9.7743363648579933e-05
1198 1198 0.26497281561284386
1199 1198 0.00024900227208141627
1193 1199 0.017898153230252758
1194 1199 0.00036560525984201099
1195 1199 -0.00031914423187964265
1196 1199 0.00012270115071397525
1197 1199 -0.00023683349285634923
1198 1199 0.00024900227208141627
1199 1199 0.26547338595687631
1200 1200 0.26663111712226178
1201 1200 -0.019611607706389551
1202 1200 0.0013676264685969582
1203 1200 0.0075145120296587296
1204 1200 -0.017913374677776601
1205 1200 -0.0068043181395223114
1206 1200 0.0093481399712315293
1200 1201 -0.019611607706389551
1201 1201 0.26566622051797617
1202 1201 -5.0456500929782463e-05
1203 1201 -0.00027723650566686649
1204 1201 0.00066088674564190647
1205 1201 0.0002510349809809953
1206 1201 -0.0003448854230161756
1200 1202 0.0013676264685969582
1201 1202 -5.0456500929782463e-05
1202 1202 0.26494619865701985
1203 1202 1.9333243295897991e-05
1204 1202 -4.6087308068593457e-05
1205 1202 -1.7506065268758525e-05
1206 1202 2.4050778508918808e-05
1200 1203 0.0075145120296587296
1201 1203 -0.00027723650566686649
1202 1203 1.9333243295897991e-05
1203 1203 0.265048907799527
1204 1203 -0.00025322969308375933
1205 1203 -9.6188207141846923e-05
1206 1203 0.00013214855706422381
1200 1204 -0.017913374677776601
1201 1204 0.00066088674564190647
1202 1204 -4.6087308068593457e-05
1203 1204 -0.00025322969308375933
1204 1204 0.26554633845301628
1205 1204 0.00022929704381533124
1206 1204 -0.0003150206702013212
1200 1205 -0.0068043181395223114
1201 1205 0.0002510349809809953
1202 1205 -1.7506065268758525e-05
1203 1205 -9.6188207141846923e-05
1204 1205 0.00022929704381533124
1205 1205 0.26502977753811408
1206 1205 -0.00011965924339396307
1200 1206 0.0093481399712315293
1201 1206 -0.0003448854230161756
1202 1206 2.4050778508918808e-05
1203 1206 0.00013214855706422381
1204 1206 -0.0003150206702013212
1205 1206 -0.00011965924339396307
1206 1206 0.26510707437967568
1207 1207 0.26740068915296811
1208 1207 0.0021131904525910909
1209 1207 -0.012999116366633747
1210 1207 0.0038034186350640875
1211 1207 -0.0071979525047816146
1212 1207 -0.017161085976099992
1213 1207 -0.018144114202282728
1207 1208 0.0021131904525910909
1208 1208 0.26578967206182708
1209 1208 -5.1520136323418701e-05
1210 1208 1.5074305133270899e-05
1211 1208 -2.8528054048944138e-05
1212 1208 -6.8015506901377012e-05
1213 1208 -7.1911598512088411e-05
1207 1209 -0.012999116366633747
1208 1209 -5.1520136323418701e-05
1209 1209 0.2660982185933658
1210 1209 -9.2728341798660552e-05
1211 1209 0.00017548796600000565
1212 1209 0.00041839176770010932
1213 1209 0.00044235825314424126
1207 1210 0.0038034186350640875
1208 1210 1.5074305133270899e-05
1209 1210 -9.2728341798660552e-05
1210 1210 0.26580842817079048
1211 1210 -5.1346120866118417e-05
1212 1210 -0.00012241747832280453
1213 1210 -0.00012942984553179269
1207 1211 -0.0071979525047816146
1208 1211 -2.8528054048944138e-05
1209 1211 0.00017548796600000565
1210 1211 -5.1346120866118417e-05
1211 1211 0.2658784690347657
1212 1211 0.00023167452212575926
1213 1211 0.00024494539524265826
1207 1212 -0.017161085976099992
1208 1212 -6.8015506901377012e-05
1209 1212 0.00041839176770010932
1210 1212 -0.00012241747832280453
1211 1212 0.00023167452212575926
1212 1212 0.26633364636266105
1213 1212 0.00058398954208389669
1207 1213 -0.018144114202282728
1208 1213 -7.1911598512088411e-05
1209 1213 0.00044235825314424126
1210 1213 -0.00012942984553179269
1211 1213 0.00024494539524265826
1212 1213 0.00058398954208389669
1213 1213 0.26639873859988028
1214 1214 0.26729695249353946
1215 1214 0.0011354990635701902
1216 1214 0.015002371451613396
1217 1214 -0.0036042431898572489
1218 1214 -0.0075500447444124879
1219 1214 -0.038087910280940697
1220 1214 -0.013743437468697882
1214 1215 0.0011354990635701902
1215 1215 0.26365321178971096
1216 1215 3.2084473825999127e-05
1217 1215 -7.7081311218350251e-06
1218 1215 -1.6146728120184874e-05
1219 1215 -8.1455826129703273e-05
1220 1215 -2.9392083855934111e-05
1214 1216 0.015002371451613396
1215 1216 3.2084473825999127e-05
1216 1216 0.26407468790859906
1217 1216 -0.00010184089973964324
1218 1216 -0.00021333281616770872
1219 1216 -0.0010762056964217883
1220 1216 -0.00038833229712869407
1214 1217 -0.0036042431898572489
1215 1217 -7.7081311218350251e-06
1216 1217 -0.00010184089973964324
1217 1217 0.263675250137476
1218 1217 5.1252120528107748e-05
1219 1217 0.00025855292709717968
1220 1217 9.3294852873223303e-05
1214 1218 -0.0075500447444124879
1215 1218 -1.6146728120184874e-05
1216 1218 -0.00021333281616770872
1217 1218 5.1252120528107748e-05
1218 1218 0.26375814456134716
1219 1218 0.00054160778436813581
1220 1218 0.00019543085094768918
1214 1219 -0.038087910280940697
1215 1219 -8.1455826129703273e-05
1216 1219 -0.0010762056964217883
1217 1219 0.00025855292709717968
1218 1219 0.00054160778436813581
1219 1219 0.26638304648626232
1220 1219 0.0009858951793010474
1214 1220 -0.013743437468697882
1215 1220 -2.9392083855934111e-05
1216 1220 -0.00038833229712869407
1217 1220 9.3294852873223303e-05
1218 1220 0.00019543085094768918
1219 1220 0.0009858951793010474
1220 1220 0.2640065285149884
1221 1221 0.26671781793037802
1222 1221 0.0074705643425933502
1223 1221 -0.012111656887982917
1224 1221 0.004852996594534786
1225 1221 -0.011071707563065686
1226 1221 0.015855485293390509
1227 1221 0.0065908817440685106
1221 1222 0.0074705643425933502
1222 1222 0.26561365922411734
1223 1222 -0.00017000448526295224
1224 1222 6.8118771499821413e-05
1225 1222 -0.00015540730410786816
1226 1222 0.00022255448951593224
1227 1222 9.2512483526600416e-05
1221 1223 -0.012111656887982917
1222 1223 -0.00017000448526295224
1223 1223 0.26578441900587507
1224 1223 -0.00011043759884816721
1225 1223 0.00025195418430564131
1226 1223 -0.00036081659862411932
1227 1223 -0.00014998591899422555
1221 1224 0.004852996594534786
1222 1224 6.8118771499821413e-05
1223 1224 -0.00011043759884816721
1224 1224 0.26555305016283387
1225 1224 -0.00010095503940730457
1226 1224 0.00014457491163837746
1227 1224 6.0097570533833757e-05
1221 1225 -0.011071707563065686
1222 1225 -0.00015540730410786816
1223 1225 0.00025195418430564131
1224 1225 -0.00010095503940730457
1225 1225 0.26573911964759944
1226 1225 -0.00032983562041209735
1227 1225 -0.00013710760212579649
1221 1226 0.015855485293390509
1222 1226 0.00022255448951593224
1223 1226 -0.00036081659862411932
1224 1226 0.00014457491163837746
1225 1226 -0.00032983562041209735
1226 1226 0.26598114757592373
1227 1226 0.00019634799390561778
1221 1227 0.0065908817440685106
1222 1227 9.2512483526600416e-05
1223 1227 -0.00014998591899422555
1224 1227 6.0097570533833757e-05
1225 1227 -0.00013710760212579649
1226 1227 0.00019634799390561778
1227 1227 0.26559041797868549
1228 1228 0.26698674157588337
1229 1228 0.0055076494542084372
1230 1228 -0.0059292359701688026
1231 1228 0.0093054506539421988
1232 1228 0.020150212318067382
1233 1228 0.017401564317837941
1234 1228 -0.025293791596696247
1228 1229 0.0055076494542084372
1229 1229 0.26421845779071279
1230 1229 -6.1482200440017657e-05
1231 1229 9.6491282379183101e-05
1232 1229 0.00020894418756166674
1233 1229 0.00018044255123965191
1234 1229 -0.00026227965502810627
1228 1230 -0.0059292359701688026
1229 1230 -6.1482200440017657e-05
1230 1230 0.26422753555411205
1231 1230 -0.00010387726870547413
1232 1230 -0.00022493795274165359
1233 1230 -0.0001942546406147296
1234 1230 0.00028235601734744308
1228 1231 0.0093054506539421988
1229 1231 9.6491282379183101e-05
1230 1231 -0.00010387726870547413
1231 1231 0.26432437403244574
1232 1231 0.00035302170970548315
1233 1231 0.000304866762199073
1234 1231 -0.00044313466346920864
1228 1232 0.020150212318067382
1229 1232 0.00020894418756166674
1230 1232 -0.00022493795274165359
1231 1232 0.00035302170970548315
1232 1232 0.2649257875579103
1233 1232 0.00066016469438055412
1234 1232 -0.00095957282311921808
1228 1233 0.017401564317837941
1229 1233 0.00018044255123965191
1230 1233 -0.0001942546406147296
1231 1233 0.000304866762199073
1232 1233 0.00066016469438055412
1233 1233 0.26473146017926708
1234 1233 -0.00082867951640322598
1228 1234 -0.025293791596696247
1229 1234 -0.00026227965502810627
1230 1234 0.00028235601734744308
1231 1234 -0.00044313466346920864
1232 1234 -0.00095957282311921808
1233 1234 -0.00082867951640322598
1234 1234 0.26536586225992109
1235 1235 0.2669642795227713
1236 1235 0.011618403688142277
1237 1235 0.015560455540886201
1238 1235 0.0070161081650120726
1239 1235 0.015068559258029192
1240 1235 0.0029268559625598876
1241 1235 0.011232536615773525
1235 1236 0.011618403688142277
1236 1236 0.26573758513627826
1237 1236 0.00033954026995637143
1238 1236 0.00015309649862960419
1239 1236 0.00032880674122175624
1240 1236 6.3866090619246835e-05
1241 1236 0.00024510198334446446
1235 1237 0.015560455540886201
1236 1237 0.00033954026995637143
1237 1237 0.26593880742165493
1238 1237 0.00020504118503152227
1239 1237 0.0004403688162037771
1240 1237 8.5535456533091157e-05
1241 1237 0.00032826355643908537
1235 1238 0.0070161081650120726
1236 1238 0.00015309649862960419
1237 1238 0.00020504118503152227
1238 1238 0.26557651499371815
1239 1238 0.00019855943412875544
1240 1238 3.8567380845823084e-05
1241 1238 0.00014801190187244351
1235 1239 0.015068559258029192
1236 1239 0.00032880674122175624
1237 1239 0.0004403688162037771
1238 1239 0.00019855943412875544
1239 1239 0.26591051115830572
1240 1239 8.2831514285992367e-05
1241 1239 0.00031788650656509361
1235 1240 0.0029268559625598876
1236 1240 6.3866090619246835e-05
1237 1240 8.5535456533091157e-05
1238 1240 3.8567380845823084e-05
1239 1240 8.2831514285992367e-05
1240 1240 0.26550015211549927
1241 1240 6.1744988437538562e-05
1235 1241 0.011232536615773525
1236 1241 0.00024510198334446446
1237 1241 0.00032826355643908537
1238 1241 0.00014801190187244351
1239 1241 0.00031788650656509361
1240 1241 6.1744988437538562e-05
1241 1241 0.26572102498437711
1242 1242 0.26768153976442044
1243 1242 0.0080498694059556192
1244 1242 0.0044671042586753151
1245 1242 0.0014256402316079233
1246 1242 8.0557412058344458e-05
1247 1242 -0.0065884996749104247
1248 1242 0.00033035180849974453
1242 1243 0.0080498694059556192
1243 1243 0.26755911587049286
1244 1243 6.7199199136541016e-05
1245 1243 2.1446081459780969e-05
1246 1243 1.2118350639164126e-06
1247 1243 -9.9111611466313299e-05
1248 1243 4.9695229121591724e-06
1242 1244 0.0044671042586753151
1243 1244 6.7199199136541016e-05
1244 1244 0.26747531146432124
1245 1244 1.1901047953648436e-05
1246 1244 6.7248216111779783e-07
1247 1244 -5.4999886251295319e-05
1248 1244 2.7577313177362591e-06
1242 1245 0.0014256402316079233
1243 1245 2.1446081459780969e-05
1244 1245 1.1901047953648436e-05
1245 1245 0.26744181881760781
1246 1245 2.1461724831389413e-07
1247 1245 -1.7552769318385683e-05
1248 1245 8.8010766860762938e-07
1242 1246 8.0557412058344458e-05
1243 1246 1.2118350639164126e-06
1244 1246 6.7248216111779783e-07
1245 1246 2.1461724831389413e-07
1246 1246 0.26743803282149953
1247 1246 -9.9183906247613417e-07
1248 1246 4.9731478211560617e-08
1242 1247 -0.0065884996749104247
1243 1247 -9.9111611466313299e-05
1244 1247 -5.4999886251295319e-05
1245 1247 -1.7552769318385683e-05
1246 1247 -9.9183906247613417e-07
1247 1247 0.26751913962767282
1248 1247 -4.0673579209865156e-06
1242 1248 0.00033035180849974453
1243 1248 4.9695229121591724e-06
1244 1248 2.7577313177362591e-06
1245 1248 8.8010766860762938e-07
1246 1248 4.9731478211560617e-08
1247 1248 -4.0673579209865156e-06
1248 1248 0.26743822463437339
1249 1249 0.26722730669821482
1250 1249 -0.0040299634298016414
1251 1249 -0.00188771337019867
1252 1249 -0.0014777960058659303
1253 1249 -0.011140436334832544
1254 1249 -0.021184187562901084
1255 1249 -0.014311382893865479
1249 1250 -0.0040299634298016414
1250 1250 0.26575730752440602
1251 1250 1.4274053350161256e-05
1252 1250 1.1174439595225986e-05
1253 1250 8.4239050852693222e-05
1254 1250 0.00016018545411947187
1255 1250 0.00010821634585346064
1249 1251 -0.00188771337019867
1250 1251 1.4274053350161256e-05
1251 1251 0.26573352096850517
1252 1251 5.2343251733735404e-06
1253 1251 3.945921231233151e-05
1254 1251 7.5033986962893179e-05
1255 1251 5.0690644344550776e-05
1249 1252 -0.0014777960058659303
1250 1252 1.1174439595225986e-05
1251 1252 5.2343251733735404e-06
1252 1252 0.26573093241420781
1253 1252 3.0890635872141017e-05
1254 1252 5.8740340556198899e-05
1255 1252 3.9683160022998459e-05
1249 1253 -0.011140436334832544
1250 1253 8.4239050852693222e-05
1251 1253 3.945921231233151e-05
1252 1253 3.0890635872141017e-05
1253 1253 0.26595970526954238
1254 1253 0.00044281688518251698
1255 1253 0.00029915341227501851
1249 1254 -0.021184187562901084
1250 1254 0.00016018545411947187
1251 1254 7.5033986962893179e-05
1252 1254 5.8740340556198899e-05
1253 1254 0.00044281688518251698
1254 1254 0.26656887678306773
1255 1254 0.00056885761071145025
1249 1255 -0.014311382893865479
1250 1255 0.00010821634585346064
1251 1255 5.0690644344550776e-05
1252 1255 3.9683160022998459e-05
1253 1255 0.00029915341227501851
1254 1255 0.00056885761071145025
1255 1255 0.26611113735784364
1256 1256 0.2681607629185625
1257 1256 -0.015575925676526213
1258 1256 -0.0081666614308127106
1259 1256 -0.018384730630237458
1260 1256 -0.013640084527942095
1261 1256 -0.0097173621544858826
1262 1256 -0.025906581672565765
1256 1257 -0.015575925676526213
1257 1257 0.26561761086168911
1258 1257 0.00023851061878862474
1259 1257 0.00053693342328797234
1260 1257 0.00039836413308551479
1261 1257 0.00028379945466025579
1262 1257 0.00075661209635903798
1256 1258 -0.0081666614308127106
1257 1258 0.00023851061878862474
1258 1258 0.26528776394741893
1259 1258 0.0002815212122826503
1260 1258 0.00020886752213972919
1261 1258 0.00014879976372463599
1262 1258 0.00039670161207393245
1256 1259 -0.018384730630237458
1257 1259 0.00053693342328797234
1258 1259 0.0002815212122826503
1259 1259 0.26579646828042441
1260 1259 0.00047020109312428574
1261 1259 0.00033497697891562679
1262 1259 0.00089305187197339351
1256 1260 -0.013640084527942095
1257 1260 0.00039836413308551479
1258 1260 0.00020886752213972919
1259 1260 0.00047020109312428574
1260 1260 0.26551156348583993
1261 1260 0.00024852767218731949
1262 1260 0.00066257718247551356
1256 1261 -0.0097173621544858826
1257 1261 0.00028379945466025579
1258 1261 0.00014879976372463599
1259 1261 0.00033497697891562679
1260 1261 0.00024852767218731949
1261 1261 0.26533976384942792
1262 1261 0.00047202804529722608
1256 1262 -0.025906581672565765
1257 1262 0.00075661209635903798
1258 1262 0.00039670161207393245
1259 1262 0.00089305187197339351
1260 1262 0.00066257718247551356
1261 1262 0.00047202804529722608
1262 1262 0.2664211410554056
1263 1263 0.45965645776802244
1264 1263 -0.29396219517535416
1265 1263 -0.085265852301271913
1263 1264 -0.29396219517535416
1264 1264 4.8607070777682093
1265 1264 -0.057807812389279012
1263 1265 -0.085265852301271913
1264 1265 -0.057807812389279012
1265 1265 0.28679336994240578
1266 1266 0.44138550341958038
1267 1266 -0.35477252200100068
1268 1266 -0.14578050226820319
1266 1267 -0.35477252200100068
1267 1267 5.2947269670312007
1268 1267 -0.15982576509954596
1266 1268 -0.14578050226820319
1267 1268 -0.15982576509954596
1268 1268 0.54594746130479233
1269 1269 0.3691631552731533
1270 1269 -0.25402239803269505
1271 1269 -0.074915399003491853
1269 1270 -0.25402239803269505
1270 1270 4.8722790012853494
1271 1270 -0.089050331376757816
1269 1271 -0.074915399003491853
1270 1271 -0.089050331376757816
1271 1271 0.28421400165313415
1272 1272 0.48881556784164565
1273 1272 -0.30652937961895033
1274 1272 -0.08844884831898954
1272 1273 -0.30652937961895033
1273 1273 4.8570566281680163
1274 1273 -0.049677914783463839
1272 1274 -0.08844884831898954
1273 1274 -0.049677914783463839
1274 1274 0.28755370979744432
1275 1275 0.26680871141274992
1276 1275 -0.0030997407463854505
1277 1275 -0.02014417931956582
1278 1275 -0.020872365366106621
1279 1275 -0.0036705386052018432
1280 1275 -0.0043459844334626475
1281 1275 -0.01149386305694006
1275 1276 -0.0030997407463854505
1276 1276 0.26491685748479177
1277 1276 0.00011743624768431233
1278 1276 0.00012168141625460825
1279 1276 2.1398453316816716e-05
1280 1276 2.5336157718997394e-05
1281 1276 6.7006758001470824e-05
1275 1277 -0.02014417931956582
1276 1277 0.00011743624768431233
1277 1277 0.26566196559253813
1278 1277 0.00079076686389009318
1279 1277 0.00013906139772429618
1280 1277 0.00016465122283385318
1281 1277 0.00043545452966618314
1275 1278 -0.020872365366106621
1276 1278 0.00012168141625460825
1277 1278 0.00079076686389009318
1278 1278 0.26571813872461852
1279 1278 0.00014408828751855742
1280 1278 0.00017060315173159874
1281 1278 0.00045119564809923416
1275 1279 -0.0036705386052018432
1276 1279 2.1398453316816716e-05
1277 1279 0.00013906139772429618
1278 1279 0.00014408828751855742
1279 1279 0.26492412550521932
1280 1279 3.0001652597400299e-05
1281 1279 7.9345633127742975e-05
1275 1280 -0.0043459844334626475
1276 1280 2.5336157718997394e-05
1277 1280 0.00016465122283385318
1278 1280 0.00017060315173159874
1279 1280 3.0001652597400299e-05
1280 1280 0.26493430916270627
1281 1280 9.394667200822062e-05
1275 1281 -0.01149386305694006
1276 1281 6.7006758001470824e-05
1277 1281 0.00043545452966618314
1278 1281 0.00045119564809923416
1279 1281 7.9345633127742975e-05
1280 1281 9.394667200822062e-05
1281 1281 0.26514724824610464
1282 1282 1.0000000000000002e-08
1283 1283 1.0000000000000002e-08
1284 1284 1.0000000000000002e-08
1285 1285 1.0000000000000002e-08
1286 1286 1.0000000000000002e-08
1287 1287 1.0000000000000002e-08
1288 1288 1.0000000000000002e-08
1289 1289 1.0000000000000002e-08
1290 1290 1.0000000000000002e-08
1291 1291 1.0000000000000002e-08
1292 1292 1.0000000000000002e-08
1293 1293 1.0000000000000002e-08
1294 1294 1.0000000000000002e-08
1295 1295 1.0000000000000002e-08
1296 1296 1.0000000000000002e-08
1297 1297 1.0000000000000002e-08
1298 1298 0.21281672447211919
1299 1298 0.17085275660116139
1300 1298 -0.67842090533464916
1298 1299 0.17085275660116139
1299 1299 13.63222290631354
1300 1299 -5.6064418203096356
1298 1300 -0.67842090533464916
1299 1300 -5.6064418203096356
1300 1300 5.304285713582102
1301 1301 0.67032831894325007
1302 1301 2.9858322047242507
1303 1301 -3.8410732381837147
1301 1302 2.9858322047242507
1302 1302 47.617669092294356
1303 1302 -33.040673672477517
1301 1303 -3.8410732381837147
1302 1303 -33.040673672477517
1303 1303 30.665859736220732
1304 1304 0.086817971586497039
1305 1304 1.4229594020866054
1306 1304 -1.1302457616214627
1304 1305 1.4229594020866054
1305 1305 54.922504749018216
1306 1305 -28.304854690898431
1304 1306 -1.1302457616214627
1305 1306 -28.304854690898431
1306 1306 17.829444694635654
1307 1307 0.68877318282865296
1308 1307 2.280651018124749
1309 1307 -3.4910908804534402
1307 1308 2.280651018124749
1308 1308 34.577340674561398
1309 1308 -24.552183204566646
1307 1309 -3.4910908804534402
1308 1309 -24.552183204566646
1309 1309 25.170580892571476
1310 1310 0.40881392544385498
1311 1310 -0.05979440706319844
1312 1310 -0.95299647276238364
1310 1311 -0.05979440706319844
1311 1311 10.851131388849451
1312 1311 -4.0459780800227492
1310 1312 -0.95299647276238364
1311 1312 -4.0459780800227492
1312 1312 5.4494039640150405
1313 1313 0.85714555919653812
1314 1313 1.7411382743866026
1315 1313 -3.618625449968262
1313 1314 1.7411382743866026
1314 1314 30.194426645726246
1315 1314 -20.629835093938151
1313 1315 -3.618625449968262
1314 1315 -20.629835093938151
1315 1315 23.720287412765487
1316 1316 0.46625011255928389
1317 1316 2.7547469698502804
1318 1316 -3.1370634900691838
1316 1317 2.7547469698502804
1317 1317 53.833707687941136
1318 1317 -35.02333698176966
1316 1318 -3.1370634900691838
1317 1318 -35.02333698176966
1318 1318 29.682802523669487
1319 1319 0.33454934749600229
1320 1319 2.2386433012837497
1321 1319 -2.3893797689795742
1319 1320 2.2386433012837497
1320 1320 52.456350060983013
1321 1320 -31.7174265488141
1319 1321 -2.3893797689795742
1320 1321 -31.7174265488141
1321 1321 24.916571735950001
1322 1322 0.26633175753200705
1323 1322 0.0073400814386583649
1324 1322 -0.025478044367744659
1325 1322 0.002423914378413587
1326 1322 -0.0080536827553867162
1327 1322 -0.0018260164058235223
1328 1322 -0.0014918190336806042
1322 1323 0.0073400814386583649
1323 1323 0.26496610875179571
1324 1323 -0.00035205604961370426
1325 1323 3.349369003166096e-05
1326 1323 -0.00011128592504113171
1327 1323 -2.5231925695910489e-05
1328 1323 -2.0613980733978082e-05
1322 1324 -0.025478044367744659
1323 1324 -0.00035205604961370426
1324 1324 0.26608669974870552
1325 1324 -0.00011625943496644945
1326 1324 0.00038628287157284059
1327 1324 8.7582151197704858e-05
1328 1324 7.1552873101653905e-05
1322 1325 0.002423914378413587
1323 1325 3.349369003166096e-05
1324 1325 -0.00011625943496644945
1325 1325 0.26487574399986008
1326 1325 -3.6749940184800026e-05
1327 1325 -8.3323363644531508e-06
1328 1325 -6.8073528495568206e-06
1322 1326 -0.0080536827553867162
1323 1326 -0.00011128592504113171
1324 1326 0.00038628287157284059
1325 1326 -3.6749940184800026e-05
1326 1326 0.26498678850330037
1327 1326 2.7684968696954453e-05
1328 1326 2.2618068007084464e-05
1322 1327 -0.0018260164058235223
1323 1327 -2.5231925695910489e-05
1324 1327 8.7582151197704858e-05
1325 1327 -8.3323363644531508e-06
1326 1327 2.7684968696954453e-05
1327 1327 0.2648709604117111
1328 1327 5.1282083617391282e-06
1322 1328 -0.0014918190336806042
1323 1328 -2.0613980733978082e-05
1324 1328 7.1552873101653905e-05
1325 1328 -6.8073528495568206e-06
1326 1328 2.2618068007084464e-05
1327 1328 5.1282083617391282e-06
1328 1328 0.2648688730259538
1329 1329 1.0000000000000002e-08
1330 1330 1.0000000000000002e-08
1331 1331 1.0000000000000002e-08
1332 1332 1.0000000000000002e-08
1333 1333 1.0000000000000002e-08
1334 1334 1.0000000000000002e-08
1335 1335 1.0000000000000002e-08
1336 1336 1.0000000000000002e-08
1337 1337 1.0000000000000002e-08
1338 1338 1.0000000000000002e-08
1339 1339 1.0000000000000002e-08
1340 1340 1.0000000000000002e-08
1341 1341 1.0000000000000002e-08
1342 1342 1.0000000000000002e-08
1343 1343 1.0000000000000002e-08
1344 1344 1.0000000000000002e-08
1345 1345 0.31205381234674257
1346 1345 -0.30196471996297147
1347 1345 -0.19138223765979398
1345 1346 -0.30196471996297147
1346 1346 5.8052616965200894
1347 1346 -0.45065356286018976
1345 1347 -0.19138223765979398
1346 1347 -0.45065356286018976
1347 1347 0.87276146928907106
1348 1348 0.32445481189415148
1349 1348 -0.28530643660347899
1350 1348 -0.12511754682429607
1348 1349 -0.28530643660347899
1349 1349 5.3297105994544651
1350 1349 -0.2377849387637615
1348 1350 -0.12511754682429607
1349 1350 -0.2377849387637615
1350 1350 0.53429156848253978
1351 1351 0.31602694529175923
1352 1351 -0.22949470106321168
1353 1351 -0.069167237791727218
1351 1352 -0.22949470106321168
1352 1352 4.8817436128596858
1353 1352 -0.11079613608535847
1351 1353 -0.069167237791727218
1352 1353 -0.11079613608535847
1353 1353 0.28308065324374265
1354 1354 0.33581309404298676
1355 1354 -0.23879353037747841
1356 1354 -0.071438608349428584
1354 1355 -0.23879353037747841
1355 1355 4.8785485238324133
1356 1355 -0.10225454916360779
1354 1356 -0.071438608349428584
1355 1356 -0.10225454916360779
1356 1356 0.28377882749983846
1357 1357 0.48714920922142974
1358 1357 -0.43429849214162675
1359 1357 -0.23774014883861472
1357 1358 -0.43429849214162675
1358 1358 5.7248380097994058
1359 1358 -0.27795656470770547
1357 1359 -0.23774014883861472
1358 1359 -0.27795656470770547
1359 1359 0.89942723048757611
1360 1360 0.34316580557058352
1361 1360 -0.24225047241249439
1362 1360 -0.072055751835221046
1360 1361 -0.24225047241249439
1361 1361 4.8759942970811014
1362 1361 -0.099469180905649282
1360 1362 -0.072055751835221046
1361 1362 -0.099469180905649282
1362 1362 0.28346093032191955
1363 1363 0.32556781757667375
1364 1363 -0.23401191917318881
1365 1363 -0.070262681737079336
1363 1364 -0.23401191917318881
1364 1364 4.880323563779533
1365 1364 -0.10664909569604766
1363 1365 -0.070262681737079336
1364 1365 -0.10664909569604766
1365 1365 0.28344337146631204
1366 1366 0.3496023889646605
1367 1366 -0.30144921241777095
1368 1366 -0.12950680927234809
1366 1367 -0.30144921241777095
1367 1367 5.3256643641644716
1368 1367 -0.22091228769513604
1366 1368 -0.12950680927234809
1367 1368 -0.22091228769513604
1368 1368 0.53769895567541115
1369 1369 0.43564658541085965
1370 1369 -0.41757494034300952
1371 1369 -0.31701170575731735
1369 1370 -0.41757494034300952
1370 1370 6.2243068784561082
1371 1370 -0.54710689106416555
1369 1371 -0.31701170575731735
1370 1371 -0.54710689106416555
1371 1371 1.3128105114164594
1372 1372 0.39477618670110382
1373 1372 -0.32815739415516659
1374 1372 -0.13760446930329953
1372 1373 -0.32815739415516659
1373 1373 5.3096298785237375
1374 1373 -0.19006418547439546
1372 1374 -0.13760446930329953
1373 1374 -0.19006418547439546
1374 1374 0.54324799413179314
1375 1375 0.26518107760766635
1376 1375 -0.0011411143259579578
1377 1375 -0.0016293518009185143
1378 1375 -0.0054836686597974239
1379 1375 0.00027062650112027672
1380 1375 -0.00069820975711614342
1381 1375 0.0018580351183680552
1375 1376 -0.0011411143259579578
1376 1376 0.26511179776032978
1377 1376 3.5061479756836702e-06
1378 1376 1.1800124294845435e-05
1379 1376 -5.8235217129555072e-07
1380 1376 1.5024543656780124e-06
1381 1376 -3.9982440043598205e-06
1375 1377 -0.0016293518009185143
1376 1377 3.5061479756836702e-06
1377 1377 0.26511434852371463
1378 1377 1.6848928572277943e-05
1379 1377 -8.3151752412945484e-07
1380 1377 2.1452948848576163e-06
1381 1377 -5.7089337333017953e-06
1375 1378 -0.0054836686597974239
1376 1378 1.1800124294845435e-05
1377 1378 1.6848928572277943e-05
1378 1378 0.2651660481842279
1379 1378 -2.7985156947508591e-06
1380 1378 7.2201020795421012e-06
1381 1378 -1.921371491197867e-05
1375 1379 0.00027062650112027672
1376 1379 -5.8235217129555072e-07
1377 1379 -8.3151752412945484e-07
1378 1379 -2.7985156947508591e-06
1379 1379 0.2651094803448989
1380 1379 -3.5632185034131785e-07
1381 1379 9.4822294393391744e-07
1375 1380 -0.00069820975711614342
1376 1380 1.5024543656780124e-06
1377 1380 2.1452948848576163e-06
1378 1380 7.2201020795421012e-06
1379 1380 -3.5632185034131785e-07
1380 1380 0.26511026153600914
1381 1380 -2.4463920149557378e-06
1375 1381 0.0018580351183680552
1376 1381 -3.9982440043598205e-06
1377 1381 -5.7089337333017953e-06
1378 1381 -1.921371491197867e-05
1379 1381 9.4822294393391744e-07
1380 1381 -2.4463920149557378e-06
1381 1381 0.26511585243021585
1382 1382 1.0000000000000002e-08
1383 1383 1.0000000000000002e-08
1384 1384 1.0000000000000002e-08
1385 1385 1.0000000000000002e-08
1386 1386 1.0000000000000002e-08
1387 1387 1.0000000000000002e-08
1388 1388 1.0000000000000002e-08
1389 1389 1.0000000000000002e-08
1390 1390 1.0000000000000002e-08
1391 1391 1.0000000000000002e-08
1392 1392 1.0000000000000002e-08
1393 1393 1.0000000000000002e-08
1394 1394 1.0000000000000002e-08
1395 1395 1.0000000000000002e-08
1396 1396 1.0000000000000002e-08
1397 1397 1.0000000000000002e-08
1398 1398 1.0000000000000002e-08
1399 1399 1.0000000000000002e-08
1400 1400 1.0000000000000002e-08
1401 1401 1.0000000000000002e-08
1402 1402 1.0000000000000002e-08
1403 1403 1.0000000000000002e-08
1404 1404 1.0000000000000002e-08
1405 1405 1.0000000000000002e-08
1406 1406 1.0000000000000002e-08
1407 1407 1.0000000000000002e-08
1408 1408 1.0000000000000002e-08
1409 1409 1.0000000000000002e-08
1410 1410 1.0000000000000002e-08
1411 1411 1.0000000000000002e-08
1412 1412 1.0000000000000002e-08
1413 1413 1.0000000000000002e-08
1414 1414 0.26531149753305033
1415 1414 0.0046768832200643857
1416 1414 0.0057722935277205708
1417 1414 0.0045990717845325072
1418 1414 0.0052849804322336637
1419 1414 0.0017950556090246175
1420 1414 -0.0014454951278813149
1414 1415 0.0046768832200643857
1415 1415 0.26514613022070099
1416 1415 5.0896509337642411e-05
1417 1415 4.0551766624796256e-05
1418 1415 4.6599684272233946e-05
1419 1415 1.5827688617627682e-05
1420 1415 -1.2745480790333331e-05
1414 1416 0.0057722935277205708
1415 1416 5.0896509337642411e-05
1416 1416 0.26516770974979198
1417 1416 5.0049720938450975e-05
1418 1416 5.7514169856636919e-05
1419 1416 1.9534818439415954e-05
1420 1416 -1.5730702010711129e-05
1414 1417 0.0045990717845325072
1415 1417 4.0551766624796256e-05
1416 1417 5.0049720938450975e-05
1417 1417 0.26514476944944926
1418 1417 4.5824384108013707e-05
1419 1417 1.5564356155699708e-05
1420 1417 -1.2533428423366992e-05
1414 1418 0.0052849804322336637
1415 1418 4.6599684272233946e-05
1416 1418 5.7514169856636919e-05
1417 1418 4.5824384108013707e-05
1418 1418 0.26515755102448912
1419 1418 1.7885634662158235e-05
1420 1418 -1.4402672336854798e-05
1414 1419 0.0017950556090246175
1415 1419 1.5827688617627682e-05
1416 1419 1.9534818439415954e-05
1417 1419 1.5564356155699708e-05
1418 1419 1.7885634662158235e-05
1419 1419 0.26511096725747063
1420 1419 -4.891900375927794e-06
1414 1420 -0.0014454951278813149
1415 1420 -1.2745480790333331e-05
1416 1420 -1.5730702010711129e-05
1417 1420 -1.2533428423366992e-05
1418 1420 -1.4402672336854798e-05
1419 1420 -4.891900375927794e-06
1420 1420 0.2651088316362939
1421 1421 4.0306725334168156
1422 1422 3.9439741960435293
1423 1423 3.8814422815692819
1424 1424 3.8291375665189893
1425 1425 3.5490578280403349
1426 1426 3.1819942582781842
1427 1427 2.839749252862156
1428 1428 2.7116123844469602
1429 1429 2.778196915995804
1430 1430 2.9634473446573528
1431 1431 2.9278864281437365
1432 1432 2.8406271240467387
1433 1433 2.9987965140144461
1434 1434 3.0766865109621957
1435 1435 2.9501043242058249
1436 1436 2.9127090440944081
1437 1437 1.0000000000000002e-08
1438 1438 1.0000000000000002e-08
1439 1439 1.0000000000000002e-08
1440 1440 1.0000000000000002e-08
1441 1441 1.0000000000000002e-08
1442 1442 1.0000000000000002e-08
1443 1443 1.0000000000000002e-08
1444 1444 1.0000000000000002e-08
1445 1445 1.0000000000000002e-08
1446 1446 1.0000000000000002e-08
1447 1447 1.0000000000000002e-08
1448 1448 1.0000000000000002e-08
1449 1449 1.0000000000000002e-08
1450 1450 1.0000000000000002e-08
1451 1451 1.0000000000000002e-08
1452 1452 1.0000000000000002e-08
