%%MatrixMarket matrix coordinate real general
1693 3006 69750
1589 1 0
1590 1 0
1591 1 0
1592 1 0
1693 1 0
1589 2 0.99878751991636638
1590 2 0
1591 2 0
1592 2 0
1693 2 0
1589 3 0
1590 3 0.99886974093913028
1591 3 0
1592 3 0
1693 3 0
1589 4 0
1590 4 0
1591 4 0.99859691322799182
1592 4 0
1693 4 0
1589 5 0
1590 5 0
1591 5 0
1592 5 0.99879118685427859
1693 5 0
1589 6 0
1590 6 0
1591 6 0
1592 6 0
1693 6 1
1585 7 0
1586 7 0
1587 7 0
1588 7 0
1692 7 0
1585 8 0.99878751991636638
1586 8 0
1587 8 0
1588 8 0
1692 8 0
1585 9 0
1586 9 0.99886974093913028
1587 9 0
1588 9 0
1692 9 0
1585 10 0
1586 10 0
1587 10 0.99859691322799182
1588 10 0
1692 10 0
1585 11 0
1586 11 0
1587 11 0
1588 11 0.99879118685427859
1692 11 0
1585 12 0
1586 12 0
1587 12 0
1588 12 0
1692 12 1
1177 13 -0.99509004789631994
1178 13 -0
1179 13 -0
1180 13 -0
1181 13 -0
1182 13 -0
1183 13 -0
1184 13 -0
1185 13 -0
1186 13 -0
1187 13 -0
1188 13 -0
1585 13 -0.1803189598547551
1586 13 -0.25584631152049064
1587 13 -0.074765084896359371
1588 13 -0.06244980534901011
1589 13 0
1590 13 0
1591 13 0
1592 13 0
1177 14 -0
1178 14 -0.99509004789631994
1179 14 -0
1180 14 -0
1181 14 -0
1182 14 -0
1183 14 -0
1184 14 -0
1185 14 -0
1186 14 -0
1187 14 -0
1188 14 -0
1585 14 0.10820261428783474
1586 14 0.080196783561304039
1587 14 -0.016866001348705428
1588 14 -0.17094248486675911
1589 14 0
1590 14 0
1591 14 0
1592 14 0
1177 15 -0
1178 15 -0
1179 15 -0.99509004789631994
1180 15 -0
1181 15 -0
1182 15 -0
1183 15 -0
1184 15 -0
1185 15 -0
1186 15 -0
1187 15 -0
1188 15 -0
1585 15 0.021296203412182201
1586 15 0.06379387941368389
1587 15 0.33227429440027084
1588 15 0.038055274961526345
1589 15 0
1590 15 0
1591 15 0
1592 15 0
1177 16 -0
1178 16 -0
1179 16 -0
1180 16 -0.99509004789631994
1181 16 -0
1182 16 -0
1183 16 -0
1184 16 -0
1185 16 -0
1186 16 -0
1187 16 -0
1188 16 -0
1585 16 0.19846746771042395
1586 16 0.13291349456905685
1587 16 -0.11659569025066187
1588 16 0.1709989853023412
1589 16 0
1590 16 0
1591 16 0
1592 16 0
1177 17 -0
1178 17 -0
1179 17 -0
1180 17 -0
1181 17 -0.99509004789631994
1182 17 -0
1183 17 -0
1184 17 -0
1185 17 -0
1186 17 -0
1187 17 -0
1188 17 -0
1585 17 0.06406726430169403
1586 17 0.0077975121873435499
1587 17 -0.012888481757033089
1588 17 0.1821584263174176
1589 17 0
1590 17 0
1591 17 0
1592 17 0
1177 18 -0
1178 18 -0
1179 18 -0
1180 18 -0
1181 18 -0
1182 18 -0.99509004789631994
1183 18 -0
1184 18 -0
1185 18 -0
1186 18 -0
1187 18 -0
1188 18 -0
1585 18 0.14930176975937659
1586 18 -0.1220518999462523
1587 18 -0.21437482240798272
1588 18 -0.27728111366749703
1589 18 0
1590 18 0
1591 18 0
1592 18 0
1177 19 -0
1178 19 -0
1179 19 -0
1180 19 -0
1181 19 -0
1182 19 -0
1183 19 -0.99509004789631994
1184 19 -0
1185 19 -0
1186 19 -0
1187 19 -0
1188 19 -0
1585 19 -0.27832449100114248
1586 19 -0.023030066571549251
1587 19 0.085999904285044407
1588 19 0.14042558666593874
1589 19 0
1590 19 0
1591 19 0
1592 19 0
1177 20 -0
1178 20 -0
1179 20 -0
1180 20 -0
1181 20 -0
1182 20 -0
1183 20 -0
1184 20 -0.99509004789631994
1185 20 -0
1186 20 -0
1187 20 -0
1188 20 -0
1585 20 0.14426661227624929
1586 20 0.019112219351713613
1587 20 -0.3383340256558125
1588 20 -0.26332006554483989
1589 20 0
1590 20 0
1591 20 0
1592 20 0
1177 21 -0
1178 21 -0
1179 21 -0
1180 21 -0
1181 21 -0
1182 21 -0
1183 21 -0
1184 21 -0
1185 21 -0.99509004789631994
1186 21 -0
1187 21 -0
1188 21 -0
1585 21 -0.11462509557936003
1586 21 -0.065598224589830417
1587 21 0.12045547271290091
1588 21 0.066735657880519217
1589 21 0
1590 21 0
1591 21 0
1592 21 0
1177 22 -0
1178 22 -0
1179 22 -0
1180 22 -0
1181 22 -0
1182 22 -0
1183 22 -0
1184 22 -0
1185 22 -0
1186 22 -0.99509004789631994
1187 22 -0
1188 22 -0
1585 22 0.1112726701807888
1586 22 -0.18163442438886057
1587 22 -0.24934842404473068
1588 22 0.087619788974651794
1589 22 0
1590 22 0
1591 22 0
1592 22 0
1177 23 -0
1178 23 -0
1179 23 -0
1180 23 -0
1181 23 -0
1182 23 -0
1183 23 -0
1184 23 -0
1185 23 -0
1186 23 -0
1187 23 -0.99509004789631994
1188 23 -0
1585 23 0.0048220099123521959
1586 23 -0.09230703811323461
1587 23 -0.22028815111069383
1588 23 -0.062540089363958593
1589 23 0
1590 23 0
1591 23 0
1592 23 0
1177 24 -0
1178 24 -0
1179 24 -0
1180 24 -0
1181 24 -0
1182 24 -0
1183 24 -0
1184 24 -0
1185 24 -0
1186 24 -0
1187 24 -0
1188 24 -0.99509004789631994
1585 24 0.22589481330245723
1586 24 0.085512196920050021
1587 24 -0.209328877595194
1588 24 0.014853171089538656
1589 24 0
1590 24 0
1591 24 0
1592 24 0
1177 25 0
1178 25 0
1179 25 0
1180 25 0
1181 25 0
1182 25 0
1183 25 0
1184 25 0
1185 25 0
1186 25 0
1187 25 0
1188 25 0
1585 25 0
1586 25 0
1587 25 0
1588 25 0
1589 25 -0.1803189598547551
1590 25 -0.25584631152049064
1591 25 -0.074765084896359371
1592 25 -0.06244980534901011
1177 26 0
1178 26 0
1179 26 0
1180 26 0
1181 26 0
1182 26 0
1183 26 0
1184 26 0
1185 26 0
1186 26 0
1187 26 0
1188 26 0
1585 26 0
1586 26 0
1587 26 0
1588 26 0
1589 26 0.10820261428783474
1590 26 0.080196783561304039
1591 26 -0.016866001348705428
1592 26 -0.17094248486675911
1177 27 0
1178 27 0
1179 27 0
1180 27 0
1181 27 0
1182 27 0
1183 27 0
1184 27 0
1185 27 0
1186 27 0
1187 27 0
1188 27 0
1585 27 0
1586 27 0
1587 27 0
1588 27 0
1589 27 0.021296203412182201
1590 27 0.06379387941368389
1591 27 0.33227429440027084
1592 27 0.038055274961526345
1177 28 0
1178 28 0
1179 28 0
1180 28 0
1181 28 0
1182 28 0
1183 28 0
1184 28 0
1185 28 0
1186 28 0
1187 28 0
1188 28 0
1585 28 0
1586 28 0
1587 28 0
1588 28 0
1589 28 0.19846746771042395
1590 28 0.13291349456905685
1591 28 -0.11659569025066187
1592 28 0.1709989853023412
1177 29 0
1178 29 0
1179 29 0
1180 29 0
1181 29 0
1182 29 0
1183 29 0
1184 29 0
1185 29 0
1186 29 0
1187 29 0
1188 29 0
1585 29 0
1586 29 0
1587 29 0
1588 29 0
1589 29 0.06406726430169403
1590 29 0.0077975121873435499
1591 29 -0.012888481757033089
1592 29 0.1821584263174176
1177 30 0
1178 30 0
1179 30 0
1180 30 0
1181 30 0
1182 30 0
1183 30 0
1184 30 0
1185 30 0
1186 30 0
1187 30 0
1188 30 0
1585 30 0
1586 30 0
1587 30 0
1588 30 0
1589 30 0.14930176975937659
1590 30 -0.1220518999462523
1591 30 -0.21437482240798272
1592 30 -0.27728111366749703
1177 31 0
1178 31 0
1179 31 0
1180 31 0
1181 31 0
1182 31 0
1183 31 0
1184 31 0
1185 31 0
1186 31 0
1187 31 0
1188 31 0
1585 31 0
1586 31 0
1587 31 0
1588 31 0
1589 31 -0.27832449100114248
1590 31 -0.023030066571549251
1591 31 0.085999904285044407
1592 31 0.14042558666593874
1177 32 0
1178 32 0
1179 32 0
1180 32 0
1181 32 0
1182 32 0
1183 32 0
1184 32 0
1185 32 0
1186 32 0
1187 32 0
1188 32 0
1585 32 0
1586 32 0
1587 32 0
1588 32 0
1589 32 0.14426661227624929
1590 32 0.019112219351713613
1591 32 -0.3383340256558125
1592 32 -0.26332006554483989
1177 33 0
1178 33 0
1179 33 0
1180 33 0
1181 33 0
1182 33 0
1183 33 0
1184 33 0
1185 33 0
1186 33 0
1187 33 0
1188 33 0
1585 33 0
1586 33 0
1587 33 0
1588 33 0
1589 33 -0.11462509557936003
1590 33 -0.065598224589830417
1591 33 0.12045547271290091
1592 33 0.066735657880519217
1177 34 0
1178 34 0
1179 34 0
1180 34 0
1181 34 0
1182 34 0
1183 34 0
1184 34 0
1185 34 0
1186 34 0
1187 34 0
1188 34 0
1585 34 0
1586 34 0
1587 34 0
1588 34 0
1589 34 0.1112726701807888
1590 34 -0.18163442438886057
1591 34 -0.24934842404473068
1592 34 0.087619788974651794
1177 35 0
1178 35 0
1179 35 0
1180 35 0
1181 35 0
1182 35 0
1183 35 0
1184 35 0
1185 35 0
1186 35 0
1187 35 0
1188 35 0
1585 35 0
1586 35 0
1587 35 0
1588 35 0
1589 35 0.0048220099123521959
1590 35 -0.09230703811323461
1591 35 -0.22028815111069383
1592 35 -0.062540089363958593
1177 36 0
1178 36 0
1179 36 0
1180 36 0
1181 36 0
1182 36 0
1183 36 0
1184 36 0
1185 36 0
1186 36 0
1187 36 0
1188 36 0
1585 36 0
1586 36 0
1587 36 0
1588 36 0
1589 36 0.22589481330245723
1590 36 0.085512196920050021
1591 36 -0.209328877595194
1592 36 0.014853171089538656
1581 37 0
1582 37 0
1583 37 0
1584 37 0
1691 37 0
1581 38 0.99878751991636638
1582 38 0
1583 38 0
1584 38 0
1691 38 0
1581 39 0
1582 39 0.99886974093913028
1583 39 0
1584 39 0
1691 39 0
1581 40 0
1582 40 0
1583 40 0.99859691322799182
1584 40 0
1691 40 0
1581 41 0
1582 41 0
1583 41 0
1584 41 0.99879118685427859
1691 41 0
1581 42 0
1582 42 0
1583 42 0
1584 42 0
1691 42 1
1165 43 -0.99509004789631994
1166 43 -0
1167 43 -0
1168 43 -0
1169 43 -0
1170 43 -0
1171 43 -0
1172 43 -0
1173 43 -0
1174 43 -0
1175 43 -0
1176 43 -0
1177 43 0
1178 43 0
1179 43 0
1180 43 0
1181 43 0
1182 43 0
1183 43 0
1184 43 0
1185 43 0
1186 43 0
1187 43 0
1188 43 0
1581 43 -0.1803189598547551
1582 43 -0.25584631152049064
1583 43 -0.074765084896359371
1584 43 -0.06244980534901011
1165 44 -0
1166 44 -0.99509004789631994
1167 44 -0
1168 44 -0
1169 44 -0
1170 44 -0
1171 44 -0
1172 44 -0
1173 44 -0
1174 44 -0
1175 44 -0
1176 44 -0
1177 44 0
1178 44 0
1179 44 0
1180 44 0
1181 44 0
1182 44 0
1183 44 0
1184 44 0
1185 44 0
1186 44 0
1187 44 0
1188 44 0
1581 44 0.10820261428783474
1582 44 0.080196783561304039
1583 44 -0.016866001348705428
1584 44 -0.17094248486675911
1165 45 -0
1166 45 -0
1167 45 -0.99509004789631994
1168 45 -0
1169 45 -0
1170 45 -0
1171 45 -0
1172 45 -0
1173 45 -0
1174 45 -0
1175 45 -0
1176 45 -0
1177 45 0
1178 45 0
1179 45 0
1180 45 0
1181 45 0
1182 45 0
1183 45 0
1184 45 0
1185 45 0
1186 45 0
1187 45 0
1188 45 0
1581 45 0.021296203412182201
1582 45 0.06379387941368389
1583 45 0.33227429440027084
1584 45 0.038055274961526345
1165 46 -0
1166 46 -0
1167 46 -0
1168 46 -0.99509004789631994
1169 46 -0
1170 46 -0
1171 46 -0
1172 46 -0
1173 46 -0
1174 46 -0
1175 46 -0
1176 46 -0
1177 46 0
1178 46 0
1179 46 0
1180 46 0
1181 46 0
1182 46 0
1183 46 0
1184 46 0
1185 46 0
1186 46 0
1187 46 0
1188 46 0
1581 46 0.19846746771042395
1582 46 0.13291349456905685
1583 46 -0.11659569025066187
1584 46 0.1709989853023412
1165 47 -0
1166 47 -0
1167 47 -0
1168 47 -0
1169 47 -0.99509004789631994
1170 47 -0
1171 47 -0
1172 47 -0
1173 47 -0
1174 47 -0
1175 47 -0
1176 47 -0
1177 47 0
1178 47 0
1179 47 0
1180 47 0
1181 47 0
1182 47 0
1183 47 0
1184 47 0
1185 47 0
1186 47 0
1187 47 0
1188 47 0
1581 47 0.06406726430169403
1582 47 0.0077975121873435499
1583 47 -0.012888481757033089
1584 47 0.1821584263174176
1165 48 -0
1166 48 -0
1167 48 -0
1168 48 -0
1169 48 -0
1170 48 -0.99509004789631994
1171 48 -0
1172 48 -0
1173 48 -0
1174 48 -0
1175 48 -0
1176 48 -0
1177 48 0
1178 48 0
1179 48 0
1180 48 0
1181 48 0
1182 48 0
1183 48 0
1184 48 0
1185 48 0
1186 48 0
1187 48 0
1188 48 0
1581 48 0.14930176975937659
1582 48 -0.1220518999462523
1583 48 -0.21437482240798272
1584 48 -0.27728111366749703
1165 49 -0
1166 49 -0
1167 49 -0
1168 49 -0
1169 49 -0
1170 49 -0
1171 49 -0.99509004789631994
1172 49 -0
1173 49 -0
1174 49 -0
1175 49 -0
1176 49 -0
1177 49 0
1178 49 0
1179 49 0
1180 49 0
1181 49 0
1182 49 0
1183 49 0
1184 49 0
1185 49 0
1186 49 0
1187 49 0
1188 49 0
1581 49 -0.27832449100114248
1582 49 -0.023030066571549251
1583 49 0.085999904285044407
1584 49 0.14042558666593874
1165 50 -0
1166 50 -0
1167 50 -0
1168 50 -0
1169 50 -0
1170 50 -0
1171 50 -0
1172 50 -0.99509004789631994
1173 50 -0
1174 50 -0
1175 50 -0
1176 50 -0
1177 50 0
1178 50 0
1179 50 0
1180 50 0
1181 50 0
1182 50 0
1183 50 0
1184 50 0
1185 50 0
1186 50 0
1187 50 0
1188 50 0
1581 50 0.14426661227624929
1582 50 0.019112219351713613
1583 50 -0.3383340256558125
1584 50 -0.26332006554483989
1165 51 -0
1166 51 -0
1167 51 -0
1168 51 -0
1169 51 -0
1170 51 -0
1171 51 -0
1172 51 -0
1173 51 -0.99509004789631994
1174 51 -0
1175 51 -0
1176 51 -0
1177 51 0
1178 51 0
1179 51 0
1180 51 0
1181 51 0
1182 51 0
1183 51 0
1184 51 0
1185 51 0
1186 51 0
1187 51 0
1188 51 0
1581 51 -0.11462509557936003
1582 51 -0.065598224589830417
1583 51 0.12045547271290091
1584 51 0.066735657880519217
1165 52 -0
1166 52 -0
1167 52 -0
1168 52 -0
1169 52 -0
1170 52 -0
1171 52 -0
1172 52 -0
1173 52 -0
1174 52 -0.99509004789631994
1175 52 -0
1176 52 -0
1177 52 0
1178 52 0
1179 52 0
1180 52 0
1181 52 0
1182 52 0
1183 52 0
1184 52 0
1185 52 0
1186 52 0
1187 52 0
1188 52 0
1581 52 0.1112726701807888
1582 52 -0.18163442438886057
1583 52 -0.24934842404473068
1584 52 0.087619788974651794
1165 53 -0
1166 53 -0
1167 53 -0
1168 53 -0
1169 53 -0
1170 53 -0
1171 53 -0
1172 53 -0
1173 53 -0
1174 53 -0
1175 53 -0.99509004789631994
1176 53 -0
1177 53 0
1178 53 0
1179 53 0
1180 53 0
1181 53 0
1182 53 0
1183 53 0
1184 53 0
1185 53 0
1186 53 0
1187 53 0
1188 53 0
1581 53 0.0048220099123521959
1582 53 -0.09230703811323461
1583 53 -0.22028815111069383
1584 53 -0.062540089363958593
1165 54 -0
1166 54 -0
1167 54 -0
1168 54 -0
1169 54 -0
1170 54 -0
1171 54 -0
1172 54 -0
1173 54 -0
1174 54 -0
1175 54 -0
1176 54 -0.99509004789631994
1177 54 0
1178 54 0
1179 54 0
1180 54 0
1181 54 0
1182 54 0
1183 54 0
1184 54 0
1185 54 0
1186 54 0
1187 54 0
1188 54 0
1581 54 0.22589481330245723
1582 54 0.085512196920050021
1583 54 -0.209328877595194
1584 54 0.014853171089538656
1165 55 0
1166 55 0
1167 55 0
1168 55 0
1169 55 0
1170 55 0
1171 55 0
1172 55 0
1173 55 0
1174 55 0
1175 55 0
1176 55 0
1177 55 0.99509004789631994
1178 55 0
1179 55 0
1180 55 0
1181 55 0
1182 55 0
1183 55 0
1184 55 0
1185 55 0
1186 55 0
1187 55 0
1188 55 0
1581 55 0
1582 55 0
1583 55 0
1584 55 0
1165 56 0
1166 56 0
1167 56 0
1168 56 0
1169 56 0
1170 56 0
1171 56 0
1172 56 0
1173 56 0
1174 56 0
1175 56 0
1176 56 0
1177 56 0
1178 56 0.99509004789631994
1179 56 0
1180 56 0
1181 56 0
1182 56 0
1183 56 0
1184 56 0
1185 56 0
1186 56 0
1187 56 0
1188 56 0
1581 56 0
1582 56 0
1583 56 0
1584 56 0
1165 57 0
1166 57 0
1167 57 0
1168 57 0
1169 57 0
1170 57 0
1171 57 0
1172 57 0
1173 57 0
1174 57 0
1175 57 0
1176 57 0
1177 57 0
1178 57 0
1179 57 0.99509004789631994
1180 57 0
1181 57 0
1182 57 0
1183 57 0
1184 57 0
1185 57 0
1186 57 0
1187 57 0
1188 57 0
1581 57 0
1582 57 0
1583 57 0
1584 57 0
1165 58 0
1166 58 0
1167 58 0
1168 58 0
1169 58 0
1170 58 0
1171 58 0
1172 58 0
1173 58 0
1174 58 0
1175 58 0
1176 58 0
1177 58 0
1178 58 0
1179 58 0
1180 58 0.99509004789631994
1181 58 0
1182 58 0
1183 58 0
1184 58 0
1185 58 0
1186 58 0
1187 58 0
1188 58 0
1581 58 0
1582 58 0
1583 58 0
1584 58 0
1165 59 0
1166 59 0
1167 59 0
1168 59 0
1169 59 0
1170 59 0
1171 59 0
1172 59 0
1173 59 0
1174 59 0
1175 59 0
1176 59 0
1177 59 0
1178 59 0
1179 59 0
1180 59 0
1181 59 0.99509004789631994
1182 59 0
1183 59 0
1184 59 0
1185 59 0
1186 59 0
1187 59 0
1188 59 0
1581 59 0
1582 59 0
1583 59 0
1584 59 0
1165 60 0
1166 60 0
1167 60 0
1168 60 0
1169 60 0
1170 60 0
1171 60 0
1172 60 0
1173 60 0
1174 60 0
1175 60 0
1176 60 0
1177 60 0
1178 60 0
1179 60 0
1180 60 0
1181 60 0
1182 60 0.99509004789631994
1183 60 0
1184 60 0
1185 60 0
1186 60 0
1187 60 0
1188 60 0
1581 60 0
1582 60 0
1583 60 0
1584 60 0
1165 61 0
1166 61 0
1167 61 0
1168 61 0
1169 61 0
1170 61 0
1171 61 0
1172 61 0
1173 61 0
1174 61 0
1175 61 0
1176 61 0
1177 61 0
1178 61 0
1179 61 0
1180 61 0
1181 61 0
1182 61 0
1183 61 0.99509004789631994
1184 61 0
1185 61 0
1186 61 0
1187 61 0
1188 61 0
1581 61 0
1582 61 0
1583 61 0
1584 61 0
1165 62 0
1166 62 0
1167 62 0
1168 62 0
1169 62 0
1170 62 0
1171 62 0
1172 62 0
1173 62 0
1174 62 0
1175 62 0
1176 62 0
1177 62 0
1178 62 0
1179 62 0
1180 62 0
1181 62 0
1182 62 0
1183 62 0
1184 62 0.99509004789631994
1185 62 0
1186 62 0
1187 62 0
1188 62 0
1581 62 0
1582 62 0
1583 62 0
1584 62 0
1165 63 0
1166 63 0
1167 63 0
1168 63 0
1169 63 0
1170 63 0
1171 63 0
1172 63 0
1173 63 0
1174 63 0
1175 63 0
1176 63 0
1177 63 0
1178 63 0
1179 63 0
1180 63 0
1181 63 0
1182 63 0
1183 63 0
1184 63 0
1185 63 0.99509004789631994
1186 63 0
1187 63 0
1188 63 0
1581 63 0
1582 63 0
1583 63 0
1584 63 0
1165 64 0
1166 64 0
1167 64 0
1168 64 0
1169 64 0
1170 64 0
1171 64 0
1172 64 0
1173 64 0
1174 64 0
1175 64 0
1176 64 0
1177 64 0
1178 64 0
1179 64 0
1180 64 0
1181 64 0
1182 64 0
1183 64 0
1184 64 0
1185 64 0
1186 64 0.99509004789631994
1187 64 0
1188 64 0
1581 64 0
1582 64 0
1583 64 0
1584 64 0
1165 65 0
1166 65 0
1167 65 0
1168 65 0
1169 65 0
1170 65 0
1171 65 0
1172 65 0
1173 65 0
1174 65 0
1175 65 0
1176 65 0
1177 65 0
1178 65 0
1179 65 0
1180 65 0
1181 65 0
1182 65 0
1183 65 0
1184 65 0
1185 65 0
1186 65 0
1187 65 0.99509004789631994
1188 65 0
1581 65 0
1582 65 0
1583 65 0
1584 65 0
1165 66 0
1166 66 0
1167 66 0
1168 66 0
1169 66 0
1170 66 0
1171 66 0
1172 66 0
1173 66 0
1174 66 0
1175 66 0
1176 66 0
1177 66 0
1178 66 0
1179 66 0
1180 66 0
1181 66 0
1182 66 0
1183 66 0
1184 66 0
1185 66 0
1186 66 0
1187 66 0
1188 66 0.99509004789631994
1581 66 0
1582 66 0
1583 66 0
1584 66 0
1577 67 0
1578 67 0
1579 67 0
1580 67 0
1690 67 0
1577 68 0.99878751991636638
1578 68 0
1579 68 0
1580 68 0
1690 68 0
1577 69 0
1578 69 0.99886974093913028
1579 69 0
1580 69 0
1690 69 0
1577 70 0
1578 70 0
1579 70 0.99859691322799182
1580 70 0
1690 70 0
1577 71 0
1578 71 0
1579 71 0
1580 71 0.99879118685427859
1690 71 0
1577 72 0
1578 72 0
1579 72 0
1580 72 0
1690 72 1
1153 73 -0.99509004789631994
1154 73 -0
1155 73 -0
1156 73 -0
1157 73 -0
1158 73 -0
1159 73 -0
1160 73 -0
1161 73 -0
1162 73 -0
1163 73 -0
1164 73 -0
1165 73 0
1166 73 0
1167 73 0
1168 73 0
1169 73 0
1170 73 0
1171 73 0
1172 73 0
1173 73 0
1174 73 0
1175 73 0
1176 73 0
1577 73 -0.1803189598547551
1578 73 -0.25584631152049064
1579 73 -0.074765084896359371
1580 73 -0.06244980534901011
1153 74 -0
1154 74 -0.99509004789631994
1155 74 -0
1156 74 -0
1157 74 -0
1158 74 -0
1159 74 -0
1160 74 -0
1161 74 -0
1162 74 -0
1163 74 -0
1164 74 -0
1165 74 0
1166 74 0
1167 74 0
1168 74 0
1169 74 0
1170 74 0
1171 74 0
1172 74 0
1173 74 0
1174 74 0
1175 74 0
1176 74 0
1577 74 0.10820261428783474
1578 74 0.080196783561304039
1579 74 -0.016866001348705428
1580 74 -0.17094248486675911
1153 75 -0
1154 75 -0
1155 75 -0.99509004789631994
1156 75 -0
1157 75 -0
1158 75 -0
1159 75 -0
1160 75 -0
1161 75 -0
1162 75 -0
1163 75 -0
1164 75 -0
1165 75 0
1166 75 0
1167 75 0
1168 75 0
1169 75 0
1170 75 0
1171 75 0
1172 75 0
1173 75 0
1174 75 0
1175 75 0
1176 75 0
1577 75 0.021296203412182201
1578 75 0.06379387941368389
1579 75 0.33227429440027084
1580 75 0.038055274961526345
1153 76 -0
1154 76 -0
1155 76 -0
1156 76 -0.99509004789631994
1157 76 -0
1158 76 -0
1159 76 -0
1160 76 -0
1161 76 -0
1162 76 -0
1163 76 -0
1164 76 -0
1165 76 0
1166 76 0
1167 76 0
1168 76 0
1169 76 0
1170 76 0
1171 76 0
1172 76 0
1173 76 0
1174 76 0
1175 76 0
1176 76 0
1577 76 0.19846746771042395
1578 76 0.13291349456905685
1579 76 -0.11659569025066187
1580 76 0.1709989853023412
1153 77 -0
1154 77 -0
1155 77 -0
1156 77 -0
1157 77 -0.99509004789631994
1158 77 -0
1159 77 -0
1160 77 -0
1161 77 -0
1162 77 -0
1163 77 -0
1164 77 -0
1165 77 0
1166 77 0
1167 77 0
1168 77 0
1169 77 0
1170 77 0
1171 77 0
1172 77 0
1173 77 0
1174 77 0
1175 77 0
1176 77 0
1577 77 0.06406726430169403
1578 77 0.0077975121873435499
1579 77 -0.012888481757033089
1580 77 0.1821584263174176
1153 78 -0
1154 78 -0
1155 78 -0
1156 78 -0
1157 78 -0
1158 78 -0.99509004789631994
1159 78 -0
1160 78 -0
1161 78 -0
1162 78 -0
1163 78 -0
1164 78 -0
1165 78 0
1166 78 0
1167 78 0
1168 78 0
1169 78 0
1170 78 0
1171 78 0
1172 78 0
1173 78 0
1174 78 0
1175 78 0
1176 78 0
1577 78 0.14930176975937659
1578 78 -0.1220518999462523
1579 78 -0.21437482240798272
1580 78 -0.27728111366749703
1153 79 -0
1154 79 -0
1155 79 -0
1156 79 -0
1157 79 -0
1158 79 -0
1159 79 -0.99509004789631994
1160 79 -0
1161 79 -0
1162 79 -0
1163 79 -0
1164 79 -0
1165 79 0
1166 79 0
1167 79 0
1168 79 0
1169 79 0
1170 79 0
1171 79 0
1172 79 0
1173 79 0
1174 79 0
1175 79 0
1176 79 0
1577 79 -0.27832449100114248
1578 79 -0.023030066571549251
1579 79 0.085999904285044407
1580 79 0.14042558666593874
1153 80 -0
1154 80 -0
1155 80 -0
1156 80 -0
1157 80 -0
1158 80 -0
1159 80 -0
1160 80 -0.99509004789631994
1161 80 -0
1162 80 -0
1163 80 -0
1164 80 -0
1165 80 0
1166 80 0
1167 80 0
1168 80 0
1169 80 0
1170 80 0
1171 80 0
1172 80 0
1173 80 0
1174 80 0
1175 80 0
1176 80 0
1577 80 0.14426661227624929
1578 80 0.019112219351713613
1579 80 -0.3383340256558125
1580 80 -0.26332006554483989
1153 81 -0
1154 81 -0
1155 81 -0
1156 81 -0
1157 81 -0
1158 81 -0
1159 81 -0
1160 81 -0
1161 81 -0.99509004789631994
1162 81 -0
1163 81 -0
1164 81 -0
1165 81 0
1166 81 0
1167 81 0
1168 81 0
1169 81 0
1170 81 0
1171 81 0
1172 81 0
1173 81 0
1174 81 0
1175 81 0
1176 81 0
1577 81 -0.11462509557936003
1578 81 -0.065598224589830417
1579 81 0.12045547271290091
1580 81 0.066735657880519217
1153 82 -0
1154 82 -0
1155 82 -0
1156 82 -0
1157 82 -0
1158 82 -0
1159 82 -0
1160 82 -0
1161 82 -0
1162 82 -0.99509004789631994
1163 82 -0
1164 82 -0
1165 82 0
1166 82 0
1167 82 0
1168 82 0
1169 82 0
1170 82 0
1171 82 0
1172 82 0
1173 82 0
1174 82 0
1175 82 0
1176 82 0
1577 82 0.1112726701807888
1578 82 -0.18163442438886057
1579 82 -0.24934842404473068
1580 82 0.087619788974651794
1153 83 -0
1154 83 -0
1155 83 -0
1156 83 -0
1157 83 -0
1158 83 -0
1159 83 -0
1160 83 -0
1161 83 -0
1162 83 -0
1163 83 -0.99509004789631994
1164 83 -0
1165 83 0
1166 83 0
1167 83 0
1168 83 0
1169 83 0
1170 83 0
1171 83 0
1172 83 0
1173 83 0
1174 83 0
1175 83 0
1176 83 0
1577 83 0.0048220099123521959
1578 83 -0.09230703811323461
1579 83 -0.22028815111069383
1580 83 -0.062540089363958593
1153 84 -0
1154 84 -0
1155 84 -0
1156 84 -0
1157 84 -0
1158 84 -0
1159 84 -0
1160 84 -0
1161 84 -0
1162 84 -0
1163 84 -0
1164 84 -0.99509004789631994
1165 84 0
1166 84 0
1167 84 0
1168 84 0
1169 84 0
1170 84 0
1171 84 0
1172 84 0
1173 84 0
1174 84 0
1175 84 0
1176 84 0
1577 84 0.22589481330245723
1578 84 0.085512196920050021
1579 84 -0.209328877595194
1580 84 0.014853171089538656
1153 85 0
1154 85 0
1155 85 0
1156 85 0
1157 85 0
1158 85 0
1159 85 0
1160 85 0
1161 85 0
1162 85 0
1163 85 0
1164 85 0
1165 85 0.99509004789631994
1166 85 0
1167 85 0
1168 85 0
1169 85 0
1170 85 0
1171 85 0
1172 85 0
1173 85 0
1174 85 0
1175 85 0
1176 85 0
1577 85 0
1578 85 0
1579 85 0
1580 85 0
1153 86 0
1154 86 0
1155 86 0
1156 86 0
1157 86 0
1158 86 0
1159 86 0
1160 86 0
1161 86 0
1162 86 0
1163 86 0
1164 86 0
1165 86 0
1166 86 0.99509004789631994
1167 86 0
1168 86 0
1169 86 0
1170 86 0
1171 86 0
1172 86 0
1173 86 0
1174 86 0
1175 86 0
1176 86 0
1577 86 0
1578 86 0
1579 86 0
1580 86 0
1153 87 0
1154 87 0
1155 87 0
1156 87 0
1157 87 0
1158 87 0
1159 87 0
1160 87 0
1161 87 0
1162 87 0
1163 87 0
1164 87 0
1165 87 0
1166 87 0
1167 87 0.99509004789631994
1168 87 0
1169 87 0
1170 87 0
1171 87 0
1172 87 0
1173 87 0
1174 87 0
1175 87 0
1176 87 0
1577 87 0
1578 87 0
1579 87 0
1580 87 0
1153 88 0
1154 88 0
1155 88 0
1156 88 0
1157 88 0
1158 88 0
1159 88 0
1160 88 0
1161 88 0
1162 88 0
1163 88 0
1164 88 0
1165 88 0
1166 88 0
1167 88 0
1168 88 0.99509004789631994
1169 88 0
1170 88 0
1171 88 0
1172 88 0
1173 88 0
1174 88 0
1175 88 0
1176 88 0
1577 88 0
1578 88 0
1579 88 0
1580 88 0
1153 89 0
1154 89 0
1155 89 0
1156 89 0
1157 89 0
1158 89 0
1159 89 0
1160 89 0
1161 89 0
1162 89 0
1163 89 0
1164 89 0
1165 89 0
1166 89 0
1167 89 0
1168 89 0
1169 89 0.99509004789631994
1170 89 0
1171 89 0
1172 89 0
1173 89 0
1174 89 0
1175 89 0
1176 89 0
1577 89 0
1578 89 0
1579 89 0
1580 89 0
1153 90 0
1154 90 0
1155 90 0
1156 90 0
1157 90 0
1158 90 0
1159 90 0
1160 90 0
1161 90 0
1162 90 0
1163 90 0
1164 90 0
1165 90 0
1166 90 0
1167 90 0
1168 90 0
1169 90 0
1170 90 0.99509004789631994
1171 90 0
1172 90 0
1173 90 0
1174 90 0
1175 90 0
1176 90 0
1577 90 0
1578 90 0
1579 90 0
1580 90 0
1153 91 0
1154 91 0
1155 91 0
1156 91 0
1157 91 0
1158 91 0
1159 91 0
1160 91 0
1161 91 0
1162 91 0
1163 91 0
1164 91 0
1165 91 0
1166 91 0
1167 91 0
1168 91 0
1169 91 0
1170 91 0
1171 91 0.99509004789631994
1172 91 0
1173 91 0
1174 91 0
1175 91 0
1176 91 0
1577 91 0
1578 91 0
1579 91 0
1580 91 0
1153 92 0
1154 92 0
1155 92 0
1156 92 0
1157 92 0
1158 92 0
1159 92 0
1160 92 0
1161 92 0
1162 92 0
1163 92 0
1164 92 0
1165 92 0
1166 92 0
1167 92 0
1168 92 0
1169 92 0
1170 92 0
1171 92 0
1172 92 0.99509004789631994
1173 92 0
1174 92 0
1175 92 0
1176 92 0
1577 92 0
1578 92 0
1579 92 0
1580 92 0
1153 93 0
1154 93 0
1155 93 0
1156 93 0
1157 93 0
1158 93 0
1159 93 0
1160 93 0
1161 93 0
1162 93 0
1163 93 0
1164 93 0
1165 93 0
1166 93 0
1167 93 0
1168 93 0
1169 93 0
1170 93 0
1171 93 0
1172 93 0
1173 93 0.99509004789631994
1174 93 0
1175 93 0
1176 93 0
1577 93 0
1578 93 0
1579 93 0
1580 93 0
1153 94 0
1154 94 0
1155 94 0
1156 94 0
1157 94 0
1158 94 0
1159 94 0
1160 94 0
1161 94 0
1162 94 0
1163 94 0
1164 94 0
1165 94 0
1166 94 0
1167 94 0
1168 94 0
1169 94 0
1170 94 0
1171 94 0
1172 94 0
1173 94 0
1174 94 0.99509004789631994
1175 94 0
1176 94 0
1577 94 0
1578 94 0
1579 94 0
1580 94 0
1153 95 0
1154 95 0
1155 95 0
1156 95 0
1157 95 0
1158 95 0
1159 95 0
1160 95 0
1161 95 0
1162 95 0
1163 95 0
1164 95 0
1165 95 0
1166 95 0
1167 95 0
1168 95 0
1169 95 0
1170 95 0
1171 95 0
1172 95 0
1173 95 0
1174 95 0
1175 95 0.99509004789631994
1176 95 0
1577 95 0
1578 95 0
1579 95 0
1580 95 0
1153 96 0
1154 96 0
1155 96 0
1156 96 0
1157 96 0
1158 96 0
1159 96 0
1160 96 0
1161 96 0
1162 96 0
1163 96 0
1164 96 0
1165 96 0
1166 96 0
1167 96 0
1168 96 0
1169 96 0
1170 96 0
1171 96 0
1172 96 0
1173 96 0
1174 96 0
1175 96 0
1176 96 0.99509004789631994
1577 96 0
1578 96 0
1579 96 0
1580 96 0
1573 97 0
1574 97 0
1575 97 0
1576 97 0
1689 97 0
1573 98 0.99878751991636638
1574 98 0
1575 98 0
1576 98 0
1689 98 0
1573 99 0
1574 99 0.99886974093913028
1575 99 0
1576 99 0
1689 99 0
1573 100 0
1574 100 0
1575 100 0.99859691322799182
1576 100 0
1689 100 0
1573 101 0
1574 101 0
1575 101 0
1576 101 0.99879118685427859
1689 101 0
1573 102 0
1574 102 0
1575 102 0
1576 102 0
1689 102 1
1141 103 -0.99509004789631994
1142 103 -0
1143 103 -0
1144 103 -0
1145 103 -0
1146 103 -0
1147 103 -0
1148 103 -0
1149 103 -0
1150 103 -0
1151 103 -0
1152 103 -0
1153 103 0
1154 103 0
1155 103 0
1156 103 0
1157 103 0
1158 103 0
1159 103 0
1160 103 0
1161 103 0
1162 103 0
1163 103 0
1164 103 0
1573 103 -0.1803189598547551
1574 103 -0.25584631152049064
1575 103 -0.074765084896359371
1576 103 -0.06244980534901011
1141 104 -0
1142 104 -0.99509004789631994
1143 104 -0
1144 104 -0
1145 104 -0
1146 104 -0
1147 104 -0
1148 104 -0
1149 104 -0
1150 104 -0
1151 104 -0
1152 104 -0
1153 104 0
1154 104 0
1155 104 0
1156 104 0
1157 104 0
1158 104 0
1159 104 0
1160 104 0
1161 104 0
1162 104 0
1163 104 0
1164 104 0
1573 104 0.10820261428783474
1574 104 0.080196783561304039
1575 104 -0.016866001348705428
1576 104 -0.17094248486675911
1141 105 -0
1142 105 -0
1143 105 -0.99509004789631994
1144 105 -0
1145 105 -0
1146 105 -0
1147 105 -0
1148 105 -0
1149 105 -0
1150 105 -0
1151 105 -0
1152 105 -0
1153 105 0
1154 105 0
1155 105 0
1156 105 0
1157 105 0
1158 105 0
1159 105 0
1160 105 0
1161 105 0
1162 105 0
1163 105 0
1164 105 0
1573 105 0.021296203412182201
1574 105 0.06379387941368389
1575 105 0.33227429440027084
1576 105 0.038055274961526345
1141 106 -0
1142 106 -0
1143 106 -0
1144 106 -0.99509004789631994
1145 106 -0
1146 106 -0
1147 106 -0
1148 106 -0
1149 106 -0
1150 106 -0
1151 106 -0
1152 106 -0
1153 106 0
1154 106 0
1155 106 0
1156 106 0
1157 106 0
1158 106 0
1159 106 0
1160 106 0
1161 106 0
1162 106 0
1163 106 0
1164 106 0
1573 106 0.19846746771042395
1574 106 0.13291349456905685
1575 106 -0.11659569025066187
1576 106 0.1709989853023412
1141 107 -0
1142 107 -0
1143 107 -0
1144 107 -0
1145 107 -0.99509004789631994
1146 107 -0
1147 107 -0
1148 107 -0
1149 107 -0
1150 107 -0
1151 107 -0
1152 107 -0
1153 107 0
1154 107 0
1155 107 0
1156 107 0
1157 107 0
1158 107 0
1159 107 0
1160 107 0
1161 107 0
1162 107 0
1163 107 0
1164 107 0
1573 107 0.06406726430169403
1574 107 0.0077975121873435499
1575 107 -0.012888481757033089
1576 107 0.1821584263174176
1141 108 -0
1142 108 -0
1143 108 -0
1144 108 -0
1145 108 -0
1146 108 -0.99509004789631994
1147 108 -0
1148 108 -0
1149 108 -0
1150 108 -0
1151 108 -0
1152 108 -0
1153 108 0
1154 108 0
1155 108 0
1156 108 0
1157 108 0
1158 108 0
1159 108 0
1160 108 0
1161 108 0
1162 108 0
1163 108 0
1164 108 0
1573 108 0.14930176975937659
1574 108 -0.1220518999462523
1575 108 -0.21437482240798272
1576 108 -0.27728111366749703
1141 109 -0
1142 109 -0
1143 109 -0
1144 109 -0
1145 109 -0
1146 109 -0
1147 109 -0.99509004789631994
1148 109 -0
1149 109 -0
1150 109 -0
1151 109 -0
1152 109 -0
1153 109 0
1154 109 0
1155 109 0
1156 109 0
1157 109 0
1158 109 0
1159 109 0
1160 109 0
1161 109 0
1162 109 0
1163 109 0
1164 109 0
1573 109 -0.27832449100114248
1574 109 -0.023030066571549251
1575 109 0.085999904285044407
1576 109 0.14042558666593874
1141 110 -0
1142 110 -0
1143 110 -0
1144 110 -0
1145 110 -0
1146 110 -0
1147 110 -0
1148 110 -0.99509004789631994
1149 110 -0
1150 110 -0
1151 110 -0
1152 110 -0
1153 110 0
1154 110 0
1155 110 0
1156 110 0
1157 110 0
1158 110 0
1159 110 0
1160 110 0
1161 110 0
1162 110 0
1163 110 0
1164 110 0
1573 110 0.14426661227624929
1574 110 0.019112219351713613
1575 110 -0.3383340256558125
1576 110 -0.26332006554483989
1141 111 -0
1142 111 -0
1143 111 -0
1144 111 -0
1145 111 -0
1146 111 -0
1147 111 -0
1148 111 -0
1149 111 -0.99509004789631994
1150 111 -0
1151 111 -0
1152 111 -0
1153 111 0
1154 111 0
1155 111 0
1156 111 0
1157 111 0
1158 111 0
1159 111 0
1160 111 0
1161 111 0
1162 111 0
1163 111 0
1164 111 0
1573 111 -0.11462509557936003
1574 111 -0.065598224589830417
1575 111 0.12045547271290091
1576 111 0.066735657880519217
1141 112 -0
1142 112 -0
1143 112 -0
1144 112 -0
1145 112 -0
1146 112 -0
1147 112 -0
1148 112 -0
1149 112 -0
1150 112 -0.99509004789631994
1151 112 -0
1152 112 -0
1153 112 0
1154 112 0
1155 112 0
1156 112 0
1157 112 0
1158 112 0
1159 112 0
1160 112 0
1161 112 0
1162 112 0
1163 112 0
1164 112 0
1573 112 0.1112726701807888
1574 112 -0.18163442438886057
1575 112 -0.24934842404473068
1576 112 0.087619788974651794
1141 113 -0
1142 113 -0
1143 113 -0
1144 113 -0
1145 113 -0
1146 113 -0
1147 113 -0
1148 113 -0
1149 113 -0
1150 113 -0
1151 113 -0.99509004789631994
1152 113 -0
1153 113 0
1154 113 0
1155 113 0
1156 113 0
1157 113 0
1158 113 0
1159 113 0
1160 113 0
1161 113 0
1162 113 0
1163 113 0
1164 113 0
1573 113 0.0048220099123521959
1574 113 -0.09230703811323461
1575 113 -0.22028815111069383
1576 113 -0.062540089363958593
1141 114 -0
1142 114 -0
1143 114 -0
1144 114 -0
1145 114 -0
1146 114 -0
1147 114 -0
1148 114 -0
1149 114 -0
1150 114 -0
1151 114 -0
1152 114 -0.99509004789631994
1153 114 0
1154 114 0
1155 114 0
1156 114 0
1157 114 0
1158 114 0
1159 114 0
1160 114 0
1161 114 0
1162 114 0
1163 114 0
1164 114 0
1573 114 0.22589481330245723
1574 114 0.085512196920050021
1575 114 -0.209328877595194
1576 114 0.014853171089538656
1141 115 0
1142 115 0
1143 115 0
1144 115 0
1145 115 0
1146 115 0
1147 115 0
1148 115 0
1149 115 0
1150 115 0
1151 115 0
1152 115 0
1153 115 0.99509004789631994
1154 115 0
1155 115 0
1156 115 0
1157 115 0
1158 115 0
1159 115 0
1160 115 0
1161 115 0
1162 115 0
1163 115 0
1164 115 0
1573 115 0
1574 115 0
1575 115 0
1576 115 0
1141 116 0
1142 116 0
1143 116 0
1144 116 0
1145 116 0
1146 116 0
1147 116 0
1148 116 0
1149 116 0
1150 116 0
1151 116 0
1152 116 0
1153 116 0
1154 116 0.99509004789631994
1155 116 0
1156 116 0
1157 116 0
1158 116 0
1159 116 0
1160 116 0
1161 116 0
1162 116 0
1163 116 0
1164 116 0
1573 116 0
1574 116 0
1575 116 0
1576 116 0
1141 117 0
1142 117 0
1143 117 0
1144 117 0
1145 117 0
1146 117 0
1147 117 0
1148 117 0
1149 117 0
1150 117 0
1151 117 0
1152 117 0
1153 117 0
1154 117 0
1155 117 0.99509004789631994
1156 117 0
1157 117 0
1158 117 0
1159 117 0
1160 117 0
1161 117 0
1162 117 0
1163 117 0
1164 117 0
1573 117 0
1574 117 0
1575 117 0
1576 117 0
1141 118 0
1142 118 0
1143 118 0
1144 118 0
1145 118 0
1146 118 0
1147 118 0
1148 118 0
1149 118 0
1150 118 0
1151 118 0
1152 118 0
1153 118 0
1154 118 0
1155 118 0
1156 118 0.99509004789631994
1157 118 0
1158 118 0
1159 118 0
1160 118 0
1161 118 0
1162 118 0
1163 118 0
1164 118 0
1573 118 0
1574 118 0
1575 118 0
1576 118 0
1141 119 0
1142 119 0
1143 119 0
1144 119 0
1145 119 0
1146 119 0
1147 119 0
1148 119 0
1149 119 0
1150 119 0
1151 119 0
1152 119 0
1153 119 0
1154 119 0
1155 119 0
1156 119 0
1157 119 0.99509004789631994
1158 119 0
1159 119 0
1160 119 0
1161 119 0
1162 119 0
1163 119 0
1164 119 0
1573 119 0
1574 119 0
1575 119 0
1576 119 0
1141 120 0
1142 120 0
1143 120 0
1144 120 0
1145 120 0
1146 120 0
1147 120 0
1148 120 0
1149 120 0
1150 120 0
1151 120 0
1152 120 0
1153 120 0
1154 120 0
1155 120 0
1156 120 0
1157 120 0
1158 120 0.99509004789631994
1159 120 0
1160 120 0
1161 120 0
1162 120 0
1163 120 0
1164 120 0
1573 120 0
1574 120 0
1575 120 0
1576 120 0
1141 121 0
1142 121 0
1143 121 0
1144 121 0
1145 121 0
1146 121 0
1147 121 0
1148 121 0
1149 121 0
1150 121 0
1151 121 0
1152 121 0
1153 121 0
1154 121 0
1155 121 0
1156 121 0
1157 121 0
1158 121 0
1159 121 0.99509004789631994
1160 121 0
1161 121 0
1162 121 0
1163 121 0
1164 121 0
1573 121 0
1574 121 0
1575 121 0
1576 121 0
1141 122 0
1142 122 0
1143 122 0
1144 122 0
1145 122 0
1146 122 0
1147 122 0
1148 122 0
1149 122 0
1150 122 0
1151 122 0
1152 122 0
1153 122 0
1154 122 0
1155 122 0
1156 122 0
1157 122 0
1158 122 0
1159 122 0
1160 122 0.99509004789631994
1161 122 0
1162 122 0
1163 122 0
1164 122 0
1573 122 0
1574 122 0
1575 122 0
1576 122 0
1141 123 0
1142 123 0
1143 123 0
1144 123 0
1145 123 0
1146 123 0
1147 123 0
1148 123 0
1149 123 0
1150 123 0
1151 123 0
1152 123 0
1153 123 0
1154 123 0
1155 123 0
1156 123 0
1157 123 0
1158 123 0
1159 123 0
1160 123 0
1161 123 0.99509004789631994
1162 123 0
1163 123 0
1164 123 0
1573 123 0
1574 123 0
1575 123 0
1576 123 0
1141 124 0
1142 124 0
1143 124 0
1144 124 0
1145 124 0
1146 124 0
1147 124 0
1148 124 0
1149 124 0
1150 124 0
1151 124 0
1152 124 0
1153 124 0
1154 124 0
1155 124 0
1156 124 0
1157 124 0
1158 124 0
1159 124 0
1160 124 0
1161 124 0
1162 124 0.99509004789631994
1163 124 0
1164 124 0
1573 124 0
1574 124 0
1575 124 0
1576 124 0
1141 125 0
1142 125 0
1143 125 0
1144 125 0
1145 125 0
1146 125 0
1147 125 0
1148 125 0
1149 125 0
1150 125 0
1151 125 0
1152 125 0
1153 125 0
1154 125 0
1155 125 0
1156 125 0
1157 125 0
1158 125 0
1159 125 0
1160 125 0
1161 125 0
1162 125 0
1163 125 0.99509004789631994
1164 125 0
1573 125 0
1574 125 0
1575 125 0
1576 125 0
1141 126 0
1142 126 0
1143 126 0
1144 126 0
1145 126 0
1146 126 0
1147 126 0
1148 126 0
1149 126 0
1150 126 0
1151 126 0
1152 126 0
1153 126 0
1154 126 0
1155 126 0
1156 126 0
1157 126 0
1158 126 0
1159 126 0
1160 126 0
1161 126 0
1162 126 0
1163 126 0
1164 126 0.99509004789631994
1573 126 0
1574 126 0
1575 126 0
1576 126 0
1569 127 0
1570 127 0
1571 127 0
1572 127 0
1688 127 0
1569 128 0.99878751991636638
1570 128 0
1571 128 0
1572 128 0
1688 128 0
1569 129 0
1570 129 0.99886974093913028
1571 129 0
1572 129 0
1688 129 0
1569 130 0
1570 130 0
1571 130 0.99859691322799182
1572 130 0
1688 130 0
1569 131 0
1570 131 0
1571 131 0
1572 131 0.99879118685427859
1688 131 0
1569 132 0
1570 132 0
1571 132 0
1572 132 0
1688 132 1
1129 133 -0.99509004789631994
1130 133 -0
1131 133 -0
1132 133 -0
1133 133 -0
1134 133 -0
1135 133 -0
1136 133 -0
1137 133 -0
1138 133 -0
1139 133 -0
1140 133 -0
1141 133 0
1142 133 0
1143 133 0
1144 133 0
1145 133 0
1146 133 0
1147 133 0
1148 133 0
1149 133 0
1150 133 0
1151 133 0
1152 133 0
1569 133 -0.1803189598547551
1570 133 -0.25584631152049064
1571 133 -0.074765084896359371
1572 133 -0.06244980534901011
1129 134 -0
1130 134 -0.99509004789631994
1131 134 -0
1132 134 -0
1133 134 -0
1134 134 -0
1135 134 -0
1136 134 -0
1137 134 -0
1138 134 -0
1139 134 -0
1140 134 -0
1141 134 0
1142 134 0
1143 134 0
1144 134 0
1145 134 0
1146 134 0
1147 134 0
1148 134 0
1149 134 0
1150 134 0
1151 134 0
1152 134 0
1569 134 0.10820261428783474
1570 134 0.080196783561304039
1571 134 -0.016866001348705428
1572 134 -0.17094248486675911
1129 135 -0
1130 135 -0
1131 135 -0.99509004789631994
1132 135 -0
1133 135 -0
1134 135 -0
1135 135 -0
1136 135 -0
1137 135 -0
1138 135 -0
1139 135 -0
1140 135 -0
1141 135 0
1142 135 0
1143 135 0
1144 135 0
1145 135 0
1146 135 0
1147 135 0
1148 135 0
1149 135 0
1150 135 0
1151 135 0
1152 135 0
1569 135 0.021296203412182201
1570 135 0.06379387941368389
1571 135 0.33227429440027084
1572 135 0.038055274961526345
1129 136 -0
1130 136 -0
1131 136 -0
1132 136 -0.99509004789631994
1133 136 -0
1134 136 -0
1135 136 -0
1136 136 -0
1137 136 -0
1138 136 -0
1139 136 -0
1140 136 -0
1141 136 0
1142 136 0
1143 136 0
1144 136 0
1145 136 0
1146 136 0
1147 136 0
1148 136 0
1149 136 0
1150 136 0
1151 136 0
1152 136 0
1569 136 0.19846746771042395
1570 136 0.13291349456905685
1571 136 -0.11659569025066187
1572 136 0.1709989853023412
1129 137 -0
1130 137 -0
1131 137 -0
1132 137 -0
1133 137 -0.99509004789631994
1134 137 -0
1135 137 -0
1136 137 -0
1137 137 -0
1138 137 -0
1139 137 -0
1140 137 -0
1141 137 0
1142 137 0
1143 137 0
1144 137 0
1145 137 0
1146 137 0
1147 137 0
1148 137 0
1149 137 0
1150 137 0
1151 137 0
1152 137 0
1569 137 0.06406726430169403
1570 137 0.0077975121873435499
1571 137 -0.012888481757033089
1572 137 0.1821584263174176
1129 138 -0
1130 138 -0
1131 138 -0
1132 138 -0
1133 138 -0
1134 138 -0.99509004789631994
1135 138 -0
1136 138 -0
1137 138 -0
1138 138 -0
1139 138 -0
1140 138 -0
1141 138 0
1142 138 0
1143 138 0
1144 138 0
1145 138 0
1146 138 0
1147 138 0
1148 138 0
1149 138 0
1150 138 0
1151 138 0
1152 138 0
1569 138 0.14930176975937659
1570 138 -0.1220518999462523
1571 138 -0.21437482240798272
1572 138 -0.27728111366749703
1129 139 -0
1130 139 -0
1131 139 -0
1132 139 -0
1133 139 -0
1134 139 -0
1135 139 -0.99509004789631994
1136 139 -0
1137 139 -0
1138 139 -0
1139 139 -0
1140 139 -0
1141 139 0
1142 139 0
1143 139 0
1144 139 0
1145 139 0
1146 139 0
1147 139 0
1148 139 0
1149 139 0
1150 139 0
1151 139 0
1152 139 0
1569 139 -0.27832449100114248
1570 139 -0.023030066571549251
1571 139 0.085999904285044407
1572 139 0.14042558666593874
1129 140 -0
1130 140 -0
1131 140 -0
1132 140 -0
1133 140 -0
1134 140 -0
1135 140 -0
1136 140 -0.99509004789631994
1137 140 -0
1138 140 -0
1139 140 -0
1140 140 -0
1141 140 0
1142 140 0
1143 140 0
1144 140 0
1145 140 0
1146 140 0
1147 140 0
1148 140 0
1149 140 0
1150 140 0
1151 140 0
1152 140 0
1569 140 0.14426661227624929
1570 140 0.019112219351713613
1571 140 -0.3383340256558125
1572 140 -0.26332006554483989
1129 141 -0
1130 141 -0
1131 141 -0
1132 141 -0
1133 141 -0
1134 141 -0
1135 141 -0
1136 141 -0
1137 141 -0.99509004789631994
1138 141 -0
1139 141 -0
1140 141 -0
1141 141 0
1142 141 0
1143 141 0
1144 141 0
1145 141 0
1146 141 0
1147 141 0
1148 141 0
1149 141 0
1150 141 0
1151 141 0
1152 141 0
1569 141 -0.11462509557936003
1570 141 -0.065598224589830417
1571 141 0.12045547271290091
1572 141 0.066735657880519217
1129 142 -0
1130 142 -0
1131 142 -0
1132 142 -0
1133 142 -0
1134 142 -0
1135 142 -0
1136 142 -0
1137 142 -0
1138 142 -0.99509004789631994
1139 142 -0
1140 142 -0
1141 142 0
1142 142 0
1143 142 0
1144 142 0
1145 142 0
1146 142 0
1147 142 0
1148 142 0
1149 142 0
1150 142 0
1151 142 0
1152 142 0
1569 142 0.1112726701807888
1570 142 -0.18163442438886057
1571 142 -0.24934842404473068
1572 142 0.087619788974651794
1129 143 -0
1130 143 -0
1131 143 -0
1132 143 -0
1133 143 -0
1134 143 -0
1135 143 -0
1136 143 -0
1137 143 -0
1138 143 -0
1139 143 -0.99509004789631994
1140 143 -0
1141 143 0
1142 143 0
1143 143 0
1144 143 0
1145 143 0
1146 143 0
1147 143 0
1148 143 0
1149 143 0
1150 143 0
1151 143 0
1152 143 0
1569 143 0.0048220099123521959
1570 143 -0.09230703811323461
1571 143 -0.22028815111069383
1572 143 -0.062540089363958593
1129 144 -0
1130 144 -0
1131 144 -0
1132 144 -0
1133 144 -0
1134 144 -0
1135 144 -0
1136 144 -0
1137 144 -0
1138 144 -0
1139 144 -0
1140 144 -0.99509004789631994
1141 144 0
1142 144 0
1143 144 0
1144 144 0
1145 144 0
1146 144 0
1147 144 0
1148 144 0
1149 144 0
1150 144 0
1151 144 0
1152 144 0
1569 144 0.22589481330245723
1570 144 0.085512196920050021
1571 144 -0.209328877595194
1572 144 0.014853171089538656
1129 145 0
1130 145 0
1131 145 0
1132 145 0
1133 145 0
1134 145 0
1135 145 0
1136 145 0
1137 145 0
1138 145 0
1139 145 0
1140 145 0
1141 145 0.99509004789631994
1142 145 0
1143 145 0
1144 145 0
1145 145 0
1146 145 0
1147 145 0
1148 145 0
1149 145 0
1150 145 0
1151 145 0
1152 145 0
1569 145 0
1570 145 0
1571 145 0
1572 145 0
1129 146 0
1130 146 0
1131 146 0
1132 146 0
1133 146 0
1134 146 0
1135 146 0
1136 146 0
1137 146 0
1138 146 0
1139 146 0
1140 146 0
1141 146 0
1142 146 0.99509004789631994
1143 146 0
1144 146 0
1145 146 0
1146 146 0
1147 146 0
1148 146 0
1149 146 0
1150 146 0
1151 146 0
1152 146 0
1569 146 0
1570 146 0
1571 146 0
1572 146 0
1129 147 0
1130 147 0
1131 147 0
1132 147 0
1133 147 0
1134 147 0
1135 147 0
1136 147 0
1137 147 0
1138 147 0
1139 147 0
1140 147 0
1141 147 0
1142 147 0
1143 147 0.99509004789631994
1144 147 0
1145 147 0
1146 147 0
1147 147 0
1148 147 0
1149 147 0
1150 147 0
1151 147 0
1152 147 0
1569 147 0
1570 147 0
1571 147 0
1572 147 0
1129 148 0
1130 148 0
1131 148 0
1132 148 0
1133 148 0
1134 148 0
1135 148 0
1136 148 0
1137 148 0
1138 148 0
1139 148 0
1140 148 0
1141 148 0
1142 148 0
1143 148 0
1144 148 0.99509004789631994
1145 148 0
1146 148 0
1147 148 0
1148 148 0
1149 148 0
1150 148 0
1151 148 0
1152 148 0
1569 148 0
1570 148 0
1571 148 0
1572 148 0
1129 149 0
1130 149 0
1131 149 0
1132 149 0
1133 149 0
1134 149 0
1135 149 0
1136 149 0
1137 149 0
1138 149 0
1139 149 0
1140 149 0
1141 149 0
1142 149 0
1143 149 0
1144 149 0
1145 149 0.99509004789631994
1146 149 0
1147 149 0
1148 149 0
1149 149 0
1150 149 0
1151 149 0
1152 149 0
1569 149 0
1570 149 0
1571 149 0
1572 149 0
1129 150 0
1130 150 0
1131 150 0
1132 150 0
1133 150 0
1134 150 0
1135 150 0
1136 150 0
1137 150 0
1138 150 0
1139 150 0
1140 150 0
1141 150 0
1142 150 0
1143 150 0
1144 150 0
1145 150 0
1146 150 0.99509004789631994
1147 150 0
1148 150 0
1149 150 0
1150 150 0
1151 150 0
1152 150 0
1569 150 0
1570 150 0
1571 150 0
1572 150 0
1129 151 0
1130 151 0
1131 151 0
1132 151 0
1133 151 0
1134 151 0
1135 151 0
1136 151 0
1137 151 0
1138 151 0
1139 151 0
1140 151 0
1141 151 0
1142 151 0
1143 151 0
1144 151 0
1145 151 0
1146 151 0
1147 151 0.99509004789631994
1148 151 0
1149 151 0
1150 151 0
1151 151 0
1152 151 0
1569 151 0
1570 151 0
1571 151 0
1572 151 0
1129 152 0
1130 152 0
1131 152 0
1132 152 0
1133 152 0
1134 152 0
1135 152 0
1136 152 0
1137 152 0
1138 152 0
1139 152 0
1140 152 0
1141 152 0
1142 152 0
1143 152 0
1144 152 0
1145 152 0
1146 152 0
1147 152 0
1148 152 0.99509004789631994
1149 152 0
1150 152 0
1151 152 0
1152 152 0
1569 152 0
1570 152 0
1571 152 0
1572 152 0
1129 153 0
1130 153 0
1131 153 0
1132 153 0
1133 153 0
1134 153 0
1135 153 0
1136 153 0
1137 153 0
1138 153 0
1139 153 0
1140 153 0
1141 153 0
1142 153 0
1143 153 0
1144 153 0
1145 153 0
1146 153 0
1147 153 0
1148 153 0
1149 153 0.99509004789631994
1150 153 0
1151 153 0
1152 153 0
1569 153 0
1570 153 0
1571 153 0
1572 153 0
1129 154 0
1130 154 0
1131 154 0
1132 154 0
1133 154 0
1134 154 0
1135 154 0
1136 154 0
1137 154 0
1138 154 0
1139 154 0
1140 154 0
1141 154 0
1142 154 0
1143 154 0
1144 154 0
1145 154 0
1146 154 0
1147 154 0
1148 154 0
1149 154 0
1150 154 0.99509004789631994
1151 154 0
1152 154 0
1569 154 0
1570 154 0
1571 154 0
1572 154 0
1129 155 0
1130 155 0
1131 155 0
1132 155 0
1133 155 0
1134 155 0
1135 155 0
1136 155 0
1137 155 0
1138 155 0
1139 155 0
1140 155 0
1141 155 0
1142 155 0
1143 155 0
1144 155 0
1145 155 0
1146 155 0
1147 155 0
1148 155 0
1149 155 0
1150 155 0
1151 155 0.99509004789631994
1152 155 0
1569 155 0
1570 155 0
1571 155 0
1572 155 0
1129 156 0
1130 156 0
1131 156 0
1132 156 0
1133 156 0
1134 156 0
1135 156 0
1136 156 0
1137 156 0
1138 156 0
1139 156 0
1140 156 0
1141 156 0
1142 156 0
1143 156 0
1144 156 0
1145 156 0
1146 156 0
1147 156 0
1148 156 0
1149 156 0
1150 156 0
1151 156 0
1152 156 0.99509004789631994
1569 156 0
1570 156 0
1571 156 0
1572 156 0
1565 157 0
1566 157 0
1567 157 0
1568 157 0
1687 157 0
1565 158 0.99878751991636638
1566 158 0
1567 158 0
1568 158 0
1687 158 0
1565 159 0
1566 159 0.99886974093913028
1567 159 0
1568 159 0
1687 159 0
1565 160 0
1566 160 0
1567 160 0.99859691322799182
1568 160 0
1687 160 0
1565 161 0
1566 161 0
1567 161 0
1568 161 0.99879118685427859
1687 161 0
1565 162 0
1566 162 0
1567 162 0
1568 162 0
1687 162 1
1117 163 -0.99509004789631994
1118 163 -0
1119 163 -0
1120 163 -0
1121 163 -0
1122 163 -0
1123 163 -0
1124 163 -0
1125 163 -0
1126 163 -0
1127 163 -0
1128 163 -0
1129 163 0
1130 163 0
1131 163 0
1132 163 0
1133 163 0
1134 163 0
1135 163 0
1136 163 0
1137 163 0
1138 163 0
1139 163 0
1140 163 0
1565 163 -0.1803189598547551
1566 163 -0.25584631152049064
1567 163 -0.074765084896359371
1568 163 -0.06244980534901011
1117 164 -0
1118 164 -0.99509004789631994
1119 164 -0
1120 164 -0
1121 164 -0
1122 164 -0
1123 164 -0
1124 164 -0
1125 164 -0
1126 164 -0
1127 164 -0
1128 164 -0
1129 164 0
1130 164 0
1131 164 0
1132 164 0
1133 164 0
1134 164 0
1135 164 0
1136 164 0
1137 164 0
1138 164 0
1139 164 0
1140 164 0
1565 164 0.10820261428783474
1566 164 0.080196783561304039
1567 164 -0.016866001348705428
1568 164 -0.17094248486675911
1117 165 -0
1118 165 -0
1119 165 -0.99509004789631994
1120 165 -0
1121 165 -0
1122 165 -0
1123 165 -0
1124 165 -0
1125 165 -0
1126 165 -0
1127 165 -0
1128 165 -0
1129 165 0
1130 165 0
1131 165 0
1132 165 0
1133 165 0
1134 165 0
1135 165 0
1136 165 0
1137 165 0
1138 165 0
1139 165 0
1140 165 0
1565 165 0.021296203412182201
1566 165 0.06379387941368389
1567 165 0.33227429440027084
1568 165 0.038055274961526345
1117 166 -0
1118 166 -0
1119 166 -0
1120 166 -0.99509004789631994
1121 166 -0
1122 166 -0
1123 166 -0
1124 166 -0
1125 166 -0
1126 166 -0
1127 166 -0
1128 166 -0
1129 166 0
1130 166 0
1131 166 0
1132 166 0
1133 166 0
1134 166 0
1135 166 0
1136 166 0
1137 166 0
1138 166 0
1139 166 0
1140 166 0
1565 166 0.19846746771042395
1566 166 0.13291349456905685
1567 166 -0.11659569025066187
1568 166 0.1709989853023412
1117 167 -0
1118 167 -0
1119 167 -0
1120 167 -0
1121 167 -0.99509004789631994
1122 167 -0
1123 167 -0
1124 167 -0
1125 167 -0
1126 167 -0
1127 167 -0
1128 167 -0
1129 167 0
1130 167 0
1131 167 0
1132 167 0
1133 167 0
1134 167 0
1135 167 0
1136 167 0
1137 167 0
1138 167 0
1139 167 0
1140 167 0
1565 167 0.06406726430169403
1566 167 0.0077975121873435499
1567 167 -0.012888481757033089
1568 167 0.1821584263174176
1117 168 -0
1118 168 -0
1119 168 -0
1120 168 -0
1121 168 -0
1122 168 -0.99509004789631994
1123 168 -0
1124 168 -0
1125 168 -0
1126 168 -0
1127 168 -0
1128 168 -0
1129 168 0
1130 168 0
1131 168 0
1132 168 0
1133 168 0
1134 168 0
1135 168 0
1136 168 0
1137 168 0
1138 168 0
1139 168 0
1140 168 0
1565 168 0.14930176975937659
1566 168 -0.1220518999462523
1567 168 -0.21437482240798272
1568 168 -0.27728111366749703
1117 169 -0
1118 169 -0
1119 169 -0
1120 169 -0
1121 169 -0
1122 169 -0
1123 169 -0.99509004789631994
1124 169 -0
1125 169 -0
1126 169 -0
1127 169 -0
1128 169 -0
1129 169 0
1130 169 0
1131 169 0
1132 169 0
1133 169 0
1134 169 0
1135 169 0
1136 169 0
1137 169 0
1138 169 0
1139 169 0
1140 169 0
1565 169 -0.27832449100114248
1566 169 -0.023030066571549251
1567 169 0.085999904285044407
1568 169 0.14042558666593874
1117 170 -0
1118 170 -0
1119 170 -0
1120 170 -0
1121 170 -0
1122 170 -0
1123 170 -0
1124 170 -0.99509004789631994
1125 170 -0
1126 170 -0
1127 170 -0
1128 170 -0
1129 170 0
1130 170 0
1131 170 0
1132 170 0
1133 170 0
1134 170 0
1135 170 0
1136 170 0
1137 170 0
1138 170 0
1139 170 0
1140 170 0
1565 170 0.14426661227624929
1566 170 0.019112219351713613
1567 170 -0.3383340256558125
1568 170 -0.26332006554483989
1117 171 -0
1118 171 -0
1119 171 -0
1120 171 -0
1121 171 -0
1122 171 -0
1123 171 -0
1124 171 -0
1125 171 -0.99509004789631994
1126 171 -0
1127 171 -0
1128 171 -0
1129 171 0
1130 171 0
1131 171 0
1132 171 0
1133 171 0
1134 171 0
1135 171 0
1136 171 0
1137 171 0
1138 171 0
1139 171 0
1140 171 0
1565 171 -0.11462509557936003
1566 171 -0.065598224589830417
1567 171 0.12045547271290091
1568 171 0.066735657880519217
1117 172 -0
1118 172 -0
1119 172 -0
1120 172 -0
1121 172 -0
1122 172 -0
1123 172 -0
1124 172 -0
1125 172 -0
1126 172 -0.99509004789631994
1127 172 -0
1128 172 -0
1129 172 0
1130 172 0
1131 172 0
1132 172 0
1133 172 0
1134 172 0
1135 172 0
1136 172 0
1137 172 0
1138 172 0
1139 172 0
1140 172 0
1565 172 0.1112726701807888
1566 172 -0.18163442438886057
1567 172 -0.24934842404473068
1568 172 0.087619788974651794
1117 173 -0
1118 173 -0
1119 173 -0
1120 173 -0
1121 173 -0
1122 173 -0
1123 173 -0
1124 173 -0
1125 173 -0
1126 173 -0
1127 173 -0.99509004789631994
1128 173 -0
1129 173 0
1130 173 0
1131 173 0
1132 173 0
1133 173 0
1134 173 0
1135 173 0
1136 173 0
1137 173 0
1138 173 0
1139 173 0
1140 173 0
1565 173 0.0048220099123521959
1566 173 -0.09230703811323461
1567 173 -0.22028815111069383
1568 173 -0.062540089363958593
1117 174 -0
1118 174 -0
1119 174 -0
1120 174 -0
1121 174 -0
1122 174 -0
1123 174 -0
1124 174 -0
1125 174 -0
1126 174 -0
1127 174 -0
1128 174 -0.99509004789631994
1129 174 0
1130 174 0
1131 174 0
1132 174 0
1133 174 0
1134 174 0
1135 174 0
1136 174 0
1137 174 0
1138 174 0
1139 174 0
1140 174 0
1565 174 0.22589481330245723
1566 174 0.085512196920050021
1567 174 -0.209328877595194
1568 174 0.014853171089538656
1117 175 0
1118 175 0
1119 175 0
1120 175 0
1121 175 0
1122 175 0
1123 175 0
1124 175 0
1125 175 0
1126 175 0
1127 175 0
1128 175 0
1129 175 0.99509004789631994
1130 175 0
1131 175 0
1132 175 0
1133 175 0
1134 175 0
1135 175 0
1136 175 0
1137 175 0
1138 175 0
1139 175 0
1140 175 0
1565 175 0
1566 175 0
1567 175 0
1568 175 0
1117 176 0
1118 176 0
1119 176 0
1120 176 0
1121 176 0
1122 176 0
1123 176 0
1124 176 0
1125 176 0
1126 176 0
1127 176 0
1128 176 0
1129 176 0
1130 176 0.99509004789631994
1131 176 0
1132 176 0
1133 176 0
1134 176 0
1135 176 0
1136 176 0
1137 176 0
1138 176 0
1139 176 0
1140 176 0
1565 176 0
1566 176 0
1567 176 0
1568 176 0
1117 177 0
1118 177 0
1119 177 0
1120 177 0
1121 177 0
1122 177 0
1123 177 0
1124 177 0
1125 177 0
1126 177 0
1127 177 0
1128 177 0
1129 177 0
1130 177 0
1131 177 0.99509004789631994
1132 177 0
1133 177 0
1134 177 0
1135 177 0
1136 177 0
1137 177 0
1138 177 0
1139 177 0
1140 177 0
1565 177 0
1566 177 0
1567 177 0
1568 177 0
1117 178 0
1118 178 0
1119 178 0
1120 178 0
1121 178 0
1122 178 0
1123 178 0
1124 178 0
1125 178 0
1126 178 0
1127 178 0
1128 178 0
1129 178 0
1130 178 0
1131 178 0
1132 178 0.99509004789631994
1133 178 0
1134 178 0
1135 178 0
1136 178 0
1137 178 0
1138 178 0
1139 178 0
1140 178 0
1565 178 0
1566 178 0
1567 178 0
1568 178 0
1117 179 0
1118 179 0
1119 179 0
1120 179 0
1121 179 0
1122 179 0
1123 179 0
1124 179 0
1125 179 0
1126 179 0
1127 179 0
1128 179 0
1129 179 0
1130 179 0
1131 179 0
1132 179 0
1133 179 0.99509004789631994
1134 179 0
1135 179 0
1136 179 0
1137 179 0
1138 179 0
1139 179 0
1140 179 0
1565 179 0
1566 179 0
1567 179 0
1568 179 0
1117 180 0
1118 180 0
1119 180 0
1120 180 0
1121 180 0
1122 180 0
1123 180 0
1124 180 0
1125 180 0
1126 180 0
1127 180 0
1128 180 0
1129 180 0
1130 180 0
1131 180 0
1132 180 0
1133 180 0
1134 180 0.99509004789631994
1135 180 0
1136 180 0
1137 180 0
1138 180 0
1139 180 0
1140 180 0
1565 180 0
1566 180 0
1567 180 0
1568 180 0
1117 181 0
1118 181 0
1119 181 0
1120 181 0
1121 181 0
1122 181 0
1123 181 0
1124 181 0
1125 181 0
1126 181 0
1127 181 0
1128 181 0
1129 181 0
1130 181 0
1131 181 0
1132 181 0
1133 181 0
1134 181 0
1135 181 0.99509004789631994
1136 181 0
1137 181 0
1138 181 0
1139 181 0
1140 181 0
1565 181 0
1566 181 0
1567 181 0
1568 181 0
1117 182 0
1118 182 0
1119 182 0
1120 182 0
1121 182 0
1122 182 0
1123 182 0
1124 182 0
1125 182 0
1126 182 0
1127 182 0
1128 182 0
1129 182 0
1130 182 0
1131 182 0
1132 182 0
1133 182 0
1134 182 0
1135 182 0
1136 182 0.99509004789631994
1137 182 0
1138 182 0
1139 182 0
1140 182 0
1565 182 0
1566 182 0
1567 182 0
1568 182 0
1117 183 0
1118 183 0
1119 183 0
1120 183 0
1121 183 0
1122 183 0
1123 183 0
1124 183 0
1125 183 0
1126 183 0
1127 183 0
1128 183 0
1129 183 0
1130 183 0
1131 183 0
1132 183 0
1133 183 0
1134 183 0
1135 183 0
1136 183 0
1137 183 0.99509004789631994
1138 183 0
1139 183 0
1140 183 0
1565 183 0
1566 183 0
1567 183 0
1568 183 0
1117 184 0
1118 184 0
1119 184 0
1120 184 0
1121 184 0
1122 184 0
1123 184 0
1124 184 0
1125 184 0
1126 184 0
1127 184 0
1128 184 0
1129 184 0
1130 184 0
1131 184 0
1132 184 0
1133 184 0
1134 184 0
1135 184 0
1136 184 0
1137 184 0
1138 184 0.99509004789631994
1139 184 0
1140 184 0
1565 184 0
1566 184 0
1567 184 0
1568 184 0
1117 185 0
1118 185 0
1119 185 0
1120 185 0
1121 185 0
1122 185 0
1123 185 0
1124 185 0
1125 185 0
1126 185 0
1127 185 0
1128 185 0
1129 185 0
1130 185 0
1131 185 0
1132 185 0
1133 185 0
1134 185 0
1135 185 0
1136 185 0
1137 185 0
1138 185 0
1139 185 0.99509004789631994
1140 185 0
1565 185 0
1566 185 0
1567 185 0
1568 185 0
1117 186 0
1118 186 0
1119 186 0
1120 186 0
1121 186 0
1122 186 0
1123 186 0
1124 186 0
1125 186 0
1126 186 0
1127 186 0
1128 186 0
1129 186 0
1130 186 0
1131 186 0
1132 186 0
1133 186 0
1134 186 0
1135 186 0
1136 186 0
1137 186 0
1138 186 0
1139 186 0
1140 186 0.99509004789631994
1565 186 0
1566 186 0
1567 186 0
1568 186 0
1561 187 0
1562 187 0
1563 187 0
1564 187 0
1686 187 0
1561 188 0.99878751991636638
1562 188 0
1563 188 0
1564 188 0
1686 188 0
1561 189 0
1562 189 0.99886974093913028
1563 189 0
1564 189 0
1686 189 0
1561 190 0
1562 190 0
1563 190 0.99859691322799182
1564 190 0
1686 190 0
1561 191 0
1562 191 0
1563 191 0
1564 191 0.99879118685427859
1686 191 0
1561 192 0
1562 192 0
1563 192 0
1564 192 0
1686 192 1
1105 193 -0.99509004789631994
1106 193 -0
1107 193 -0
1108 193 -0
1109 193 -0
1110 193 -0
1111 193 -0
1112 193 -0
1113 193 -0
1114 193 -0
1115 193 -0
1116 193 -0
1117 193 0
1118 193 0
1119 193 0
1120 193 0
1121 193 0
1122 193 0
1123 193 0
1124 193 0
1125 193 0
1126 193 0
1127 193 0
1128 193 0
1561 193 -0.1803189598547551
1562 193 -0.25584631152049064
1563 193 -0.074765084896359371
1564 193 -0.06244980534901011
1105 194 -0
1106 194 -0.99509004789631994
1107 194 -0
1108 194 -0
1109 194 -0
1110 194 -0
1111 194 -0
1112 194 -0
1113 194 -0
1114 194 -0
1115 194 -0
1116 194 -0
1117 194 0
1118 194 0
1119 194 0
1120 194 0
1121 194 0
1122 194 0
1123 194 0
1124 194 0
1125 194 0
1126 194 0
1127 194 0
1128 194 0
1561 194 0.10820261428783474
1562 194 0.080196783561304039
1563 194 -0.016866001348705428
1564 194 -0.17094248486675911
1105 195 -0
1106 195 -0
1107 195 -0.99509004789631994
1108 195 -0
1109 195 -0
1110 195 -0
1111 195 -0
1112 195 -0
1113 195 -0
1114 195 -0
1115 195 -0
1116 195 -0
1117 195 0
1118 195 0
1119 195 0
1120 195 0
1121 195 0
1122 195 0
1123 195 0
1124 195 0
1125 195 0
1126 195 0
1127 195 0
1128 195 0
1561 195 0.021296203412182201
1562 195 0.06379387941368389
1563 195 0.33227429440027084
1564 195 0.038055274961526345
1105 196 -0
1106 196 -0
1107 196 -0
1108 196 -0.99509004789631994
1109 196 -0
1110 196 -0
1111 196 -0
1112 196 -0
1113 196 -0
1114 196 -0
1115 196 -0
1116 196 -0
1117 196 0
1118 196 0
1119 196 0
1120 196 0
1121 196 0
1122 196 0
1123 196 0
1124 196 0
1125 196 0
1126 196 0
1127 196 0
1128 196 0
1561 196 0.19846746771042395
1562 196 0.13291349456905685
1563 196 -0.11659569025066187
1564 196 0.1709989853023412
1105 197 -0
1106 197 -0
1107 197 -0
1108 197 -0
1109 197 -0.99509004789631994
1110 197 -0
1111 197 -0
1112 197 -0
1113 197 -0
1114 197 -0
1115 197 -0
1116 197 -0
1117 197 0
1118 197 0
1119 197 0
1120 197 0
1121 197 0
1122 197 0
1123 197 0
1124 197 0
1125 197 0
1126 197 0
1127 197 0
1128 197 0
1561 197 0.06406726430169403
1562 197 0.0077975121873435499
1563 197 -0.012888481757033089
1564 197 0.1821584263174176
1105 198 -0
1106 198 -0
1107 198 -0
1108 198 -0
1109 198 -0
1110 198 -0.99509004789631994
1111 198 -0
1112 198 -0
1113 198 -0
1114 198 -0
1115 198 -0
1116 198 -0
1117 198 0
1118 198 0
1119 198 0
1120 198 0
1121 198 0
1122 198 0
1123 198 0
1124 198 0
1125 198 0
1126 198 0
1127 198 0
1128 198 0
1561 198 0.14930176975937659
1562 198 -0.1220518999462523
1563 198 -0.21437482240798272
1564 198 -0.27728111366749703
1105 199 -0
1106 199 -0
1107 199 -0
1108 199 -0
1109 199 -0
1110 199 -0
1111 199 -0.99509004789631994
1112 199 -0
1113 199 -0
1114 199 -0
1115 199 -0
1116 199 -0
1117 199 0
1118 199 0
1119 199 0
1120 199 0
1121 199 0
1122 199 0
1123 199 0
1124 199 0
1125 199 0
1126 199 0
1127 199 0
1128 199 0
1561 199 -0.27832449100114248
1562 199 -0.023030066571549251
1563 199 0.085999904285044407
1564 199 0.14042558666593874
1105 200 -0
1106 200 -0
1107 200 -0
1108 200 -0
1109 200 -0
1110 200 -0
1111 200 -0
1112 200 -0.99509004789631994
1113 200 -0
1114 200 -0
1115 200 -0
1116 200 -0
1117 200 0
1118 200 0
1119 200 0
1120 200 0
1121 200 0
1122 200 0
1123 200 0
1124 200 0
1125 200 0
1126 200 0
1127 200 0
1128 200 0
1561 200 0.14426661227624929
1562 200 0.019112219351713613
1563 200 -0.3383340256558125
1564 200 -0.26332006554483989
1105 201 -0
1106 201 -0
1107 201 -0
1108 201 -0
1109 201 -0
1110 201 -0
1111 201 -0
1112 201 -0
1113 201 -0.99509004789631994
1114 201 -0
1115 201 -0
1116 201 -0
1117 201 0
1118 201 0
1119 201 0
1120 201 0
1121 201 0
1122 201 0
1123 201 0
1124 201 0
1125 201 0
1126 201 0
1127 201 0
1128 201 0
1561 201 -0.11462509557936003
1562 201 -0.065598224589830417
1563 201 0.12045547271290091
1564 201 0.066735657880519217
1105 202 -0
1106 202 -0
1107 202 -0
1108 202 -0
1109 202 -0
1110 202 -0
1111 202 -0
1112 202 -0
1113 202 -0
1114 202 -0.99509004789631994
1115 202 -0
1116 202 -0
1117 202 0
1118 202 0
1119 202 0
1120 202 0
1121 202 0
1122 202 0
1123 202 0
1124 202 0
1125 202 0
1126 202 0
1127 202 0
1128 202 0
1561 202 0.1112726701807888
1562 202 -0.18163442438886057
1563 202 -0.24934842404473068
1564 202 0.087619788974651794
1105 203 -0
1106 203 -0
1107 203 -0
1108 203 -0
1109 203 -0
1110 203 -0
1111 203 -0
1112 203 -0
1113 203 -0
1114 203 -0
1115 203 -0.99509004789631994
1116 203 -0
1117 203 0
1118 203 0
1119 203 0
1120 203 0
1121 203 0
1122 203 0
1123 203 0
1124 203 0
1125 203 0
1126 203 0
1127 203 0
1128 203 0
1561 203 0.0048220099123521959
1562 203 -0.09230703811323461
1563 203 -0.22028815111069383
1564 203 -0.062540089363958593
1105 204 -0
1106 204 -0
1107 204 -0
1108 204 -0
1109 204 -0
1110 204 -0
1111 204 -0
1112 204 -0
1113 204 -0
1114 204 -0
1115 204 -0
1116 204 -0.99509004789631994
1117 204 0
1118 204 0
1119 204 0
1120 204 0
1121 204 0
1122 204 0
1123 204 0
1124 204 0
1125 204 0
1126 204 0
1127 204 0
1128 204 0
1561 204 0.22589481330245723
1562 204 0.085512196920050021
1563 204 -0.209328877595194
1564 204 0.014853171089538656
1105 205 0
1106 205 0
1107 205 0
1108 205 0
1109 205 0
1110 205 0
1111 205 0
1112 205 0
1113 205 0
1114 205 0
1115 205 0
1116 205 0
1117 205 0.99509004789631994
1118 205 0
1119 205 0
1120 205 0
1121 205 0
1122 205 0
1123 205 0
1124 205 0
1125 205 0
1126 205 0
1127 205 0
1128 205 0
1561 205 0
1562 205 0
1563 205 0
1564 205 0
1105 206 0
1106 206 0
1107 206 0
1108 206 0
1109 206 0
1110 206 0
1111 206 0
1112 206 0
1113 206 0
1114 206 0
1115 206 0
1116 206 0
1117 206 0
1118 206 0.99509004789631994
1119 206 0
1120 206 0
1121 206 0
1122 206 0
1123 206 0
1124 206 0
1125 206 0
1126 206 0
1127 206 0
1128 206 0
1561 206 0
1562 206 0
1563 206 0
1564 206 0
1105 207 0
1106 207 0
1107 207 0
1108 207 0
1109 207 0
1110 207 0
1111 207 0
1112 207 0
1113 207 0
1114 207 0
1115 207 0
1116 207 0
1117 207 0
1118 207 0
1119 207 0.99509004789631994
1120 207 0
1121 207 0
1122 207 0
1123 207 0
1124 207 0
1125 207 0
1126 207 0
1127 207 0
1128 207 0
1561 207 0
1562 207 0
1563 207 0
1564 207 0
1105 208 0
1106 208 0
1107 208 0
1108 208 0
1109 208 0
1110 208 0
1111 208 0
1112 208 0
1113 208 0
1114 208 0
1115 208 0
1116 208 0
1117 208 0
1118 208 0
1119 208 0
1120 208 0.99509004789631994
1121 208 0
1122 208 0
1123 208 0
1124 208 0
1125 208 0
1126 208 0
1127 208 0
1128 208 0
1561 208 0
1562 208 0
1563 208 0
1564 208 0
1105 209 0
1106 209 0
1107 209 0
1108 209 0
1109 209 0
1110 209 0
1111 209 0
1112 209 0
1113 209 0
1114 209 0
1115 209 0
1116 209 0
1117 209 0
1118 209 0
1119 209 0
1120 209 0
1121 209 0.99509004789631994
1122 209 0
1123 209 0
1124 209 0
1125 209 0
1126 209 0
1127 209 0
1128 209 0
1561 209 0
1562 209 0
1563 209 0
1564 209 0
1105 210 0
1106 210 0
1107 210 0
1108 210 0
1109 210 0
1110 210 0
1111 210 0
1112 210 0
1113 210 0
1114 210 0
1115 210 0
1116 210 0
1117 210 0
1118 210 0
1119 210 0
1120 210 0
1121 210 0
1122 210 0.99509004789631994
1123 210 0
1124 210 0
1125 210 0
1126 210 0
1127 210 0
1128 210 0
1561 210 0
1562 210 0
1563 210 0
1564 210 0
1105 211 0
1106 211 0
1107 211 0
1108 211 0
1109 211 0
1110 211 0
1111 211 0
1112 211 0
1113 211 0
1114 211 0
1115 211 0
1116 211 0
1117 211 0
1118 211 0
1119 211 0
1120 211 0
1121 211 0
1122 211 0
1123 211 0.99509004789631994
1124 211 0
1125 211 0
1126 211 0
1127 211 0
1128 211 0
1561 211 0
1562 211 0
1563 211 0
1564 211 0
1105 212 0
1106 212 0
1107 212 0
1108 212 0
1109 212 0
1110 212 0
1111 212 0
1112 212 0
1113 212 0
1114 212 0
1115 212 0
1116 212 0
1117 212 0
1118 212 0
1119 212 0
1120 212 0
1121 212 0
1122 212 0
1123 212 0
1124 212 0.99509004789631994
1125 212 0
1126 212 0
1127 212 0
1128 212 0
1561 212 0
1562 212 0
1563 212 0
1564 212 0
1105 213 0
1106 213 0
1107 213 0
1108 213 0
1109 213 0
1110 213 0
1111 213 0
1112 213 0
1113 213 0
1114 213 0
1115 213 0
1116 213 0
1117 213 0
1118 213 0
1119 213 0
1120 213 0
1121 213 0
1122 213 0
1123 213 0
1124 213 0
1125 213 0.99509004789631994
1126 213 0
1127 213 0
1128 213 0
1561 213 0
1562 213 0
1563 213 0
1564 213 0
1105 214 0
1106 214 0
1107 214 0
1108 214 0
1109 214 0
1110 214 0
1111 214 0
1112 214 0
1113 214 0
1114 214 0
1115 214 0
1116 214 0
1117 214 0
1118 214 0
1119 214 0
1120 214 0
1121 214 0
1122 214 0
1123 214 0
1124 214 0
1125 214 0
1126 214 0.99509004789631994
1127 214 0
1128 214 0
1561 214 0
1562 214 0
1563 214 0
1564 214 0
1105 215 0
1106 215 0
1107 215 0
1108 215 0
1109 215 0
1110 215 0
1111 215 0
1112 215 0
1113 215 0
1114 215 0
1115 215 0
1116 215 0
1117 215 0
1118 215 0
1119 215 0
1120 215 0
1121 215 0
1122 215 0
1123 215 0
1124 215 0
1125 215 0
1126 215 0
1127 215 0.99509004789631994
1128 215 0
1561 215 0
1562 215 0
1563 215 0
1564 215 0
1105 216 0
1106 216 0
1107 216 0
1108 216 0
1109 216 0
1110 216 0
1111 216 0
1112 216 0
1113 216 0
1114 216 0
1115 216 0
1116 216 0
1117 216 0
1118 216 0
1119 216 0
1120 216 0
1121 216 0
1122 216 0
1123 216 0
1124 216 0
1125 216 0
1126 216 0
1127 216 0
1128 216 0.99509004789631994
1561 216 0
1562 216 0
1563 216 0
1564 216 0
1557 217 0
1558 217 0
1559 217 0
1560 217 0
1685 217 0
1557 218 0.99878751991636638
1558 218 0
1559 218 0
1560 218 0
1685 218 0
1557 219 0
1558 219 0.99886974093913028
1559 219 0
1560 219 0
1685 219 0
1557 220 0
1558 220 0
1559 220 0.99859691322799182
1560 220 0
1685 220 0
1557 221 0
1558 221 0
1559 221 0
1560 221 0.99879118685427859
1685 221 0
1557 222 0
1558 222 0
1559 222 0
1560 222 0
1685 222 1
1093 223 -0.99509004789631994
1094 223 -0
1095 223 -0
1096 223 -0
1097 223 -0
1098 223 -0
1099 223 -0
1100 223 -0
1101 223 -0
1102 223 -0
1103 223 -0
1104 223 -0
1105 223 0
1106 223 0
1107 223 0
1108 223 0
1109 223 0
1110 223 0
1111 223 0
1112 223 0
1113 223 0
1114 223 0
1115 223 0
1116 223 0
1557 223 -0.1803189598547551
1558 223 -0.25584631152049064
1559 223 -0.074765084896359371
1560 223 -0.06244980534901011
1093 224 -0
1094 224 -0.99509004789631994
1095 224 -0
1096 224 -0
1097 224 -0
1098 224 -0
1099 224 -0
1100 224 -0
1101 224 -0
1102 224 -0
1103 224 -0
1104 224 -0
1105 224 0
1106 224 0
1107 224 0
1108 224 0
1109 224 0
1110 224 0
1111 224 0
1112 224 0
1113 224 0
1114 224 0
1115 224 0
1116 224 0
1557 224 0.10820261428783474
1558 224 0.080196783561304039
1559 224 -0.016866001348705428
1560 224 -0.17094248486675911
1093 225 -0
1094 225 -0
1095 225 -0.99509004789631994
1096 225 -0
1097 225 -0
1098 225 -0
1099 225 -0
1100 225 -0
1101 225 -0
1102 225 -0
1103 225 -0
1104 225 -0
1105 225 0
1106 225 0
1107 225 0
1108 225 0
1109 225 0
1110 225 0
1111 225 0
1112 225 0
1113 225 0
1114 225 0
1115 225 0
1116 225 0
1557 225 0.021296203412182201
1558 225 0.06379387941368389
1559 225 0.33227429440027084
1560 225 0.038055274961526345
1093 226 -0
1094 226 -0
1095 226 -0
1096 226 -0.99509004789631994
1097 226 -0
1098 226 -0
1099 226 -0
1100 226 -0
1101 226 -0
1102 226 -0
1103 226 -0
1104 226 -0
1105 226 0
1106 226 0
1107 226 0
1108 226 0
1109 226 0
1110 226 0
1111 226 0
1112 226 0
1113 226 0
1114 226 0
1115 226 0
1116 226 0
1557 226 0.19846746771042395
1558 226 0.13291349456905685
1559 226 -0.11659569025066187
1560 226 0.1709989853023412
1093 227 -0
1094 227 -0
1095 227 -0
1096 227 -0
1097 227 -0.99509004789631994
1098 227 -0
1099 227 -0
1100 227 -0
1101 227 -0
1102 227 -0
1103 227 -0
1104 227 -0
1105 227 0
1106 227 0
1107 227 0
1108 227 0
1109 227 0
1110 227 0
1111 227 0
1112 227 0
1113 227 0
1114 227 0
1115 227 0
1116 227 0
1557 227 0.06406726430169403
1558 227 0.0077975121873435499
1559 227 -0.012888481757033089
1560 227 0.1821584263174176
1093 228 -0
1094 228 -0
1095 228 -0
1096 228 -0
1097 228 -0
1098 228 -0.99509004789631994
1099 228 -0
1100 228 -0
1101 228 -0
1102 228 -0
1103 228 -0
1104 228 -0
1105 228 0
1106 228 0
1107 228 0
1108 228 0
1109 228 0
1110 228 0
1111 228 0
1112 228 0
1113 228 0
1114 228 0
1115 228 0
1116 228 0
1557 228 0.14930176975937659
1558 228 -0.1220518999462523
1559 228 -0.21437482240798272
1560 228 -0.27728111366749703
1093 229 -0
1094 229 -0
1095 229 -0
1096 229 -0
1097 229 -0
1098 229 -0
1099 229 -0.99509004789631994
1100 229 -0
1101 229 -0
1102 229 -0
1103 229 -0
1104 229 -0
1105 229 0
1106 229 0
1107 229 0
1108 229 0
1109 229 0
1110 229 0
1111 229 0
1112 229 0
1113 229 0
1114 229 0
1115 229 0
1116 229 0
1557 229 -0.27832449100114248
1558 229 -0.023030066571549251
1559 229 0.085999904285044407
1560 229 0.14042558666593874
1093 230 -0
1094 230 -0
1095 230 -0
1096 230 -0
1097 230 -0
1098 230 -0
1099 230 -0
1100 230 -0.99509004789631994
1101 230 -0
1102 230 -0
1103 230 -0
1104 230 -0
1105 230 0
1106 230 0
1107 230 0
1108 230 0
1109 230 0
1110 230 0
1111 230 0
1112 230 0
1113 230 0
1114 230 0
1115 230 0
1116 230 0
1557 230 0.14426661227624929
1558 230 0.019112219351713613
1559 230 -0.3383340256558125
1560 230 -0.26332006554483989
1093 231 -0
1094 231 -0
1095 231 -0
1096 231 -0
1097 231 -0
1098 231 -0
1099 231 -0
1100 231 -0
1101 231 -0.99509004789631994
1102 231 -0
1103 231 -0
1104 231 -0
1105 231 0
1106 231 0
1107 231 0
1108 231 0
1109 231 0
1110 231 0
1111 231 0
1112 231 0
1113 231 0
1114 231 0
1115 231 0
1116 231 0
1557 231 -0.11462509557936003
1558 231 -0.065598224589830417
1559 231 0.12045547271290091
1560 231 0.066735657880519217
1093 232 -0
1094 232 -0
1095 232 -0
1096 232 -0
1097 232 -0
1098 232 -0
1099 232 -0
1100 232 -0
1101 232 -0
1102 232 -0.99509004789631994
1103 232 -0
1104 232 -0
1105 232 0
1106 232 0
1107 232 0
1108 232 0
1109 232 0
1110 232 0
1111 232 0
1112 232 0
1113 232 0
1114 232 0
1115 232 0
1116 232 0
1557 232 0.1112726701807888
1558 232 -0.18163442438886057
1559 232 -0.24934842404473068
1560 232 0.087619788974651794
1093 233 -0
1094 233 -0
1095 233 -0
1096 233 -0
1097 233 -0
1098 233 -0
1099 233 -0
1100 233 -0
1101 233 -0
1102 233 -0
1103 233 -0.99509004789631994
1104 233 -0
1105 233 0
1106 233 0
1107 233 0
1108 233 0
1109 233 0
1110 233 0
1111 233 0
1112 233 0
1113 233 0
1114 233 0
1115 233 0
1116 233 0
1557 233 0.0048220099123521959
1558 233 -0.09230703811323461
1559 233 -0.22028815111069383
1560 233 -0.062540089363958593
1093 234 -0
1094 234 -0
1095 234 -0
1096 234 -0
1097 234 -0
1098 234 -0
1099 234 -0
1100 234 -0
1101 234 -0
1102 234 -0
1103 234 -0
1104 234 -0.99509004789631994
1105 234 0
1106 234 0
1107 234 0
1108 234 0
1109 234 0
1110 234 0
1111 234 0
1112 234 0
1113 234 0
1114 234 0
1115 234 0
1116 234 0
1557 234 0.22589481330245723
1558 234 0.085512196920050021
1559 234 -0.209328877595194
1560 234 0.014853171089538656
1093 235 0
1094 235 0
1095 235 0
1096 235 0
1097 235 0
1098 235 0
1099 235 0
1100 235 0
1101 235 0
1102 235 0
1103 235 0
1104 235 0
1105 235 0.99509004789631994
1106 235 0
1107 235 0
1108 235 0
1109 235 0
1110 235 0
1111 235 0
1112 235 0
1113 235 0
1114 235 0
1115 235 0
1116 235 0
1557 235 0
1558 235 0
1559 235 0
1560 235 0
1093 236 0
1094 236 0
1095 236 0
1096 236 0
1097 236 0
1098 236 0
1099 236 0
1100 236 0
1101 236 0
1102 236 0
1103 236 0
1104 236 0
1105 236 0
1106 236 0.99509004789631994
1107 236 0
1108 236 0
1109 236 0
1110 236 0
1111 236 0
1112 236 0
1113 236 0
1114 236 0
1115 236 0
1116 236 0
1557 236 0
1558 236 0
1559 236 0
1560 236 0
1093 237 0
1094 237 0
1095 237 0
1096 237 0
1097 237 0
1098 237 0
1099 237 0
1100 237 0
1101 237 0
1102 237 0
1103 237 0
1104 237 0
1105 237 0
1106 237 0
1107 237 0.99509004789631994
1108 237 0
1109 237 0
1110 237 0
1111 237 0
1112 237 0
1113 237 0
1114 237 0
1115 237 0
1116 237 0
1557 237 0
1558 237 0
1559 237 0
1560 237 0
1093 238 0
1094 238 0
1095 238 0
1096 238 0
1097 238 0
1098 238 0
1099 238 0
1100 238 0
1101 238 0
1102 238 0
1103 238 0
1104 238 0
1105 238 0
1106 238 0
1107 238 0
1108 238 0.99509004789631994
1109 238 0
1110 238 0
1111 238 0
1112 238 0
1113 238 0
1114 238 0
1115 238 0
1116 238 0
1557 238 0
1558 238 0
1559 238 0
1560 238 0
1093 239 0
1094 239 0
1095 239 0
1096 239 0
1097 239 0
1098 239 0
1099 239 0
1100 239 0
1101 239 0
1102 239 0
1103 239 0
1104 239 0
1105 239 0
1106 239 0
1107 239 0
1108 239 0
1109 239 0.99509004789631994
1110 239 0
1111 239 0
1112 239 0
1113 239 0
1114 239 0
1115 239 0
1116 239 0
1557 239 0
1558 239 0
1559 239 0
1560 239 0
1093 240 0
1094 240 0
1095 240 0
1096 240 0
1097 240 0
1098 240 0
1099 240 0
1100 240 0
1101 240 0
1102 240 0
1103 240 0
1104 240 0
1105 240 0
1106 240 0
1107 240 0
1108 240 0
1109 240 0
1110 240 0.99509004789631994
1111 240 0
1112 240 0
1113 240 0
1114 240 0
1115 240 0
1116 240 0
1557 240 0
1558 240 0
1559 240 0
1560 240 0
1093 241 0
1094 241 0
1095 241 0
1096 241 0
1097 241 0
1098 241 0
1099 241 0
1100 241 0
1101 241 0
1102 241 0
1103 241 0
1104 241 0
1105 241 0
1106 241 0
1107 241 0
1108 241 0
1109 241 0
1110 241 0
1111 241 0.99509004789631994
1112 241 0
1113 241 0
1114 241 0
1115 241 0
1116 241 0
1557 241 0
1558 241 0
1559 241 0
1560 241 0
1093 242 0
1094 242 0
1095 242 0
1096 242 0
1097 242 0
1098 242 0
1099 242 0
1100 242 0
1101 242 0
1102 242 0
1103 242 0
1104 242 0
1105 242 0
1106 242 0
1107 242 0
1108 242 0
1109 242 0
1110 242 0
1111 242 0
1112 242 0.99509004789631994
1113 242 0
1114 242 0
1115 242 0
1116 242 0
1557 242 0
1558 242 0
1559 242 0
1560 242 0
1093 243 0
1094 243 0
1095 243 0
1096 243 0
1097 243 0
1098 243 0
1099 243 0
1100 243 0
1101 243 0
1102 243 0
1103 243 0
1104 243 0
1105 243 0
1106 243 0
1107 243 0
1108 243 0
1109 243 0
1110 243 0
1111 243 0
1112 243 0
1113 243 0.99509004789631994
1114 243 0
1115 243 0
1116 243 0
1557 243 0
1558 243 0
1559 243 0
1560 243 0
1093 244 0
1094 244 0
1095 244 0
1096 244 0
1097 244 0
1098 244 0
1099 244 0
1100 244 0
1101 244 0
1102 244 0
1103 244 0
1104 244 0
1105 244 0
1106 244 0
1107 244 0
1108 244 0
1109 244 0
1110 244 0
1111 244 0
1112 244 0
1113 244 0
1114 244 0.99509004789631994
1115 244 0
1116 244 0
1557 244 0
1558 244 0
1559 244 0
1560 244 0
1093 245 0
1094 245 0
1095 245 0
1096 245 0
1097 245 0
1098 245 0
1099 245 0
1100 245 0
1101 245 0
1102 245 0
1103 245 0
1104 245 0
1105 245 0
1106 245 0
1107 245 0
1108 245 0
1109 245 0
1110 245 0
1111 245 0
1112 245 0
1113 245 0
1114 245 0
1115 245 0.99509004789631994
1116 245 0
1557 245 0
1558 245 0
1559 245 0
1560 245 0
1093 246 0
1094 246 0
1095 246 0
1096 246 0
1097 246 0
1098 246 0
1099 246 0
1100 246 0
1101 246 0
1102 246 0
1103 246 0
1104 246 0
1105 246 0
1106 246 0
1107 246 0
1108 246 0
1109 246 0
1110 246 0
1111 246 0
1112 246 0
1113 246 0
1114 246 0
1115 246 0
1116 246 0.99509004789631994
1557 246 0
1558 246 0
1559 246 0
1560 246 0
1553 247 0
1554 247 0
1555 247 0
1556 247 0
1684 247 0
1553 248 0.99878751991636638
1554 248 0
1555 248 0
1556 248 0
1684 248 0
1553 249 0
1554 249 0.99886974093913028
1555 249 0
1556 249 0
1684 249 0
1553 250 0
1554 250 0
1555 250 0.99859691322799182
1556 250 0
1684 250 0
1553 251 0
1554 251 0
1555 251 0
1556 251 0.99879118685427859
1684 251 0
1553 252 0
1554 252 0
1555 252 0
1556 252 0
1684 252 1
1081 253 -0.99509004789631994
1082 253 -0
1083 253 -0
1084 253 -0
1085 253 -0
1086 253 -0
1087 253 -0
1088 253 -0
1089 253 -0
1090 253 -0
1091 253 -0
1092 253 -0
1093 253 0
1094 253 0
1095 253 0
1096 253 0
1097 253 0
1098 253 0
1099 253 0
1100 253 0
1101 253 0
1102 253 0
1103 253 0
1104 253 0
1553 253 -0.1803189598547551
1554 253 -0.25584631152049064
1555 253 -0.074765084896359371
1556 253 -0.06244980534901011
1081 254 -0
1082 254 -0.99509004789631994
1083 254 -0
1084 254 -0
1085 254 -0
1086 254 -0
1087 254 -0
1088 254 -0
1089 254 -0
1090 254 -0
1091 254 -0
1092 254 -0
1093 254 0
1094 254 0
1095 254 0
1096 254 0
1097 254 0
1098 254 0
1099 254 0
1100 254 0
1101 254 0
1102 254 0
1103 254 0
1104 254 0
1553 254 0.10820261428783474
1554 254 0.080196783561304039
1555 254 -0.016866001348705428
1556 254 -0.17094248486675911
1081 255 -0
1082 255 -0
1083 255 -0.99509004789631994
1084 255 -0
1085 255 -0
1086 255 -0
1087 255 -0
1088 255 -0
1089 255 -0
1090 255 -0
1091 255 -0
1092 255 -0
1093 255 0
1094 255 0
1095 255 0
1096 255 0
1097 255 0
1098 255 0
1099 255 0
1100 255 0
1101 255 0
1102 255 0
1103 255 0
1104 255 0
1553 255 0.021296203412182201
1554 255 0.06379387941368389
1555 255 0.33227429440027084
1556 255 0.038055274961526345
1081 256 -0
1082 256 -0
1083 256 -0
1084 256 -0.99509004789631994
1085 256 -0
1086 256 -0
1087 256 -0
1088 256 -0
1089 256 -0
1090 256 -0
1091 256 -0
1092 256 -0
1093 256 0
1094 256 0
1095 256 0
1096 256 0
1097 256 0
1098 256 0
1099 256 0
1100 256 0
1101 256 0
1102 256 0
1103 256 0
1104 256 0
1553 256 0.19846746771042395
1554 256 0.13291349456905685
1555 256 -0.11659569025066187
1556 256 0.1709989853023412
1081 257 -0
1082 257 -0
1083 257 -0
1084 257 -0
1085 257 -0.99509004789631994
1086 257 -0
1087 257 -0
1088 257 -0
1089 257 -0
1090 257 -0
1091 257 -0
1092 257 -0
1093 257 0
1094 257 0
1095 257 0
1096 257 0
1097 257 0
1098 257 0
1099 257 0
1100 257 0
1101 257 0
1102 257 0
1103 257 0
1104 257 0
1553 257 0.06406726430169403
1554 257 0.0077975121873435499
1555 257 -0.012888481757033089
1556 257 0.1821584263174176
1081 258 -0
1082 258 -0
1083 258 -0
1084 258 -0
1085 258 -0
1086 258 -0.99509004789631994
1087 258 -0
1088 258 -0
1089 258 -0
1090 258 -0
1091 258 -0
1092 258 -0
1093 258 0
1094 258 0
1095 258 0
1096 258 0
1097 258 0
1098 258 0
1099 258 0
1100 258 0
1101 258 0
1102 258 0
1103 258 0
1104 258 0
1553 258 0.14930176975937659
1554 258 -0.1220518999462523
1555 258 -0.21437482240798272
1556 258 -0.27728111366749703
1081 259 -0
1082 259 -0
1083 259 -0
1084 259 -0
1085 259 -0
1086 259 -0
1087 259 -0.99509004789631994
1088 259 -0
1089 259 -0
1090 259 -0
1091 259 -0
1092 259 -0
1093 259 0
1094 259 0
1095 259 0
1096 259 0
1097 259 0
1098 259 0
1099 259 0
1100 259 0
1101 259 0
1102 259 0
1103 259 0
1104 259 0
1553 259 -0.27832449100114248
1554 259 -0.023030066571549251
1555 259 0.085999904285044407
1556 259 0.14042558666593874
1081 260 -0
1082 260 -0
1083 260 -0
1084 260 -0
1085 260 -0
1086 260 -0
1087 260 -0
1088 260 -0.99509004789631994
1089 260 -0
1090 260 -0
1091 260 -0
1092 260 -0
1093 260 0
1094 260 0
1095 260 0
1096 260 0
1097 260 0
1098 260 0
1099 260 0
1100 260 0
1101 260 0
1102 260 0
1103 260 0
1104 260 0
1553 260 0.14426661227624929
1554 260 0.019112219351713613
1555 260 -0.3383340256558125
1556 260 -0.26332006554483989
1081 261 -0
1082 261 -0
1083 261 -0
1084 261 -0
1085 261 -0
1086 261 -0
1087 261 -0
1088 261 -0
1089 261 -0.99509004789631994
1090 261 -0
1091 261 -0
1092 261 -0
1093 261 0
1094 261 0
1095 261 0
1096 261 0
1097 261 0
1098 261 0
1099 261 0
1100 261 0
1101 261 0
1102 261 0
1103 261 0
1104 261 0
1553 261 -0.11462509557936003
1554 261 -0.065598224589830417
1555 261 0.12045547271290091
1556 261 0.066735657880519217
1081 262 -0
1082 262 -0
1083 262 -0
1084 262 -0
1085 262 -0
1086 262 -0
1087 262 -0
1088 262 -0
1089 262 -0
1090 262 -0.99509004789631994
1091 262 -0
1092 262 -0
1093 262 0
1094 262 0
1095 262 0
1096 262 0
1097 262 0
1098 262 0
1099 262 0
1100 262 0
1101 262 0
1102 262 0
1103 262 0
1104 262 0
1553 262 0.1112726701807888
1554 262 -0.18163442438886057
1555 262 -0.24934842404473068
1556 262 0.087619788974651794
1081 263 -0
1082 263 -0
1083 263 -0
1084 263 -0
1085 263 -0
1086 263 -0
1087 263 -0
1088 263 -0
1089 263 -0
1090 263 -0
1091 263 -0.99509004789631994
1092 263 -0
1093 263 0
1094 263 0
1095 263 0
1096 263 0
1097 263 0
1098 263 0
1099 263 0
1100 263 0
1101 263 0
1102 263 0
1103 263 0
1104 263 0
1553 263 0.0048220099123521959
1554 263 -0.09230703811323461
1555 263 -0.22028815111069383
1556 263 -0.062540089363958593
1081 264 -0
1082 264 -0
1083 264 -0
1084 264 -0
1085 264 -0
1086 264 -0
1087 264 -0
1088 264 -0
1089 264 -0
1090 264 -0
1091 264 -0
1092 264 -0.99509004789631994
1093 264 0
1094 264 0
1095 264 0
1096 264 0
1097 264 0
1098 264 0
1099 264 0
1100 264 0
1101 264 0
1102 264 0
1103 264 0
1104 264 0
1553 264 0.22589481330245723
1554 264 0.085512196920050021
1555 264 -0.209328877595194
1556 264 0.014853171089538656
1081 265 0
1082 265 0
1083 265 0
1084 265 0
1085 265 0
1086 265 0
1087 265 0
1088 265 0
1089 265 0
1090 265 0
1091 265 0
1092 265 0
1093 265 0.99509004789631994
1094 265 0
1095 265 0
1096 265 0
1097 265 0
1098 265 0
1099 265 0
1100 265 0
1101 265 0
1102 265 0
1103 265 0
1104 265 0
1553 265 0
1554 265 0
1555 265 0
1556 265 0
1081 266 0
1082 266 0
1083 266 0
1084 266 0
1085 266 0
1086 266 0
1087 266 0
1088 266 0
1089 266 0
1090 266 0
1091 266 0
1092 266 0
1093 266 0
1094 266 0.99509004789631994
1095 266 0
1096 266 0
1097 266 0
1098 266 0
1099 266 0
1100 266 0
1101 266 0
1102 266 0
1103 266 0
1104 266 0
1553 266 0
1554 266 0
1555 266 0
1556 266 0
1081 267 0
1082 267 0
1083 267 0
1084 267 0
1085 267 0
1086 267 0
1087 267 0
1088 267 0
1089 267 0
1090 267 0
1091 267 0
1092 267 0
1093 267 0
1094 267 0
1095 267 0.99509004789631994
1096 267 0
1097 267 0
1098 267 0
1099 267 0
1100 267 0
1101 267 0
1102 267 0
1103 267 0
1104 267 0
1553 267 0
1554 267 0
1555 267 0
1556 267 0
1081 268 0
1082 268 0
1083 268 0
1084 268 0
1085 268 0
1086 268 0
1087 268 0
1088 268 0
1089 268 0
1090 268 0
1091 268 0
1092 268 0
1093 268 0
1094 268 0
1095 268 0
1096 268 0.99509004789631994
1097 268 0
1098 268 0
1099 268 0
1100 268 0
1101 268 0
1102 268 0
1103 268 0
1104 268 0
1553 268 0
1554 268 0
1555 268 0
1556 268 0
1081 269 0
1082 269 0
1083 269 0
1084 269 0
1085 269 0
1086 269 0
1087 269 0
1088 269 0
1089 269 0
1090 269 0
1091 269 0
1092 269 0
1093 269 0
1094 269 0
1095 269 0
1096 269 0
1097 269 0.99509004789631994
1098 269 0
1099 269 0
1100 269 0
1101 269 0
1102 269 0
1103 269 0
1104 269 0
1553 269 0
1554 269 0
1555 269 0
1556 269 0
1081 270 0
1082 270 0
1083 270 0
1084 270 0
1085 270 0
1086 270 0
1087 270 0
1088 270 0
1089 270 0
1090 270 0
1091 270 0
1092 270 0
1093 270 0
1094 270 0
1095 270 0
1096 270 0
1097 270 0
1098 270 0.99509004789631994
1099 270 0
1100 270 0
1101 270 0
1102 270 0
1103 270 0
1104 270 0
1553 270 0
1554 270 0
1555 270 0
1556 270 0
1081 271 0
1082 271 0
1083 271 0
1084 271 0
1085 271 0
1086 271 0
1087 271 0
1088 271 0
1089 271 0
1090 271 0
1091 271 0
1092 271 0
1093 271 0
1094 271 0
1095 271 0
1096 271 0
1097 271 0
1098 271 0
1099 271 0.99509004789631994
1100 271 0
1101 271 0
1102 271 0
1103 271 0
1104 271 0
1553 271 0
1554 271 0
1555 271 0
1556 271 0
1081 272 0
1082 272 0
1083 272 0
1084 272 0
1085 272 0
1086 272 0
1087 272 0
1088 272 0
1089 272 0
1090 272 0
1091 272 0
1092 272 0
1093 272 0
1094 272 0
1095 272 0
1096 272 0
1097 272 0
1098 272 0
1099 272 0
1100 272 0.99509004789631994
1101 272 0
1102 272 0
1103 272 0
1104 272 0
1553 272 0
1554 272 0
1555 272 0
1556 272 0
1081 273 0
1082 273 0
1083 273 0
1084 273 0
1085 273 0
1086 273 0
1087 273 0
1088 273 0
1089 273 0
1090 273 0
1091 273 0
1092 273 0
1093 273 0
1094 273 0
1095 273 0
1096 273 0
1097 273 0
1098 273 0
1099 273 0
1100 273 0
1101 273 0.99509004789631994
1102 273 0
1103 273 0
1104 273 0
1553 273 0
1554 273 0
1555 273 0
1556 273 0
1081 274 0
1082 274 0
1083 274 0
1084 274 0
1085 274 0
1086 274 0
1087 274 0
1088 274 0
1089 274 0
1090 274 0
1091 274 0
1092 274 0
1093 274 0
1094 274 0
1095 274 0
1096 274 0
1097 274 0
1098 274 0
1099 274 0
1100 274 0
1101 274 0
1102 274 0.99509004789631994
1103 274 0
1104 274 0
1553 274 0
1554 274 0
1555 274 0
1556 274 0
1081 275 0
1082 275 0
1083 275 0
1084 275 0
1085 275 0
1086 275 0
1087 275 0
1088 275 0
1089 275 0
1090 275 0
1091 275 0
1092 275 0
1093 275 0
1094 275 0
1095 275 0
1096 275 0
1097 275 0
1098 275 0
1099 275 0
1100 275 0
1101 275 0
1102 275 0
1103 275 0.99509004789631994
1104 275 0
1553 275 0
1554 275 0
1555 275 0
1556 275 0
1081 276 0
1082 276 0
1083 276 0
1084 276 0
1085 276 0
1086 276 0
1087 276 0
1088 276 0
1089 276 0
1090 276 0
1091 276 0
1092 276 0
1093 276 0
1094 276 0
1095 276 0
1096 276 0
1097 276 0
1098 276 0
1099 276 0
1100 276 0
1101 276 0
1102 276 0
1103 276 0
1104 276 0.99509004789631994
1553 276 0
1554 276 0
1555 276 0
1556 276 0
1549 277 0
1550 277 0
1551 277 0
1552 277 0
1683 277 0
1549 278 0.99878751991636638
1550 278 0
1551 278 0
1552 278 0
1683 278 0
1549 279 0
1550 279 0.99886974093913028
1551 279 0
1552 279 0
1683 279 0
1549 280 0
1550 280 0
1551 280 0.99859691322799182
1552 280 0
1683 280 0
1549 281 0
1550 281 0
1551 281 0
1552 281 0.99879118685427859
1683 281 0
1549 282 0
1550 282 0
1551 282 0
1552 282 0
1683 282 1
1069 283 -0.99509004789631994
1070 283 -0
1071 283 -0
1072 283 -0
1073 283 -0
1074 283 -0
1075 283 -0
1076 283 -0
1077 283 -0
1078 283 -0
1079 283 -0
1080 283 -0
1081 283 0
1082 283 0
1083 283 0
1084 283 0
1085 283 0
1086 283 0
1087 283 0
1088 283 0
1089 283 0
1090 283 0
1091 283 0
1092 283 0
1549 283 -0.1803189598547551
1550 283 -0.25584631152049064
1551 283 -0.074765084896359371
1552 283 -0.06244980534901011
1069 284 -0
1070 284 -0.99509004789631994
1071 284 -0
1072 284 -0
1073 284 -0
1074 284 -0
1075 284 -0
1076 284 -0
1077 284 -0
1078 284 -0
1079 284 -0
1080 284 -0
1081 284 0
1082 284 0
1083 284 0
1084 284 0
1085 284 0
1086 284 0
1087 284 0
1088 284 0
1089 284 0
1090 284 0
1091 284 0
1092 284 0
1549 284 0.10820261428783474
1550 284 0.080196783561304039
1551 284 -0.016866001348705428
1552 284 -0.17094248486675911
1069 285 -0
1070 285 -0
1071 285 -0.99509004789631994
1072 285 -0
1073 285 -0
1074 285 -0
1075 285 -0
1076 285 -0
1077 285 -0
1078 285 -0
1079 285 -0
1080 285 -0
1081 285 0
1082 285 0
1083 285 0
1084 285 0
1085 285 0
1086 285 0
1087 285 0
1088 285 0
1089 285 0
1090 285 0
1091 285 0
1092 285 0
1549 285 0.021296203412182201
1550 285 0.06379387941368389
1551 285 0.33227429440027084
1552 285 0.038055274961526345
1069 286 -0
1070 286 -0
1071 286 -0
1072 286 -0.99509004789631994
1073 286 -0
1074 286 -0
1075 286 -0
1076 286 -0
1077 286 -0
1078 286 -0
1079 286 -0
1080 286 -0
1081 286 0
1082 286 0
1083 286 0
1084 286 0
1085 286 0
1086 286 0
1087 286 0
1088 286 0
1089 286 0
1090 286 0
1091 286 0
1092 286 0
1549 286 0.19846746771042395
1550 286 0.13291349456905685
1551 286 -0.11659569025066187
1552 286 0.1709989853023412
1069 287 -0
1070 287 -0
1071 287 -0
1072 287 -0
1073 287 -0.99509004789631994
1074 287 -0
1075 287 -0
1076 287 -0
1077 287 -0
1078 287 -0
1079 287 -0
1080 287 -0
1081 287 0
1082 287 0
1083 287 0
1084 287 0
1085 287 0
1086 287 0
1087 287 0
1088 287 0
1089 287 0
1090 287 0
1091 287 0
1092 287 0
1549 287 0.06406726430169403
1550 287 0.0077975121873435499
1551 287 -0.012888481757033089
1552 287 0.1821584263174176
1069 288 -0
1070 288 -0
1071 288 -0
1072 288 -0
1073 288 -0
1074 288 -0.99509004789631994
1075 288 -0
1076 288 -0
1077 288 -0
1078 288 -0
1079 288 -0
1080 288 -0
1081 288 0
1082 288 0
1083 288 0
1084 288 0
1085 288 0
1086 288 0
1087 288 0
1088 288 0
1089 288 0
1090 288 0
1091 288 0
1092 288 0
1549 288 0.14930176975937659
1550 288 -0.1220518999462523
1551 288 -0.21437482240798272
1552 288 -0.27728111366749703
1069 289 -0
1070 289 -0
1071 289 -0
1072 289 -0
1073 289 -0
1074 289 -0
1075 289 -0.99509004789631994
1076 289 -0
1077 289 -0
1078 289 -0
1079 289 -0
1080 289 -0
1081 289 0
1082 289 0
1083 289 0
1084 289 0
1085 289 0
1086 289 0
1087 289 0
1088 289 0
1089 289 0
1090 289 0
1091 289 0
1092 289 0
1549 289 -0.27832449100114248
1550 289 -0.023030066571549251
1551 289 0.085999904285044407
1552 289 0.14042558666593874
1069 290 -0
1070 290 -0
1071 290 -0
1072 290 -0
1073 290 -0
1074 290 -0
1075 290 -0
1076 290 -0.99509004789631994
1077 290 -0
1078 290 -0
1079 290 -0
1080 290 -0
1081 290 0
1082 290 0
1083 290 0
1084 290 0
1085 290 0
1086 290 0
1087 290 0
1088 290 0
1089 290 0
1090 290 0
1091 290 0
1092 290 0
1549 290 0.14426661227624929
1550 290 0.019112219351713613
1551 290 -0.3383340256558125
1552 290 -0.26332006554483989
1069 291 -0
1070 291 -0
1071 291 -0
1072 291 -0
1073 291 -0
1074 291 -0
1075 291 -0
1076 291 -0
1077 291 -0.99509004789631994
1078 291 -0
1079 291 -0
1080 291 -0
1081 291 0
1082 291 0
1083 291 0
1084 291 0
1085 291 0
1086 291 0
1087 291 0
1088 291 0
1089 291 0
1090 291 0
1091 291 0
1092 291 0
1549 291 -0.11462509557936003
1550 291 -0.065598224589830417
1551 291 0.12045547271290091
1552 291 0.066735657880519217
1069 292 -0
1070 292 -0
1071 292 -0
1072 292 -0
1073 292 -0
1074 292 -0
1075 292 -0
1076 292 -0
1077 292 -0
1078 292 -0.99509004789631994
1079 292 -0
1080 292 -0
1081 292 0
1082 292 0
1083 292 0
1084 292 0
1085 292 0
1086 292 0
1087 292 0
1088 292 0
1089 292 0
1090 292 0
1091 292 0
1092 292 0
1549 292 0.1112726701807888
1550 292 -0.18163442438886057
1551 292 -0.24934842404473068
1552 292 0.087619788974651794
1069 293 -0
1070 293 -0
1071 293 -0
1072 293 -0
1073 293 -0
1074 293 -0
1075 293 -0
1076 293 -0
1077 293 -0
1078 293 -0
1079 293 -0.99509004789631994
1080 293 -0
1081 293 0
1082 293 0
1083 293 0
1084 293 0
1085 293 0
1086 293 0
1087 293 0
1088 293 0
1089 293 0
1090 293 0
1091 293 0
1092 293 0
1549 293 0.0048220099123521959
1550 293 -0.09230703811323461
1551 293 -0.22028815111069383
1552 293 -0.062540089363958593
1069 294 -0
1070 294 -0
1071 294 -0
1072 294 -0
1073 294 -0
1074 294 -0
1075 294 -0
1076 294 -0
1077 294 -0
1078 294 -0
1079 294 -0
1080 294 -0.99509004789631994
1081 294 0
1082 294 0
1083 294 0
1084 294 0
1085 294 0
1086 294 0
1087 294 0
1088 294 0
1089 294 0
1090 294 0
1091 294 0
1092 294 0
1549 294 0.22589481330245723
1550 294 0.085512196920050021
1551 294 -0.209328877595194
1552 294 0.014853171089538656
1069 295 0
1070 295 0
1071 295 0
1072 295 0
1073 295 0
1074 295 0
1075 295 0
1076 295 0
1077 295 0
1078 295 0
1079 295 0
1080 295 0
1081 295 0.99509004789631994
1082 295 0
1083 295 0
1084 295 0
1085 295 0
1086 295 0
1087 295 0
1088 295 0
1089 295 0
1090 295 0
1091 295 0
1092 295 0
1549 295 0
1550 295 0
1551 295 0
1552 295 0
1069 296 0
1070 296 0
1071 296 0
1072 296 0
1073 296 0
1074 296 0
1075 296 0
1076 296 0
1077 296 0
1078 296 0
1079 296 0
1080 296 0
1081 296 0
1082 296 0.99509004789631994
1083 296 0
1084 296 0
1085 296 0
1086 296 0
1087 296 0
1088 296 0
1089 296 0
1090 296 0
1091 296 0
1092 296 0
1549 296 0
1550 296 0
1551 296 0
1552 296 0
1069 297 0
1070 297 0
1071 297 0
1072 297 0
1073 297 0
1074 297 0
1075 297 0
1076 297 0
1077 297 0
1078 297 0
1079 297 0
1080 297 0
1081 297 0
1082 297 0
1083 297 0.99509004789631994
1084 297 0
1085 297 0
1086 297 0
1087 297 0
1088 297 0
1089 297 0
1090 297 0
1091 297 0
1092 297 0
1549 297 0
1550 297 0
1551 297 0
1552 297 0
1069 298 0
1070 298 0
1071 298 0
1072 298 0
1073 298 0
1074 298 0
1075 298 0
1076 298 0
1077 298 0
1078 298 0
1079 298 0
1080 298 0
1081 298 0
1082 298 0
1083 298 0
1084 298 0.99509004789631994
1085 298 0
1086 298 0
1087 298 0
1088 298 0
1089 298 0
1090 298 0
1091 298 0
1092 298 0
1549 298 0
1550 298 0
1551 298 0
1552 298 0
1069 299 0
1070 299 0
1071 299 0
1072 299 0
1073 299 0
1074 299 0
1075 299 0
1076 299 0
1077 299 0
1078 299 0
1079 299 0
1080 299 0
1081 299 0
1082 299 0
1083 299 0
1084 299 0
1085 299 0.99509004789631994
1086 299 0
1087 299 0
1088 299 0
1089 299 0
1090 299 0
1091 299 0
1092 299 0
1549 299 0
1550 299 0
1551 299 0
1552 299 0
1069 300 0
1070 300 0
1071 300 0
1072 300 0
1073 300 0
1074 300 0
1075 300 0
1076 300 0
1077 300 0
1078 300 0
1079 300 0
1080 300 0
1081 300 0
1082 300 0
1083 300 0
1084 300 0
1085 300 0
1086 300 0.99509004789631994
1087 300 0
1088 300 0
1089 300 0
1090 300 0
1091 300 0
1092 300 0
1549 300 0
1550 300 0
1551 300 0
1552 300 0
1069 301 0
1070 301 0
1071 301 0
1072 301 0
1073 301 0
1074 301 0
1075 301 0
1076 301 0
1077 301 0
1078 301 0
1079 301 0
1080 301 0
1081 301 0
1082 301 0
1083 301 0
1084 301 0
1085 301 0
1086 301 0
1087 301 0.99509004789631994
1088 301 0
1089 301 0
1090 301 0
1091 301 0
1092 301 0
1549 301 0
1550 301 0
1551 301 0
1552 301 0
1069 302 0
1070 302 0
1071 302 0
1072 302 0
1073 302 0
1074 302 0
1075 302 0
1076 302 0
1077 302 0
1078 302 0
1079 302 0
1080 302 0
1081 302 0
1082 302 0
1083 302 0
1084 302 0
1085 302 0
1086 302 0
1087 302 0
1088 302 0.99509004789631994
1089 302 0
1090 302 0
1091 302 0
1092 302 0
1549 302 0
1550 302 0
1551 302 0
1552 302 0
1069 303 0
1070 303 0
1071 303 0
1072 303 0
1073 303 0
1074 303 0
1075 303 0
1076 303 0
1077 303 0
1078 303 0
1079 303 0
1080 303 0
1081 303 0
1082 303 0
1083 303 0
1084 303 0
1085 303 0
1086 303 0
1087 303 0
1088 303 0
1089 303 0.99509004789631994
1090 303 0
1091 303 0
1092 303 0
1549 303 0
1550 303 0
1551 303 0
1552 303 0
1069 304 0
1070 304 0
1071 304 0
1072 304 0
1073 304 0
1074 304 0
1075 304 0
1076 304 0
1077 304 0
1078 304 0
1079 304 0
1080 304 0
1081 304 0
1082 304 0
1083 304 0
1084 304 0
1085 304 0
1086 304 0
1087 304 0
1088 304 0
1089 304 0
1090 304 0.99509004789631994
1091 304 0
1092 304 0
1549 304 0
1550 304 0
1551 304 0
1552 304 0
1069 305 0
1070 305 0
1071 305 0
1072 305 0
1073 305 0
1074 305 0
1075 305 0
1076 305 0
1077 305 0
1078 305 0
1079 305 0
1080 305 0
1081 305 0
1082 305 0
1083 305 0
1084 305 0
1085 305 0
1086 305 0
1087 305 0
1088 305 0
1089 305 0
1090 305 0
1091 305 0.99509004789631994
1092 305 0
1549 305 0
1550 305 0
1551 305 0
1552 305 0
1069 306 0
1070 306 0
1071 306 0
1072 306 0
1073 306 0
1074 306 0
1075 306 0
1076 306 0
1077 306 0
1078 306 0
1079 306 0
1080 306 0
1081 306 0
1082 306 0
1083 306 0
1084 306 0
1085 306 0
1086 306 0
1087 306 0
1088 306 0
1089 306 0
1090 306 0
1091 306 0
1092 306 0.99509004789631994
1549 306 0
1550 306 0
1551 306 0
1552 306 0
1545 307 0
1546 307 0
1547 307 0
1548 307 0
1682 307 0
1545 308 0.99878751991636638
1546 308 0
1547 308 0
1548 308 0
1682 308 0
1545 309 0
1546 309 0.99886974093913028
1547 309 0
1548 309 0
1682 309 0
1545 310 0
1546 310 0
1547 310 0.99859691322799182
1548 310 0
1682 310 0
1545 311 0
1546 311 0
1547 311 0
1548 311 0.99879118685427859
1682 311 0
1545 312 0
1546 312 0
1547 312 0
1548 312 0
1682 312 1
1057 313 -0.99509004789631994
1058 313 -0
1059 313 -0
1060 313 -0
1061 313 -0
1062 313 -0
1063 313 -0
1064 313 -0
1065 313 -0
1066 313 -0
1067 313 -0
1068 313 -0
1069 313 0
1070 313 0
1071 313 0
1072 313 0
1073 313 0
1074 313 0
1075 313 0
1076 313 0
1077 313 0
1078 313 0
1079 313 0
1080 313 0
1545 313 -0.1803189598547551
1546 313 -0.25584631152049064
1547 313 -0.074765084896359371
1548 313 -0.06244980534901011
1057 314 -0
1058 314 -0.99509004789631994
1059 314 -0
1060 314 -0
1061 314 -0
1062 314 -0
1063 314 -0
1064 314 -0
1065 314 -0
1066 314 -0
1067 314 -0
1068 314 -0
1069 314 0
1070 314 0
1071 314 0
1072 314 0
1073 314 0
1074 314 0
1075 314 0
1076 314 0
1077 314 0
1078 314 0
1079 314 0
1080 314 0
1545 314 0.10820261428783474
1546 314 0.080196783561304039
1547 314 -0.016866001348705428
1548 314 -0.17094248486675911
1057 315 -0
1058 315 -0
1059 315 -0.99509004789631994
1060 315 -0
1061 315 -0
1062 315 -0
1063 315 -0
1064 315 -0
1065 315 -0
1066 315 -0
1067 315 -0
1068 315 -0
1069 315 0
1070 315 0
1071 315 0
1072 315 0
1073 315 0
1074 315 0
1075 315 0
1076 315 0
1077 315 0
1078 315 0
1079 315 0
1080 315 0
1545 315 0.021296203412182201
1546 315 0.06379387941368389
1547 315 0.33227429440027084
1548 315 0.038055274961526345
1057 316 -0
1058 316 -0
1059 316 -0
1060 316 -0.99509004789631994
1061 316 -0
1062 316 -0
1063 316 -0
1064 316 -0
1065 316 -0
1066 316 -0
1067 316 -0
1068 316 -0
1069 316 0
1070 316 0
1071 316 0
1072 316 0
1073 316 0
1074 316 0
1075 316 0
1076 316 0
1077 316 0
1078 316 0
1079 316 0
1080 316 0
1545 316 0.19846746771042395
1546 316 0.13291349456905685
1547 316 -0.11659569025066187
1548 316 0.1709989853023412
1057 317 -0
1058 317 -0
1059 317 -0
1060 317 -0
1061 317 -0.99509004789631994
1062 317 -0
1063 317 -0
1064 317 -0
1065 317 -0
1066 317 -0
1067 317 -0
1068 317 -0
1069 317 0
1070 317 0
1071 317 0
1072 317 0
1073 317 0
1074 317 0
1075 317 0
1076 317 0
1077 317 0
1078 317 0
1079 317 0
1080 317 0
1545 317 0.06406726430169403
1546 317 0.0077975121873435499
1547 317 -0.012888481757033089
1548 317 0.1821584263174176
1057 318 -0
1058 318 -0
1059 318 -0
1060 318 -0
1061 318 -0
1062 318 -0.99509004789631994
1063 318 -0
1064 318 -0
1065 318 -0
1066 318 -0
1067 318 -0
1068 318 -0
1069 318 0
1070 318 0
1071 318 0
1072 318 0
1073 318 0
1074 318 0
1075 318 0
1076 318 0
1077 318 0
1078 318 0
1079 318 0
1080 318 0
1545 318 0.14930176975937659
1546 318 -0.1220518999462523
1547 318 -0.21437482240798272
1548 318 -0.27728111366749703
1057 319 -0
1058 319 -0
1059 319 -0
1060 319 -0
1061 319 -0
1062 319 -0
1063 319 -0.99509004789631994
1064 319 -0
1065 319 -0
1066 319 -0
1067 319 -0
1068 319 -0
1069 319 0
1070 319 0
1071 319 0
1072 319 0
1073 319 0
1074 319 0
1075 319 0
1076 319 0
1077 319 0
1078 319 0
1079 319 0
1080 319 0
1545 319 -0.27832449100114248
1546 319 -0.023030066571549251
1547 319 0.085999904285044407
1548 319 0.14042558666593874
1057 320 -0
1058 320 -0
1059 320 -0
1060 320 -0
1061 320 -0
1062 320 -0
1063 320 -0
1064 320 -0.99509004789631994
1065 320 -0
1066 320 -0
1067 320 -0
1068 320 -0
1069 320 0
1070 320 0
1071 320 0
1072 320 0
1073 320 0
1074 320 0
1075 320 0
1076 320 0
1077 320 0
1078 320 0
1079 320 0
1080 320 0
1545 320 0.14426661227624929
1546 320 0.019112219351713613
1547 320 -0.3383340256558125
1548 320 -0.26332006554483989
1057 321 -0
1058 321 -0
1059 321 -0
1060 321 -0
1061 321 -0
1062 321 -0
1063 321 -0
1064 321 -0
1065 321 -0.99509004789631994
1066 321 -0
1067 321 -0
1068 321 -0
1069 321 0
1070 321 0
1071 321 0
1072 321 0
1073 321 0
1074 321 0
1075 321 0
1076 321 0
1077 321 0
1078 321 0
1079 321 0
1080 321 0
1545 321 -0.11462509557936003
1546 321 -0.065598224589830417
1547 321 0.12045547271290091
1548 321 0.066735657880519217
1057 322 -0
1058 322 -0
1059 322 -0
1060 322 -0
1061 322 -0
1062 322 -0
1063 322 -0
1064 322 -0
1065 322 -0
1066 322 -0.99509004789631994
1067 322 -0
1068 322 -0
1069 322 0
1070 322 0
1071 322 0
1072 322 0
1073 322 0
1074 322 0
1075 322 0
1076 322 0
1077 322 0
1078 322 0
1079 322 0
1080 322 0
1545 322 0.1112726701807888
1546 322 -0.18163442438886057
1547 322 -0.24934842404473068
1548 322 0.087619788974651794
1057 323 -0
1058 323 -0
1059 323 -0
1060 323 -0
1061 323 -0
1062 323 -0
1063 323 -0
1064 323 -0
1065 323 -0
1066 323 -0
1067 323 -0.99509004789631994
1068 323 -0
1069 323 0
1070 323 0
1071 323 0
1072 323 0
1073 323 0
1074 323 0
1075 323 0
1076 323 0
1077 323 0
1078 323 0
1079 323 0
1080 323 0
1545 323 0.0048220099123521959
1546 323 -0.09230703811323461
1547 323 -0.22028815111069383
1548 323 -0.062540089363958593
1057 324 -0
1058 324 -0
1059 324 -0
1060 324 -0
1061 324 -0
1062 324 -0
1063 324 -0
1064 324 -0
1065 324 -0
1066 324 -0
1067 324 -0
1068 324 -0.99509004789631994
1069 324 0
1070 324 0
1071 324 0
1072 324 0
1073 324 0
1074 324 0
1075 324 0
1076 324 0
1077 324 0
1078 324 0
1079 324 0
1080 324 0
1545 324 0.22589481330245723
1546 324 0.085512196920050021
1547 324 -0.209328877595194
1548 324 0.014853171089538656
1057 325 0
1058 325 0
1059 325 0
1060 325 0
1061 325 0
1062 325 0
1063 325 0
1064 325 0
1065 325 0
1066 325 0
1067 325 0
1068 325 0
1069 325 0.99509004789631994
1070 325 0
1071 325 0
1072 325 0
1073 325 0
1074 325 0
1075 325 0
1076 325 0
1077 325 0
1078 325 0
1079 325 0
1080 325 0
1545 325 0
1546 325 0
1547 325 0
1548 325 0
1057 326 0
1058 326 0
1059 326 0
1060 326 0
1061 326 0
1062 326 0
1063 326 0
1064 326 0
1065 326 0
1066 326 0
1067 326 0
1068 326 0
1069 326 0
1070 326 0.99509004789631994
1071 326 0
1072 326 0
1073 326 0
1074 326 0
1075 326 0
1076 326 0
1077 326 0
1078 326 0
1079 326 0
1080 326 0
1545 326 0
1546 326 0
1547 326 0
1548 326 0
1057 327 0
1058 327 0
1059 327 0
1060 327 0
1061 327 0
1062 327 0
1063 327 0
1064 327 0
1065 327 0
1066 327 0
1067 327 0
1068 327 0
1069 327 0
1070 327 0
1071 327 0.99509004789631994
1072 327 0
1073 327 0
1074 327 0
1075 327 0
1076 327 0
1077 327 0
1078 327 0
1079 327 0
1080 327 0
1545 327 0
1546 327 0
1547 327 0
1548 327 0
1057 328 0
1058 328 0
1059 328 0
1060 328 0
1061 328 0
1062 328 0
1063 328 0
1064 328 0
1065 328 0
1066 328 0
1067 328 0
1068 328 0
1069 328 0
1070 328 0
1071 328 0
1072 328 0.99509004789631994
1073 328 0
1074 328 0
1075 328 0
1076 328 0
1077 328 0
1078 328 0
1079 328 0
1080 328 0
1545 328 0
1546 328 0
1547 328 0
1548 328 0
1057 329 0
1058 329 0
1059 329 0
1060 329 0
1061 329 0
1062 329 0
1063 329 0
1064 329 0
1065 329 0
1066 329 0
1067 329 0
1068 329 0
1069 329 0
1070 329 0
1071 329 0
1072 329 0
1073 329 0.99509004789631994
1074 329 0
1075 329 0
1076 329 0
1077 329 0
1078 329 0
1079 329 0
1080 329 0
1545 329 0
1546 329 0
1547 329 0
1548 329 0
1057 330 0
1058 330 0
1059 330 0
1060 330 0
1061 330 0
1062 330 0
1063 330 0
1064 330 0
1065 330 0
1066 330 0
1067 330 0
1068 330 0
1069 330 0
1070 330 0
1071 330 0
1072 330 0
1073 330 0
1074 330 0.99509004789631994
1075 330 0
1076 330 0
1077 330 0
1078 330 0
1079 330 0
1080 330 0
1545 330 0
1546 330 0
1547 330 0
1548 330 0
1057 331 0
1058 331 0
1059 331 0
1060 331 0
1061 331 0
1062 331 0
1063 331 0
1064 331 0
1065 331 0
1066 331 0
1067 331 0
1068 331 0
1069 331 0
1070 331 0
1071 331 0
1072 331 0
1073 331 0
1074 331 0
1075 331 0.99509004789631994
1076 331 0
1077 331 0
1078 331 0
1079 331 0
1080 331 0
1545 331 0
1546 331 0
1547 331 0
1548 331 0
1057 332 0
1058 332 0
1059 332 0
1060 332 0
1061 332 0
1062 332 0
1063 332 0
1064 332 0
1065 332 0
1066 332 0
1067 332 0
1068 332 0
1069 332 0
1070 332 0
1071 332 0
1072 332 0
1073 332 0
1074 332 0
1075 332 0
1076 332 0.99509004789631994
1077 332 0
1078 332 0
1079 332 0
1080 332 0
1545 332 0
1546 332 0
1547 332 0
1548 332 0
1057 333 0
1058 333 0
1059 333 0
1060 333 0
1061 333 0
1062 333 0
1063 333 0
1064 333 0
1065 333 0
1066 333 0
1067 333 0
1068 333 0
1069 333 0
1070 333 0
1071 333 0
1072 333 0
1073 333 0
1074 333 0
1075 333 0
1076 333 0
1077 333 0.99509004789631994
1078 333 0
1079 333 0
1080 333 0
1545 333 0
1546 333 0
1547 333 0
1548 333 0
1057 334 0
1058 334 0
1059 334 0
1060 334 0
1061 334 0
1062 334 0
1063 334 0
1064 334 0
1065 334 0
1066 334 0
1067 334 0
1068 334 0
1069 334 0
1070 334 0
1071 334 0
1072 334 0
1073 334 0
1074 334 0
1075 334 0
1076 334 0
1077 334 0
1078 334 0.99509004789631994
1079 334 0
1080 334 0
1545 334 0
1546 334 0
1547 334 0
1548 334 0
1057 335 0
1058 335 0
1059 335 0
1060 335 0
1061 335 0
1062 335 0
1063 335 0
1064 335 0
1065 335 0
1066 335 0
1067 335 0
1068 335 0
1069 335 0
1070 335 0
1071 335 0
1072 335 0
1073 335 0
1074 335 0
1075 335 0
1076 335 0
1077 335 0
1078 335 0
1079 335 0.99509004789631994
1080 335 0
1545 335 0
1546 335 0
1547 335 0
1548 335 0
1057 336 0
1058 336 0
1059 336 0
1060 336 0
1061 336 0
1062 336 0
1063 336 0
1064 336 0
1065 336 0
1066 336 0
1067 336 0
1068 336 0
1069 336 0
1070 336 0
1071 336 0
1072 336 0
1073 336 0
1074 336 0
1075 336 0
1076 336 0
1077 336 0
1078 336 0
1079 336 0
1080 336 0.99509004789631994
1545 336 0
1546 336 0
1547 336 0
1548 336 0
1541 337 0
1542 337 0
1543 337 0
1544 337 0
1681 337 0
1541 338 0.99878751991636638
1542 338 0
1543 338 0
1544 338 0
1681 338 0
1541 339 0
1542 339 0.99886974093913028
1543 339 0
1544 339 0
1681 339 0
1541 340 0
1542 340 0
1543 340 0.99859691322799182
1544 340 0
1681 340 0
1541 341 0
1542 341 0
1543 341 0
1544 341 0.99879118685427859
1681 341 0
1541 342 0
1542 342 0
1543 342 0
1544 342 0
1681 342 1
1045 343 -0.99509004789631994
1046 343 -0
1047 343 -0
1048 343 -0
1049 343 -0
1050 343 -0
1051 343 -0
1052 343 -0
1053 343 -0
1054 343 -0
1055 343 -0
1056 343 -0
1057 343 0
1058 343 0
1059 343 0
1060 343 0
1061 343 0
1062 343 0
1063 343 0
1064 343 0
1065 343 0
1066 343 0
1067 343 0
1068 343 0
1541 343 -0.1803189598547551
1542 343 -0.25584631152049064
1543 343 -0.074765084896359371
1544 343 -0.06244980534901011
1045 344 -0
1046 344 -0.99509004789631994
1047 344 -0
1048 344 -0
1049 344 -0
1050 344 -0
1051 344 -0
1052 344 -0
1053 344 -0
1054 344 -0
1055 344 -0
1056 344 -0
1057 344 0
1058 344 0
1059 344 0
1060 344 0
1061 344 0
1062 344 0
1063 344 0
1064 344 0
1065 344 0
1066 344 0
1067 344 0
1068 344 0
1541 344 0.10820261428783474
1542 344 0.080196783561304039
1543 344 -0.016866001348705428
1544 344 -0.17094248486675911
1045 345 -0
1046 345 -0
1047 345 -0.99509004789631994
1048 345 -0
1049 345 -0
1050 345 -0
1051 345 -0
1052 345 -0
1053 345 -0
1054 345 -0
1055 345 -0
1056 345 -0
1057 345 0
1058 345 0
1059 345 0
1060 345 0
1061 345 0
1062 345 0
1063 345 0
1064 345 0
1065 345 0
1066 345 0
1067 345 0
1068 345 0
1541 345 0.021296203412182201
1542 345 0.06379387941368389
1543 345 0.33227429440027084
1544 345 0.038055274961526345
1045 346 -0
1046 346 -0
1047 346 -0
1048 346 -0.99509004789631994
1049 346 -0
1050 346 -0
1051 346 -0
1052 346 -0
1053 346 -0
1054 346 -0
1055 346 -0
1056 346 -0
1057 346 0
1058 346 0
1059 346 0
1060 346 0
1061 346 0
1062 346 0
1063 346 0
1064 346 0
1065 346 0
1066 346 0
1067 346 0
1068 346 0
1541 346 0.19846746771042395
1542 346 0.13291349456905685
1543 346 -0.11659569025066187
1544 346 0.1709989853023412
1045 347 -0
1046 347 -0
1047 347 -0
1048 347 -0
1049 347 -0.99509004789631994
1050 347 -0
1051 347 -0
1052 347 -0
1053 347 -0
1054 347 -0
1055 347 -0
1056 347 -0
1057 347 0
1058 347 0
1059 347 0
1060 347 0
1061 347 0
1062 347 0
1063 347 0
1064 347 0
1065 347 0
1066 347 0
1067 347 0
1068 347 0
1541 347 0.06406726430169403
1542 347 0.0077975121873435499
1543 347 -0.012888481757033089
1544 347 0.1821584263174176
1045 348 -0
1046 348 -0
1047 348 -0
1048 348 -0
1049 348 -0
1050 348 -0.99509004789631994
1051 348 -0
1052 348 -0
1053 348 -0
1054 348 -0
1055 348 -0
1056 348 -0
1057 348 0
1058 348 0
1059 348 0
1060 348 0
1061 348 0
1062 348 0
1063 348 0
1064 348 0
1065 348 0
1066 348 0
1067 348 0
1068 348 0
1541 348 0.14930176975937659
1542 348 -0.1220518999462523
1543 348 -0.21437482240798272
1544 348 -0.27728111366749703
1045 349 -0
1046 349 -0
1047 349 -0
1048 349 -0
1049 349 -0
1050 349 -0
1051 349 -0.99509004789631994
1052 349 -0
1053 349 -0
1054 349 -0
1055 349 -0
1056 349 -0
1057 349 0
1058 349 0
1059 349 0
1060 349 0
1061 349 0
1062 349 0
1063 349 0
1064 349 0
1065 349 0
1066 349 0
1067 349 0
1068 349 0
1541 349 -0.27832449100114248
1542 349 -0.023030066571549251
1543 349 0.085999904285044407
1544 349 0.14042558666593874
1045 350 -0
1046 350 -0
1047 350 -0
1048 350 -0
1049 350 -0
1050 350 -0
1051 350 -0
1052 350 -0.99509004789631994
1053 350 -0
1054 350 -0
1055 350 -0
1056 350 -0
1057 350 0
1058 350 0
1059 350 0
1060 350 0
1061 350 0
1062 350 0
1063 350 0
1064 350 0
1065 350 0
1066 350 0
1067 350 0
1068 350 0
1541 350 0.14426661227624929
1542 350 0.019112219351713613
1543 350 -0.3383340256558125
1544 350 -0.26332006554483989
1045 351 -0
1046 351 -0
1047 351 -0
1048 351 -0
1049 351 -0
1050 351 -0
1051 351 -0
1052 351 -0
1053 351 -0.99509004789631994
1054 351 -0
1055 351 -0
1056 351 -0
1057 351 0
1058 351 0
1059 351 0
1060 351 0
1061 351 0
1062 351 0
1063 351 0
1064 351 0
1065 351 0
1066 351 0
1067 351 0
1068 351 0
1541 351 -0.11462509557936003
1542 351 -0.065598224589830417
1543 351 0.12045547271290091
1544 351 0.066735657880519217
1045 352 -0
1046 352 -0
1047 352 -0
1048 352 -0
1049 352 -0
1050 352 -0
1051 352 -0
1052 352 -0
1053 352 -0
1054 352 -0.99509004789631994
1055 352 -0
1056 352 -0
1057 352 0
1058 352 0
1059 352 0
1060 352 0
1061 352 0
1062 352 0
1063 352 0
1064 352 0
1065 352 0
1066 352 0
1067 352 0
1068 352 0
1541 352 0.1112726701807888
1542 352 -0.18163442438886057
1543 352 -0.24934842404473068
1544 352 0.087619788974651794
1045 353 -0
1046 353 -0
1047 353 -0
1048 353 -0
1049 353 -0
1050 353 -0
1051 353 -0
1052 353 -0
1053 353 -0
1054 353 -0
1055 353 -0.99509004789631994
1056 353 -0
1057 353 0
1058 353 0
1059 353 0
1060 353 0
1061 353 0
1062 353 0
1063 353 0
1064 353 0
1065 353 0
1066 353 0
1067 353 0
1068 353 0
1541 353 0.0048220099123521959
1542 353 -0.09230703811323461
1543 353 -0.22028815111069383
1544 353 -0.062540089363958593
1045 354 -0
1046 354 -0
1047 354 -0
1048 354 -0
1049 354 -0
1050 354 -0
1051 354 -0
1052 354 -0
1053 354 -0
1054 354 -0
1055 354 -0
1056 354 -0.99509004789631994
1057 354 0
1058 354 0
1059 354 0
1060 354 0
1061 354 0
1062 354 0
1063 354 0
1064 354 0
1065 354 0
1066 354 0
1067 354 0
1068 354 0
1541 354 0.22589481330245723
1542 354 0.085512196920050021
1543 354 -0.209328877595194
1544 354 0.014853171089538656
1045 355 0
1046 355 0
1047 355 0
1048 355 0
1049 355 0
1050 355 0
1051 355 0
1052 355 0
1053 355 0
1054 355 0
1055 355 0
1056 355 0
1057 355 0.99509004789631994
1058 355 0
1059 355 0
1060 355 0
1061 355 0
1062 355 0
1063 355 0
1064 355 0
1065 355 0
1066 355 0
1067 355 0
1068 355 0
1541 355 0
1542 355 0
1543 355 0
1544 355 0
1045 356 0
1046 356 0
1047 356 0
1048 356 0
1049 356 0
1050 356 0
1051 356 0
1052 356 0
1053 356 0
1054 356 0
1055 356 0
1056 356 0
1057 356 0
1058 356 0.99509004789631994
1059 356 0
1060 356 0
1061 356 0
1062 356 0
1063 356 0
1064 356 0
1065 356 0
1066 356 0
1067 356 0
1068 356 0
1541 356 0
1542 356 0
1543 356 0
1544 356 0
1045 357 0
1046 357 0
1047 357 0
1048 357 0
1049 357 0
1050 357 0
1051 357 0
1052 357 0
1053 357 0
1054 357 0
1055 357 0
1056 357 0
1057 357 0
1058 357 0
1059 357 0.99509004789631994
1060 357 0
1061 357 0
1062 357 0
1063 357 0
1064 357 0
1065 357 0
1066 357 0
1067 357 0
1068 357 0
1541 357 0
1542 357 0
1543 357 0
1544 357 0
1045 358 0
1046 358 0
1047 358 0
1048 358 0
1049 358 0
1050 358 0
1051 358 0
1052 358 0
1053 358 0
1054 358 0
1055 358 0
1056 358 0
1057 358 0
1058 358 0
1059 358 0
1060 358 0.99509004789631994
1061 358 0
1062 358 0
1063 358 0
1064 358 0
1065 358 0
1066 358 0
1067 358 0
1068 358 0
1541 358 0
1542 358 0
1543 358 0
1544 358 0
1045 359 0
1046 359 0
1047 359 0
1048 359 0
1049 359 0
1050 359 0
1051 359 0
1052 359 0
1053 359 0
1054 359 0
1055 359 0
1056 359 0
1057 359 0
1058 359 0
1059 359 0
1060 359 0
1061 359 0.99509004789631994
1062 359 0
1063 359 0
1064 359 0
1065 359 0
1066 359 0
1067 359 0
1068 359 0
1541 359 0
1542 359 0
1543 359 0
1544 359 0
1045 360 0
1046 360 0
1047 360 0
1048 360 0
1049 360 0
1050 360 0
1051 360 0
1052 360 0
1053 360 0
1054 360 0
1055 360 0
1056 360 0
1057 360 0
1058 360 0
1059 360 0
1060 360 0
1061 360 0
1062 360 0.99509004789631994
1063 360 0
1064 360 0
1065 360 0
1066 360 0
1067 360 0
1068 360 0
1541 360 0
1542 360 0
1543 360 0
1544 360 0
1045 361 0
1046 361 0
1047 361 0
1048 361 0
1049 361 0
1050 361 0
1051 361 0
1052 361 0
1053 361 0
1054 361 0
1055 361 0
1056 361 0
1057 361 0
1058 361 0
1059 361 0
1060 361 0
1061 361 0
1062 361 0
1063 361 0.99509004789631994
1064 361 0
1065 361 0
1066 361 0
1067 361 0
1068 361 0
1541 361 0
1542 361 0
1543 361 0
1544 361 0
1045 362 0
1046 362 0
1047 362 0
1048 362 0
1049 362 0
1050 362 0
1051 362 0
1052 362 0
1053 362 0
1054 362 0
1055 362 0
1056 362 0
1057 362 0
1058 362 0
1059 362 0
1060 362 0
1061 362 0
1062 362 0
1063 362 0
1064 362 0.99509004789631994
1065 362 0
1066 362 0
1067 362 0
1068 362 0
1541 362 0
1542 362 0
1543 362 0
1544 362 0
1045 363 0
1046 363 0
1047 363 0
1048 363 0
1049 363 0
1050 363 0
1051 363 0
1052 363 0
1053 363 0
1054 363 0
1055 363 0
1056 363 0
1057 363 0
1058 363 0
1059 363 0
1060 363 0
1061 363 0
1062 363 0
1063 363 0
1064 363 0
1065 363 0.99509004789631994
1066 363 0
1067 363 0
1068 363 0
1541 363 0
1542 363 0
1543 363 0
1544 363 0
1045 364 0
1046 364 0
1047 364 0
1048 364 0
1049 364 0
1050 364 0
1051 364 0
1052 364 0
1053 364 0
1054 364 0
1055 364 0
1056 364 0
1057 364 0
1058 364 0
1059 364 0
1060 364 0
1061 364 0
1062 364 0
1063 364 0
1064 364 0
1065 364 0
1066 364 0.99509004789631994
1067 364 0
1068 364 0
1541 364 0
1542 364 0
1543 364 0
1544 364 0
1045 365 0
1046 365 0
1047 365 0
1048 365 0
1049 365 0
1050 365 0
1051 365 0
1052 365 0
1053 365 0
1054 365 0
1055 365 0
1056 365 0
1057 365 0
1058 365 0
1059 365 0
1060 365 0
1061 365 0
1062 365 0
1063 365 0
1064 365 0
1065 365 0
1066 365 0
1067 365 0.99509004789631994
1068 365 0
1541 365 0
1542 365 0
1543 365 0
1544 365 0
1045 366 0
1046 366 0
1047 366 0
1048 366 0
1049 366 0
1050 366 0
1051 366 0
1052 366 0
1053 366 0
1054 366 0
1055 366 0
1056 366 0
1057 366 0
1058 366 0
1059 366 0
1060 366 0
1061 366 0
1062 366 0
1063 366 0
1064 366 0
1065 366 0
1066 366 0
1067 366 0
1068 366 0.99509004789631994
1541 366 0
1542 366 0
1543 366 0
1544 366 0
1537 367 0
1538 367 0
1539 367 0
1540 367 0
1680 367 0
1537 368 0.99878751991636638
1538 368 0
1539 368 0
1540 368 0
1680 368 0
1537 369 0
1538 369 0.99886974093913028
1539 369 0
1540 369 0
1680 369 0
1537 370 0
1538 370 0
1539 370 0.99859691322799182
1540 370 0
1680 370 0
1537 371 0
1538 371 0
1539 371 0
1540 371 0.99879118685427859
1680 371 0
1537 372 0
1538 372 0
1539 372 0
1540 372 0
1680 372 1
1033 373 -0.99509004789631994
1034 373 -0
1035 373 -0
1036 373 -0
1037 373 -0
1038 373 -0
1039 373 -0
1040 373 -0
1041 373 -0
1042 373 -0
1043 373 -0
1044 373 -0
1045 373 0
1046 373 0
1047 373 0
1048 373 0
1049 373 0
1050 373 0
1051 373 0
1052 373 0
1053 373 0
1054 373 0
1055 373 0
1056 373 0
1537 373 -0.1803189598547551
1538 373 -0.25584631152049064
1539 373 -0.074765084896359371
1540 373 -0.06244980534901011
1033 374 -0
1034 374 -0.99509004789631994
1035 374 -0
1036 374 -0
1037 374 -0
1038 374 -0
1039 374 -0
1040 374 -0
1041 374 -0
1042 374 -0
1043 374 -0
1044 374 -0
1045 374 0
1046 374 0
1047 374 0
1048 374 0
1049 374 0
1050 374 0
1051 374 0
1052 374 0
1053 374 0
1054 374 0
1055 374 0
1056 374 0
1537 374 0.10820261428783474
1538 374 0.080196783561304039
1539 374 -0.016866001348705428
1540 374 -0.17094248486675911
1033 375 -0
1034 375 -0
1035 375 -0.99509004789631994
1036 375 -0
1037 375 -0
1038 375 -0
1039 375 -0
1040 375 -0
1041 375 -0
1042 375 -0
1043 375 -0
1044 375 -0
1045 375 0
1046 375 0
1047 375 0
1048 375 0
1049 375 0
1050 375 0
1051 375 0
1052 375 0
1053 375 0
1054 375 0
1055 375 0
1056 375 0
1537 375 0.021296203412182201
1538 375 0.06379387941368389
1539 375 0.33227429440027084
1540 375 0.038055274961526345
1033 376 -0
1034 376 -0
1035 376 -0
1036 376 -0.99509004789631994
1037 376 -0
1038 376 -0
1039 376 -0
1040 376 -0
1041 376 -0
1042 376 -0
1043 376 -0
1044 376 -0
1045 376 0
1046 376 0
1047 376 0
1048 376 0
1049 376 0
1050 376 0
1051 376 0
1052 376 0
1053 376 0
1054 376 0
1055 376 0
1056 376 0
1537 376 0.19846746771042395
1538 376 0.13291349456905685
1539 376 -0.11659569025066187
1540 376 0.1709989853023412
1033 377 -0
1034 377 -0
1035 377 -0
1036 377 -0
1037 377 -0.99509004789631994
1038 377 -0
1039 377 -0
1040 377 -0
1041 377 -0
1042 377 -0
1043 377 -0
1044 377 -0
1045 377 0
1046 377 0
1047 377 0
1048 377 0
1049 377 0
1050 377 0
1051 377 0
1052 377 0
1053 377 0
1054 377 0
1055 377 0
1056 377 0
1537 377 0.06406726430169403
1538 377 0.0077975121873435499
1539 377 -0.012888481757033089
1540 377 0.1821584263174176
1033 378 -0
1034 378 -0
1035 378 -0
1036 378 -0
1037 378 -0
1038 378 -0.99509004789631994
1039 378 -0
1040 378 -0
1041 378 -0
1042 378 -0
1043 378 -0
1044 378 -0
1045 378 0
1046 378 0
1047 378 0
1048 378 0
1049 378 0
1050 378 0
1051 378 0
1052 378 0
1053 378 0
1054 378 0
1055 378 0
1056 378 0
1537 378 0.14930176975937659
1538 378 -0.1220518999462523
1539 378 -0.21437482240798272
1540 378 -0.27728111366749703
1033 379 -0
1034 379 -0
1035 379 -0
1036 379 -0
1037 379 -0
1038 379 -0
1039 379 -0.99509004789631994
1040 379 -0
1041 379 -0
1042 379 -0
1043 379 -0
1044 379 -0
1045 379 0
1046 379 0
1047 379 0
1048 379 0
1049 379 0
1050 379 0
1051 379 0
1052 379 0
1053 379 0
1054 379 0
1055 379 0
1056 379 0
1537 379 -0.27832449100114248
1538 379 -0.023030066571549251
1539 379 0.085999904285044407
1540 379 0.14042558666593874
1033 380 -0
1034 380 -0
1035 380 -0
1036 380 -0
1037 380 -0
1038 380 -0
1039 380 -0
1040 380 -0.99509004789631994
1041 380 -0
1042 380 -0
1043 380 -0
1044 380 -0
1045 380 0
1046 380 0
1047 380 0
1048 380 0
1049 380 0
1050 380 0
1051 380 0
1052 380 0
1053 380 0
1054 380 0
1055 380 0
1056 380 0
1537 380 0.14426661227624929
1538 380 0.019112219351713613
1539 380 -0.3383340256558125
1540 380 -0.26332006554483989
1033 381 -0
1034 381 -0
1035 381 -0
1036 381 -0
1037 381 -0
1038 381 -0
1039 381 -0
1040 381 -0
1041 381 -0.99509004789631994
1042 381 -0
1043 381 -0
1044 381 -0
1045 381 0
1046 381 0
1047 381 0
1048 381 0
1049 381 0
1050 381 0
1051 381 0
1052 381 0
1053 381 0
1054 381 0
1055 381 0
1056 381 0
1537 381 -0.11462509557936003
1538 381 -0.065598224589830417
1539 381 0.12045547271290091
1540 381 0.066735657880519217
1033 382 -0
1034 382 -0
1035 382 -0
1036 382 -0
1037 382 -0
1038 382 -0
1039 382 -0
1040 382 -0
1041 382 -0
1042 382 -0.99509004789631994
1043 382 -0
1044 382 -0
1045 382 0
1046 382 0
1047 382 0
1048 382 0
1049 382 0
1050 382 0
1051 382 0
1052 382 0
1053 382 0
1054 382 0
1055 382 0
1056 382 0
1537 382 0.1112726701807888
1538 382 -0.18163442438886057
1539 382 -0.24934842404473068
1540 382 0.087619788974651794
1033 383 -0
1034 383 -0
1035 383 -0
1036 383 -0
1037 383 -0
1038 383 -0
1039 383 -0
1040 383 -0
1041 383 -0
1042 383 -0
1043 383 -0.99509004789631994
1044 383 -0
1045 383 0
1046 383 0
1047 383 0
1048 383 0
1049 383 0
1050 383 0
1051 383 0
1052 383 0
1053 383 0
1054 383 0
1055 383 0
1056 383 0
1537 383 0.0048220099123521959
1538 383 -0.09230703811323461
1539 383 -0.22028815111069383
1540 383 -0.062540089363958593
1033 384 -0
1034 384 -0
1035 384 -0
1036 384 -0
1037 384 -0
1038 384 -0
1039 384 -0
1040 384 -0
1041 384 -0
1042 384 -0
1043 384 -0
1044 384 -0.99509004789631994
1045 384 0
1046 384 0
1047 384 0
1048 384 0
1049 384 0
1050 384 0
1051 384 0
1052 384 0
1053 384 0
1054 384 0
1055 384 0
1056 384 0
1537 384 0.22589481330245723
1538 384 0.085512196920050021
1539 384 -0.209328877595194
1540 384 0.014853171089538656
1033 385 0
1034 385 0
1035 385 0
1036 385 0
1037 385 0
1038 385 0
1039 385 0
1040 385 0
1041 385 0
1042 385 0
1043 385 0
1044 385 0
1045 385 0.99509004789631994
1046 385 0
1047 385 0
1048 385 0
1049 385 0
1050 385 0
1051 385 0
1052 385 0
1053 385 0
1054 385 0
1055 385 0
1056 385 0
1537 385 0
1538 385 0
1539 385 0
1540 385 0
1033 386 0
1034 386 0
1035 386 0
1036 386 0
1037 386 0
1038 386 0
1039 386 0
1040 386 0
1041 386 0
1042 386 0
1043 386 0
1044 386 0
1045 386 0
1046 386 0.99509004789631994
1047 386 0
1048 386 0
1049 386 0
1050 386 0
1051 386 0
1052 386 0
1053 386 0
1054 386 0
1055 386 0
1056 386 0
1537 386 0
1538 386 0
1539 386 0
1540 386 0
1033 387 0
1034 387 0
1035 387 0
1036 387 0
1037 387 0
1038 387 0
1039 387 0
1040 387 0
1041 387 0
1042 387 0
1043 387 0
1044 387 0
1045 387 0
1046 387 0
1047 387 0.99509004789631994
1048 387 0
1049 387 0
1050 387 0
1051 387 0
1052 387 0
1053 387 0
1054 387 0
1055 387 0
1056 387 0
1537 387 0
1538 387 0
1539 387 0
1540 387 0
1033 388 0
1034 388 0
1035 388 0
1036 388 0
1037 388 0
1038 388 0
1039 388 0
1040 388 0
1041 388 0
1042 388 0
1043 388 0
1044 388 0
1045 388 0
1046 388 0
1047 388 0
1048 388 0.99509004789631994
1049 388 0
1050 388 0
1051 388 0
1052 388 0
1053 388 0
1054 388 0
1055 388 0
1056 388 0
1537 388 0
1538 388 0
1539 388 0
1540 388 0
1033 389 0
1034 389 0
1035 389 0
1036 389 0
1037 389 0
1038 389 0
1039 389 0
1040 389 0
1041 389 0
1042 389 0
1043 389 0
1044 389 0
1045 389 0
1046 389 0
1047 389 0
1048 389 0
1049 389 0.99509004789631994
1050 389 0
1051 389 0
1052 389 0
1053 389 0
1054 389 0
1055 389 0
1056 389 0
1537 389 0
1538 389 0
1539 389 0
1540 389 0
1033 390 0
1034 390 0
1035 390 0
1036 390 0
1037 390 0
1038 390 0
1039 390 0
1040 390 0
1041 390 0
1042 390 0
1043 390 0
1044 390 0
1045 390 0
1046 390 0
1047 390 0
1048 390 0
1049 390 0
1050 390 0.99509004789631994
1051 390 0
1052 390 0
1053 390 0
1054 390 0
1055 390 0
1056 390 0
1537 390 0
1538 390 0
1539 390 0
1540 390 0
1033 391 0
1034 391 0
1035 391 0
1036 391 0
1037 391 0
1038 391 0
1039 391 0
1040 391 0
1041 391 0
1042 391 0
1043 391 0
1044 391 0
1045 391 0
1046 391 0
1047 391 0
1048 391 0
1049 391 0
1050 391 0
1051 391 0.99509004789631994
1052 391 0
1053 391 0
1054 391 0
1055 391 0
1056 391 0
1537 391 0
1538 391 0
1539 391 0
1540 391 0
1033 392 0
1034 392 0
1035 392 0
1036 392 0
1037 392 0
1038 392 0
1039 392 0
1040 392 0
1041 392 0
1042 392 0
1043 392 0
1044 392 0
1045 392 0
1046 392 0
1047 392 0
1048 392 0
1049 392 0
1050 392 0
1051 392 0
1052 392 0.99509004789631994
1053 392 0
1054 392 0
1055 392 0
1056 392 0
1537 392 0
1538 392 0
1539 392 0
1540 392 0
1033 393 0
1034 393 0
1035 393 0
1036 393 0
1037 393 0
1038 393 0
1039 393 0
1040 393 0
1041 393 0
1042 393 0
1043 393 0
1044 393 0
1045 393 0
1046 393 0
1047 393 0
1048 393 0
1049 393 0
1050 393 0
1051 393 0
1052 393 0
1053 393 0.99509004789631994
1054 393 0
1055 393 0
1056 393 0
1537 393 0
1538 393 0
1539 393 0
1540 393 0
1033 394 0
1034 394 0
1035 394 0
1036 394 0
1037 394 0
1038 394 0
1039 394 0
1040 394 0
1041 394 0
1042 394 0
1043 394 0
1044 394 0
1045 394 0
1046 394 0
1047 394 0
1048 394 0
1049 394 0
1050 394 0
1051 394 0
1052 394 0
1053 394 0
1054 394 0.99509004789631994
1055 394 0
1056 394 0
1537 394 0
1538 394 0
1539 394 0
1540 394 0
1033 395 0
1034 395 0
1035 395 0
1036 395 0
1037 395 0
1038 395 0
1039 395 0
1040 395 0
1041 395 0
1042 395 0
1043 395 0
1044 395 0
1045 395 0
1046 395 0
1047 395 0
1048 395 0
1049 395 0
1050 395 0
1051 395 0
1052 395 0
1053 395 0
1054 395 0
1055 395 0.99509004789631994
1056 395 0
1537 395 0
1538 395 0
1539 395 0
1540 395 0
1033 396 0
1034 396 0
1035 396 0
1036 396 0
1037 396 0
1038 396 0
1039 396 0
1040 396 0
1041 396 0
1042 396 0
1043 396 0
1044 396 0
1045 396 0
1046 396 0
1047 396 0
1048 396 0
1049 396 0
1050 396 0
1051 396 0
1052 396 0
1053 396 0
1054 396 0
1055 396 0
1056 396 0.99509004789631994
1537 396 0
1538 396 0
1539 396 0
1540 396 0
1533 397 0
1534 397 0
1535 397 0
1536 397 0
1679 397 0
1533 398 0.99878751991636638
1534 398 0
1535 398 0
1536 398 0
1679 398 0
1533 399 0
1534 399 0.99886974093913028
1535 399 0
1536 399 0
1679 399 0
1533 400 0
1534 400 0
1535 400 0.99859691322799182
1536 400 0
1679 400 0
1533 401 0
1534 401 0
1535 401 0
1536 401 0.99879118685427859
1679 401 0
1533 402 0
1534 402 0
1535 402 0
1536 402 0
1679 402 1
1021 403 -0.99509004789631994
1022 403 -0
1023 403 -0
1024 403 -0
1025 403 -0
1026 403 -0
1027 403 -0
1028 403 -0
1029 403 -0
1030 403 -0
1031 403 -0
1032 403 -0
1033 403 0
1034 403 0
1035 403 0
1036 403 0
1037 403 0
1038 403 0
1039 403 0
1040 403 0
1041 403 0
1042 403 0
1043 403 0
1044 403 0
1533 403 -0.1803189598547551
1534 403 -0.25584631152049064
1535 403 -0.074765084896359371
1536 403 -0.06244980534901011
1021 404 -0
1022 404 -0.99509004789631994
1023 404 -0
1024 404 -0
1025 404 -0
1026 404 -0
1027 404 -0
1028 404 -0
1029 404 -0
1030 404 -0
1031 404 -0
1032 404 -0
1033 404 0
1034 404 0
1035 404 0
1036 404 0
1037 404 0
1038 404 0
1039 404 0
1040 404 0
1041 404 0
1042 404 0
1043 404 0
1044 404 0
1533 404 0.10820261428783474
1534 404 0.080196783561304039
1535 404 -0.016866001348705428
1536 404 -0.17094248486675911
1021 405 -0
1022 405 -0
1023 405 -0.99509004789631994
1024 405 -0
1025 405 -0
1026 405 -0
1027 405 -0
1028 405 -0
1029 405 -0
1030 405 -0
1031 405 -0
1032 405 -0
1033 405 0
1034 405 0
1035 405 0
1036 405 0
1037 405 0
1038 405 0
1039 405 0
1040 405 0
1041 405 0
1042 405 0
1043 405 0
1044 405 0
1533 405 0.021296203412182201
1534 405 0.06379387941368389
1535 405 0.33227429440027084
1536 405 0.038055274961526345
1021 406 -0
1022 406 -0
1023 406 -0
1024 406 -0.99509004789631994
1025 406 -0
1026 406 -0
1027 406 -0
1028 406 -0
1029 406 -0
1030 406 -0
1031 406 -0
1032 406 -0
1033 406 0
1034 406 0
1035 406 0
1036 406 0
1037 406 0
1038 406 0
1039 406 0
1040 406 0
1041 406 0
1042 406 0
1043 406 0
1044 406 0
1533 406 0.19846746771042395
1534 406 0.13291349456905685
1535 406 -0.11659569025066187
1536 406 0.1709989853023412
1021 407 -0
1022 407 -0
1023 407 -0
1024 407 -0
1025 407 -0.99509004789631994
1026 407 -0
1027 407 -0
1028 407 -0
1029 407 -0
1030 407 -0
1031 407 -0
1032 407 -0
1033 407 0
1034 407 0
1035 407 0
1036 407 0
1037 407 0
1038 407 0
1039 407 0
1040 407 0
1041 407 0
1042 407 0
1043 407 0
1044 407 0
1533 407 0.06406726430169403
1534 407 0.0077975121873435499
1535 407 -0.012888481757033089
1536 407 0.1821584263174176
1021 408 -0
1022 408 -0
1023 408 -0
1024 408 -0
1025 408 -0
1026 408 -0.99509004789631994
1027 408 -0
1028 408 -0
1029 408 -0
1030 408 -0
1031 408 -0
1032 408 -0
1033 408 0
1034 408 0
1035 408 0
1036 408 0
1037 408 0
1038 408 0
1039 408 0
1040 408 0
1041 408 0
1042 408 0
1043 408 0
1044 408 0
1533 408 0.14930176975937659
1534 408 -0.1220518999462523
1535 408 -0.21437482240798272
1536 408 -0.27728111366749703
1021 409 -0
1022 409 -0
1023 409 -0
1024 409 -0
1025 409 -0
1026 409 -0
1027 409 -0.99509004789631994
1028 409 -0
1029 409 -0
1030 409 -0
1031 409 -0
1032 409 -0
1033 409 0
1034 409 0
1035 409 0
1036 409 0
1037 409 0
1038 409 0
1039 409 0
1040 409 0
1041 409 0
1042 409 0
1043 409 0
1044 409 0
1533 409 -0.27832449100114248
1534 409 -0.023030066571549251
1535 409 0.085999904285044407
1536 409 0.14042558666593874
1021 410 -0
1022 410 -0
1023 410 -0
1024 410 -0
1025 410 -0
1026 410 -0
1027 410 -0
1028 410 -0.99509004789631994
1029 410 -0
1030 410 -0
1031 410 -0
1032 410 -0
1033 410 0
1034 410 0
1035 410 0
1036 410 0
1037 410 0
1038 410 0
1039 410 0
1040 410 0
1041 410 0
1042 410 0
1043 410 0
1044 410 0
1533 410 0.14426661227624929
1534 410 0.019112219351713613
1535 410 -0.3383340256558125
1536 410 -0.26332006554483989
1021 411 -0
1022 411 -0
1023 411 -0
1024 411 -0
1025 411 -0
1026 411 -0
1027 411 -0
1028 411 -0
1029 411 -0.99509004789631994
1030 411 -0
1031 411 -0
1032 411 -0
1033 411 0
1034 411 0
1035 411 0
1036 411 0
1037 411 0
1038 411 0
1039 411 0
1040 411 0
1041 411 0
1042 411 0
1043 411 0
1044 411 0
1533 411 -0.11462509557936003
1534 411 -0.065598224589830417
1535 411 0.12045547271290091
1536 411 0.066735657880519217
1021 412 -0
1022 412 -0
1023 412 -0
1024 412 -0
1025 412 -0
1026 412 -0
1027 412 -0
1028 412 -0
1029 412 -0
1030 412 -0.99509004789631994
1031 412 -0
1032 412 -0
1033 412 0
1034 412 0
1035 412 0
1036 412 0
1037 412 0
1038 412 0
1039 412 0
1040 412 0
1041 412 0
1042 412 0
1043 412 0
1044 412 0
1533 412 0.1112726701807888
1534 412 -0.18163442438886057
1535 412 -0.24934842404473068
1536 412 0.087619788974651794
1021 413 -0
1022 413 -0
1023 413 -0
1024 413 -0
1025 413 -0
1026 413 -0
1027 413 -0
1028 413 -0
1029 413 -0
1030 413 -0
1031 413 -0.99509004789631994
1032 413 -0
1033 413 0
1034 413 0
1035 413 0
1036 413 0
1037 413 0
1038 413 0
1039 413 0
1040 413 0
1041 413 0
1042 413 0
1043 413 0
1044 413 0
1533 413 0.0048220099123521959
1534 413 -0.09230703811323461
1535 413 -0.22028815111069383
1536 413 -0.062540089363958593
1021 414 -0
1022 414 -0
1023 414 -0
1024 414 -0
1025 414 -0
1026 414 -0
1027 414 -0
1028 414 -0
1029 414 -0
1030 414 -0
1031 414 -0
1032 414 -0.99509004789631994
1033 414 0
1034 414 0
1035 414 0
1036 414 0
1037 414 0
1038 414 0
1039 414 0
1040 414 0
1041 414 0
1042 414 0
1043 414 0
1044 414 0
1533 414 0.22589481330245723
1534 414 0.085512196920050021
1535 414 -0.209328877595194
1536 414 0.014853171089538656
1021 415 0
1022 415 0
1023 415 0
1024 415 0
1025 415 0
1026 415 0
1027 415 0
1028 415 0
1029 415 0
1030 415 0
1031 415 0
1032 415 0
1033 415 0.99509004789631994
1034 415 0
1035 415 0
1036 415 0
1037 415 0
1038 415 0
1039 415 0
1040 415 0
1041 415 0
1042 415 0
1043 415 0
1044 415 0
1533 415 0
1534 415 0
1535 415 0
1536 415 0
1021 416 0
1022 416 0
1023 416 0
1024 416 0
1025 416 0
1026 416 0
1027 416 0
1028 416 0
1029 416 0
1030 416 0
1031 416 0
1032 416 0
1033 416 0
1034 416 0.99509004789631994
1035 416 0
1036 416 0
1037 416 0
1038 416 0
1039 416 0
1040 416 0
1041 416 0
1042 416 0
1043 416 0
1044 416 0
1533 416 0
1534 416 0
1535 416 0
1536 416 0
1021 417 0
1022 417 0
1023 417 0
1024 417 0
1025 417 0
1026 417 0
1027 417 0
1028 417 0
1029 417 0
1030 417 0
1031 417 0
1032 417 0
1033 417 0
1034 417 0
1035 417 0.99509004789631994
1036 417 0
1037 417 0
1038 417 0
1039 417 0
1040 417 0
1041 417 0
1042 417 0
1043 417 0
1044 417 0
1533 417 0
1534 417 0
1535 417 0
1536 417 0
1021 418 0
1022 418 0
1023 418 0
1024 418 0
1025 418 0
1026 418 0
1027 418 0
1028 418 0
1029 418 0
1030 418 0
1031 418 0
1032 418 0
1033 418 0
1034 418 0
1035 418 0
1036 418 0.99509004789631994
1037 418 0
1038 418 0
1039 418 0
1040 418 0
1041 418 0
1042 418 0
1043 418 0
1044 418 0
1533 418 0
1534 418 0
1535 418 0
1536 418 0
1021 419 0
1022 419 0
1023 419 0
1024 419 0
1025 419 0
1026 419 0
1027 419 0
1028 419 0
1029 419 0
1030 419 0
1031 419 0
1032 419 0
1033 419 0
1034 419 0
1035 419 0
1036 419 0
1037 419 0.99509004789631994
1038 419 0
1039 419 0
1040 419 0
1041 419 0
1042 419 0
1043 419 0
1044 419 0
1533 419 0
1534 419 0
1535 419 0
1536 419 0
1021 420 0
1022 420 0
1023 420 0
1024 420 0
1025 420 0
1026 420 0
1027 420 0
1028 420 0
1029 420 0
1030 420 0
1031 420 0
1032 420 0
1033 420 0
1034 420 0
1035 420 0
1036 420 0
1037 420 0
1038 420 0.99509004789631994
1039 420 0
1040 420 0
1041 420 0
1042 420 0
1043 420 0
1044 420 0
1533 420 0
1534 420 0
1535 420 0
1536 420 0
1021 421 0
1022 421 0
1023 421 0
1024 421 0
1025 421 0
1026 421 0
1027 421 0
1028 421 0
1029 421 0
1030 421 0
1031 421 0
1032 421 0
1033 421 0
1034 421 0
1035 421 0
1036 421 0
1037 421 0
1038 421 0
1039 421 0.99509004789631994
1040 421 0
1041 421 0
1042 421 0
1043 421 0
1044 421 0
1533 421 0
1534 421 0
1535 421 0
1536 421 0
1021 422 0
1022 422 0
1023 422 0
1024 422 0
1025 422 0
1026 422 0
1027 422 0
1028 422 0
1029 422 0
1030 422 0
1031 422 0
1032 422 0
1033 422 0
1034 422 0
1035 422 0
1036 422 0
1037 422 0
1038 422 0
1039 422 0
1040 422 0.99509004789631994
1041 422 0
1042 422 0
1043 422 0
1044 422 0
1533 422 0
1534 422 0
1535 422 0
1536 422 0
1021 423 0
1022 423 0
1023 423 0
1024 423 0
1025 423 0
1026 423 0
1027 423 0
1028 423 0
1029 423 0
1030 423 0
1031 423 0
1032 423 0
1033 423 0
1034 423 0
1035 423 0
1036 423 0
1037 423 0
1038 423 0
1039 423 0
1040 423 0
1041 423 0.99509004789631994
1042 423 0
1043 423 0
1044 423 0
1533 423 0
1534 423 0
1535 423 0
1536 423 0
1021 424 0
1022 424 0
1023 424 0
1024 424 0
1025 424 0
1026 424 0
1027 424 0
1028 424 0
1029 424 0
1030 424 0
1031 424 0
1032 424 0
1033 424 0
1034 424 0
1035 424 0
1036 424 0
1037 424 0
1038 424 0
1039 424 0
1040 424 0
1041 424 0
1042 424 0.99509004789631994
1043 424 0
1044 424 0
1533 424 0
1534 424 0
1535 424 0
1536 424 0
1021 425 0
1022 425 0
1023 425 0
1024 425 0
1025 425 0
1026 425 0
1027 425 0
1028 425 0
1029 425 0
1030 425 0
1031 425 0
1032 425 0
1033 425 0
1034 425 0
1035 425 0
1036 425 0
1037 425 0
1038 425 0
1039 425 0
1040 425 0
1041 425 0
1042 425 0
1043 425 0.99509004789631994
1044 425 0
1533 425 0
1534 425 0
1535 425 0
1536 425 0
1021 426 0
1022 426 0
1023 426 0
1024 426 0
1025 426 0
1026 426 0
1027 426 0
1028 426 0
1029 426 0
1030 426 0
1031 426 0
1032 426 0
1033 426 0
1034 426 0
1035 426 0
1036 426 0
1037 426 0
1038 426 0
1039 426 0
1040 426 0
1041 426 0
1042 426 0
1043 426 0
1044 426 0.99509004789631994
1533 426 0
1534 426 0
1535 426 0
1536 426 0
1529 427 0
1530 427 0
1531 427 0
1532 427 0
1678 427 0
1529 428 0.99878751991636638
1530 428 0
1531 428 0
1532 428 0
1678 428 0
1529 429 0
1530 429 0.99886974093913028
1531 429 0
1532 429 0
1678 429 0
1529 430 0
1530 430 0
1531 430 0.99859691322799182
1532 430 0
1678 430 0
1529 431 0
1530 431 0
1531 431 0
1532 431 0.99879118685427859
1678 431 0
1529 432 0
1530 432 0
1531 432 0
1532 432 0
1678 432 1
1009 433 -0.99509004789631994
1010 433 -0
1011 433 -0
1012 433 -0
1013 433 -0
1014 433 -0
1015 433 -0
1016 433 -0
1017 433 -0
1018 433 -0
1019 433 -0
1020 433 -0
1021 433 0
1022 433 0
1023 433 0
1024 433 0
1025 433 0
1026 433 0
1027 433 0
1028 433 0
1029 433 0
1030 433 0
1031 433 0
1032 433 0
1529 433 -0.1803189598547551
1530 433 -0.25584631152049064
1531 433 -0.074765084896359371
1532 433 -0.06244980534901011
1009 434 -0
1010 434 -0.99509004789631994
1011 434 -0
1012 434 -0
1013 434 -0
1014 434 -0
1015 434 -0
1016 434 -0
1017 434 -0
1018 434 -0
1019 434 -0
1020 434 -0
1021 434 0
1022 434 0
1023 434 0
1024 434 0
1025 434 0
1026 434 0
1027 434 0
1028 434 0
1029 434 0
1030 434 0
1031 434 0
1032 434 0
1529 434 0.10820261428783474
1530 434 0.080196783561304039
1531 434 -0.016866001348705428
1532 434 -0.17094248486675911
1009 435 -0
1010 435 -0
1011 435 -0.99509004789631994
1012 435 -0
1013 435 -0
1014 435 -0
1015 435 -0
1016 435 -0
1017 435 -0
1018 435 -0
1019 435 -0
1020 435 -0
1021 435 0
1022 435 0
1023 435 0
1024 435 0
1025 435 0
1026 435 0
1027 435 0
1028 435 0
1029 435 0
1030 435 0
1031 435 0
1032 435 0
1529 435 0.021296203412182201
1530 435 0.06379387941368389
1531 435 0.33227429440027084
1532 435 0.038055274961526345
1009 436 -0
1010 436 -0
1011 436 -0
1012 436 -0.99509004789631994
1013 436 -0
1014 436 -0
1015 436 -0
1016 436 -0
1017 436 -0
1018 436 -0
1019 436 -0
1020 436 -0
1021 436 0
1022 436 0
1023 436 0
1024 436 0
1025 436 0
1026 436 0
1027 436 0
1028 436 0
1029 436 0
1030 436 0
1031 436 0
1032 436 0
1529 436 0.19846746771042395
1530 436 0.13291349456905685
1531 436 -0.11659569025066187
1532 436 0.1709989853023412
1009 437 -0
1010 437 -0
1011 437 -0
1012 437 -0
1013 437 -0.99509004789631994
1014 437 -0
1015 437 -0
1016 437 -0
1017 437 -0
1018 437 -0
1019 437 -0
1020 437 -0
1021 437 0
1022 437 0
1023 437 0
1024 437 0
1025 437 0
1026 437 0
1027 437 0
1028 437 0
1029 437 0
1030 437 0
1031 437 0
1032 437 0
1529 437 0.06406726430169403
1530 437 0.0077975121873435499
1531 437 -0.012888481757033089
1532 437 0.1821584263174176
1009 438 -0
1010 438 -0
1011 438 -0
1012 438 -0
1013 438 -0
1014 438 -0.99509004789631994
1015 438 -0
1016 438 -0
1017 438 -0
1018 438 -0
1019 438 -0
1020 438 -0
1021 438 0
1022 438 0
1023 438 0
1024 438 0
1025 438 0
1026 438 0
1027 438 0
1028 438 0
1029 438 0
1030 438 0
1031 438 0
1032 438 0
1529 438 0.14930176975937659
1530 438 -0.1220518999462523
1531 438 -0.21437482240798272
1532 438 -0.27728111366749703
1009 439 -0
1010 439 -0
1011 439 -0
1012 439 -0
1013 439 -0
1014 439 -0
1015 439 -0.99509004789631994
1016 439 -0
1017 439 -0
1018 439 -0
1019 439 -0
1020 439 -0
1021 439 0
1022 439 0
1023 439 0
1024 439 0
1025 439 0
1026 439 0
1027 439 0
1028 439 0
1029 439 0
1030 439 0
1031 439 0
1032 439 0
1529 439 -0.27832449100114248
1530 439 -0.023030066571549251
1531 439 0.085999904285044407
1532 439 0.14042558666593874
1009 440 -0
1010 440 -0
1011 440 -0
1012 440 -0
1013 440 -0
1014 440 -0
1015 440 -0
1016 440 -0.99509004789631994
1017 440 -0
1018 440 -0
1019 440 -0
1020 440 -0
1021 440 0
1022 440 0
1023 440 0
1024 440 0
1025 440 0
1026 440 0
1027 440 0
1028 440 0
1029 440 0
1030 440 0
1031 440 0
1032 440 0
1529 440 0.14426661227624929
1530 440 0.019112219351713613
1531 440 -0.3383340256558125
1532 440 -0.26332006554483989
1009 441 -0
1010 441 -0
1011 441 -0
1012 441 -0
1013 441 -0
1014 441 -0
1015 441 -0
1016 441 -0
1017 441 -0.99509004789631994
1018 441 -0
1019 441 -0
1020 441 -0
1021 441 0
1022 441 0
1023 441 0
1024 441 0
1025 441 0
1026 441 0
1027 441 0
1028 441 0
1029 441 0
1030 441 0
1031 441 0
1032 441 0
1529 441 -0.11462509557936003
1530 441 -0.065598224589830417
1531 441 0.12045547271290091
1532 441 0.066735657880519217
1009 442 -0
1010 442 -0
1011 442 -0
1012 442 -0
1013 442 -0
1014 442 -0
1015 442 -0
1016 442 -0
1017 442 -0
1018 442 -0.99509004789631994
1019 442 -0
1020 442 -0
1021 442 0
1022 442 0
1023 442 0
1024 442 0
1025 442 0
1026 442 0
1027 442 0
1028 442 0
1029 442 0
1030 442 0
1031 442 0
1032 442 0
1529 442 0.1112726701807888
1530 442 -0.18163442438886057
1531 442 -0.24934842404473068
1532 442 0.087619788974651794
1009 443 -0
1010 443 -0
1011 443 -0
1012 443 -0
1013 443 -0
1014 443 -0
1015 443 -0
1016 443 -0
1017 443 -0
1018 443 -0
1019 443 -0.99509004789631994
1020 443 -0
1021 443 0
1022 443 0
1023 443 0
1024 443 0
1025 443 0
1026 443 0
1027 443 0
1028 443 0
1029 443 0
1030 443 0
1031 443 0
1032 443 0
1529 443 0.0048220099123521959
1530 443 -0.09230703811323461
1531 443 -0.22028815111069383
1532 443 -0.062540089363958593
1009 444 -0
1010 444 -0
1011 444 -0
1012 444 -0
1013 444 -0
1014 444 -0
1015 444 -0
1016 444 -0
1017 444 -0
1018 444 -0
1019 444 -0
1020 444 -0.99509004789631994
1021 444 0
1022 444 0
1023 444 0
1024 444 0
1025 444 0
1026 444 0
1027 444 0
1028 444 0
1029 444 0
1030 444 0
1031 444 0
1032 444 0
1529 444 0.22589481330245723
1530 444 0.085512196920050021
1531 444 -0.209328877595194
1532 444 0.014853171089538656
1009 445 0
1010 445 0
1011 445 0
1012 445 0
1013 445 0
1014 445 0
1015 445 0
1016 445 0
1017 445 0
1018 445 0
1019 445 0
1020 445 0
1021 445 0.99509004789631994
1022 445 0
1023 445 0
1024 445 0
1025 445 0
1026 445 0
1027 445 0
1028 445 0
1029 445 0
1030 445 0
1031 445 0
1032 445 0
1529 445 0
1530 445 0
1531 445 0
1532 445 0
1009 446 0
1010 446 0
1011 446 0
1012 446 0
1013 446 0
1014 446 0
1015 446 0
1016 446 0
1017 446 0
1018 446 0
1019 446 0
1020 446 0
1021 446 0
1022 446 0.99509004789631994
1023 446 0
1024 446 0
1025 446 0
1026 446 0
1027 446 0
1028 446 0
1029 446 0
1030 446 0
1031 446 0
1032 446 0
1529 446 0
1530 446 0
1531 446 0
1532 446 0
1009 447 0
1010 447 0
1011 447 0
1012 447 0
1013 447 0
1014 447 0
1015 447 0
1016 447 0
1017 447 0
1018 447 0
1019 447 0
1020 447 0
1021 447 0
1022 447 0
1023 447 0.99509004789631994
1024 447 0
1025 447 0
1026 447 0
1027 447 0
1028 447 0
1029 447 0
1030 447 0
1031 447 0
1032 447 0
1529 447 0
1530 447 0
1531 447 0
1532 447 0
1009 448 0
1010 448 0
1011 448 0
1012 448 0
1013 448 0
1014 448 0
1015 448 0
1016 448 0
1017 448 0
1018 448 0
1019 448 0
1020 448 0
1021 448 0
1022 448 0
1023 448 0
1024 448 0.99509004789631994
1025 448 0
1026 448 0
1027 448 0
1028 448 0
1029 448 0
1030 448 0
1031 448 0
1032 448 0
1529 448 0
1530 448 0
1531 448 0
1532 448 0
1009 449 0
1010 449 0
1011 449 0
1012 449 0
1013 449 0
1014 449 0
1015 449 0
1016 449 0
1017 449 0
1018 449 0
1019 449 0
1020 449 0
1021 449 0
1022 449 0
1023 449 0
1024 449 0
1025 449 0.99509004789631994
1026 449 0
1027 449 0
1028 449 0
1029 449 0
1030 449 0
1031 449 0
1032 449 0
1529 449 0
1530 449 0
1531 449 0
1532 449 0
1009 450 0
1010 450 0
1011 450 0
1012 450 0
1013 450 0
1014 450 0
1015 450 0
1016 450 0
1017 450 0
1018 450 0
1019 450 0
1020 450 0
1021 450 0
1022 450 0
1023 450 0
1024 450 0
1025 450 0
1026 450 0.99509004789631994
1027 450 0
1028 450 0
1029 450 0
1030 450 0
1031 450 0
1032 450 0
1529 450 0
1530 450 0
1531 450 0
1532 450 0
1009 451 0
1010 451 0
1011 451 0
1012 451 0
1013 451 0
1014 451 0
1015 451 0
1016 451 0
1017 451 0
1018 451 0
1019 451 0
1020 451 0
1021 451 0
1022 451 0
1023 451 0
1024 451 0
1025 451 0
1026 451 0
1027 451 0.99509004789631994
1028 451 0
1029 451 0
1030 451 0
1031 451 0
1032 451 0
1529 451 0
1530 451 0
1531 451 0
1532 451 0
1009 452 0
1010 452 0
1011 452 0
1012 452 0
1013 452 0
1014 452 0
1015 452 0
1016 452 0
1017 452 0
1018 452 0
1019 452 0
1020 452 0
1021 452 0
1022 452 0
1023 452 0
1024 452 0
1025 452 0
1026 452 0
1027 452 0
1028 452 0.99509004789631994
1029 452 0
1030 452 0
1031 452 0
1032 452 0
1529 452 0
1530 452 0
1531 452 0
1532 452 0
1009 453 0
1010 453 0
1011 453 0
1012 453 0
1013 453 0
1014 453 0
1015 453 0
1016 453 0
1017 453 0
1018 453 0
1019 453 0
1020 453 0
1021 453 0
1022 453 0
1023 453 0
1024 453 0
1025 453 0
1026 453 0
1027 453 0
1028 453 0
1029 453 0.99509004789631994
1030 453 0
1031 453 0
1032 453 0
1529 453 0
1530 453 0
1531 453 0
1532 453 0
1009 454 0
1010 454 0
1011 454 0
1012 454 0
1013 454 0
1014 454 0
1015 454 0
1016 454 0
1017 454 0
1018 454 0
1019 454 0
1020 454 0
1021 454 0
1022 454 0
1023 454 0
1024 454 0
1025 454 0
1026 454 0
1027 454 0
1028 454 0
1029 454 0
1030 454 0.99509004789631994
1031 454 0
1032 454 0
1529 454 0
1530 454 0
1531 454 0
1532 454 0
1009 455 0
1010 455 0
1011 455 0
1012 455 0
1013 455 0
1014 455 0
1015 455 0
1016 455 0
1017 455 0
1018 455 0
1019 455 0
1020 455 0
1021 455 0
1022 455 0
1023 455 0
1024 455 0
1025 455 0
1026 455 0
1027 455 0
1028 455 0
1029 455 0
1030 455 0
1031 455 0.99509004789631994
1032 455 0
1529 455 0
1530 455 0
1531 455 0
1532 455 0
1009 456 0
1010 456 0
1011 456 0
1012 456 0
1013 456 0
1014 456 0
1015 456 0
1016 456 0
1017 456 0
1018 456 0
1019 456 0
1020 456 0
1021 456 0
1022 456 0
1023 456 0
1024 456 0
1025 456 0
1026 456 0
1027 456 0
1028 456 0
1029 456 0
1030 456 0
1031 456 0
1032 456 0.99509004789631994
1529 456 0
1530 456 0
1531 456 0
1532 456 0
1525 457 0
1526 457 0
1527 457 0
1528 457 0
1677 457 0
1525 458 0.99878751991636638
1526 458 0
1527 458 0
1528 458 0
1677 458 0
1525 459 0
1526 459 0.99886974093913028
1527 459 0
1528 459 0
1677 459 0
1525 460 0
1526 460 0
1527 460 0.99859691322799182
1528 460 0
1677 460 0
1525 461 0
1526 461 0
1527 461 0
1528 461 0.99879118685427859
1677 461 0
1525 462 0
1526 462 0
1527 462 0
1528 462 0
1677 462 1
997 463 -0.99509004789631994
998 463 -0
999 463 -0
1000 463 -0
1001 463 -0
1002 463 -0
1003 463 -0
1004 463 -0
1005 463 -0
1006 463 -0
1007 463 -0
1008 463 -0
1009 463 0
1010 463 0
1011 463 0
1012 463 0
1013 463 0
1014 463 0
1015 463 0
1016 463 0
1017 463 0
1018 463 0
1019 463 0
1020 463 0
1525 463 -0.1803189598547551
1526 463 -0.25584631152049064
1527 463 -0.074765084896359371
1528 463 -0.06244980534901011
997 464 -0
998 464 -0.99509004789631994
999 464 -0
1000 464 -0
1001 464 -0
1002 464 -0
1003 464 -0
1004 464 -0
1005 464 -0
1006 464 -0
1007 464 -0
1008 464 -0
1009 464 0
1010 464 0
1011 464 0
1012 464 0
1013 464 0
1014 464 0
1015 464 0
1016 464 0
1017 464 0
1018 464 0
1019 464 0
1020 464 0
1525 464 0.10820261428783474
1526 464 0.080196783561304039
1527 464 -0.016866001348705428
1528 464 -0.17094248486675911
997 465 -0
998 465 -0
999 465 -0.99509004789631994
1000 465 -0
1001 465 -0
1002 465 -0
1003 465 -0
1004 465 -0
1005 465 -0
1006 465 -0
1007 465 -0
1008 465 -0
1009 465 0
1010 465 0
1011 465 0
1012 465 0
1013 465 0
1014 465 0
1015 465 0
1016 465 0
1017 465 0
1018 465 0
1019 465 0
1020 465 0
1525 465 0.021296203412182201
1526 465 0.06379387941368389
1527 465 0.33227429440027084
1528 465 0.038055274961526345
997 466 -0
998 466 -0
999 466 -0
1000 466 -0.99509004789631994
1001 466 -0
1002 466 -0
1003 466 -0
1004 466 -0
1005 466 -0
1006 466 -0
1007 466 -0
1008 466 -0
1009 466 0
1010 466 0
1011 466 0
1012 466 0
1013 466 0
1014 466 0
1015 466 0
1016 466 0
1017 466 0
1018 466 0
1019 466 0
1020 466 0
1525 466 0.19846746771042395
1526 466 0.13291349456905685
1527 466 -0.11659569025066187
1528 466 0.1709989853023412
997 467 -0
998 467 -0
999 467 -0
1000 467 -0
1001 467 -0.99509004789631994
1002 467 -0
1003 467 -0
1004 467 -0
1005 467 -0
1006 467 -0
1007 467 -0
1008 467 -0
1009 467 0
1010 467 0
1011 467 0
1012 467 0
1013 467 0
1014 467 0
1015 467 0
1016 467 0
1017 467 0
1018 467 0
1019 467 0
1020 467 0
1525 467 0.06406726430169403
1526 467 0.0077975121873435499
1527 467 -0.012888481757033089
1528 467 0.1821584263174176
997 468 -0
998 468 -0
999 468 -0
1000 468 -0
1001 468 -0
1002 468 -0.99509004789631994
1003 468 -0
1004 468 -0
1005 468 -0
1006 468 -0
1007 468 -0
1008 468 -0
1009 468 0
1010 468 0
1011 468 0
1012 468 0
1013 468 0
1014 468 0
1015 468 0
1016 468 0
1017 468 0
1018 468 0
1019 468 0
1020 468 0
1525 468 0.14930176975937659
1526 468 -0.1220518999462523
1527 468 -0.21437482240798272
1528 468 -0.27728111366749703
997 469 -0
998 469 -0
999 469 -0
1000 469 -0
1001 469 -0
1002 469 -0
1003 469 -0.99509004789631994
1004 469 -0
1005 469 -0
1006 469 -0
1007 469 -0
1008 469 -0
1009 469 0
1010 469 0
1011 469 0
1012 469 0
1013 469 0
1014 469 0
1015 469 0
1016 469 0
1017 469 0
1018 469 0
1019 469 0
1020 469 0
1525 469 -0.27832449100114248
1526 469 -0.023030066571549251
1527 469 0.085999904285044407
1528 469 0.14042558666593874
997 470 -0
998 470 -0
999 470 -0
1000 470 -0
1001 470 -0
1002 470 -0
1003 470 -0
1004 470 -0.99509004789631994
1005 470 -0
1006 470 -0
1007 470 -0
1008 470 -0
1009 470 0
1010 470 0
1011 470 0
1012 470 0
1013 470 0
1014 470 0
1015 470 0
1016 470 0
1017 470 0
1018 470 0
1019 470 0
1020 470 0
1525 470 0.14426661227624929
1526 470 0.019112219351713613
1527 470 -0.3383340256558125
1528 470 -0.26332006554483989
997 471 -0
998 471 -0
999 471 -0
1000 471 -0
1001 471 -0
1002 471 -0
1003 471 -0
1004 471 -0
1005 471 -0.99509004789631994
1006 471 -0
1007 471 -0
1008 471 -0
1009 471 0
1010 471 0
1011 471 0
1012 471 0
1013 471 0
1014 471 0
1015 471 0
1016 471 0
1017 471 0
1018 471 0
1019 471 0
1020 471 0
1525 471 -0.11462509557936003
1526 471 -0.065598224589830417
1527 471 0.12045547271290091
1528 471 0.066735657880519217
997 472 -0
998 472 -0
999 472 -0
1000 472 -0
1001 472 -0
1002 472 -0
1003 472 -0
1004 472 -0
1005 472 -0
1006 472 -0.99509004789631994
1007 472 -0
1008 472 -0
1009 472 0
1010 472 0
1011 472 0
1012 472 0
1013 472 0
1014 472 0
1015 472 0
1016 472 0
1017 472 0
1018 472 0
1019 472 0
1020 472 0
1525 472 0.1112726701807888
1526 472 -0.18163442438886057
1527 472 -0.24934842404473068
1528 472 0.087619788974651794
997 473 -0
998 473 -0
999 473 -0
1000 473 -0
1001 473 -0
1002 473 -0
1003 473 -0
1004 473 -0
1005 473 -0
1006 473 -0
1007 473 -0.99509004789631994
1008 473 -0
1009 473 0
1010 473 0
1011 473 0
1012 473 0
1013 473 0
1014 473 0
1015 473 0
1016 473 0
1017 473 0
1018 473 0
1019 473 0
1020 473 0
1525 473 0.0048220099123521959
1526 473 -0.09230703811323461
1527 473 -0.22028815111069383
1528 473 -0.062540089363958593
997 474 -0
998 474 -0
999 474 -0
1000 474 -0
1001 474 -0
1002 474 -0
1003 474 -0
1004 474 -0
1005 474 -0
1006 474 -0
1007 474 -0
1008 474 -0.99509004789631994
1009 474 0
1010 474 0
1011 474 0
1012 474 0
1013 474 0
1014 474 0
1015 474 0
1016 474 0
1017 474 0
1018 474 0
1019 474 0
1020 474 0
1525 474 0.22589481330245723
1526 474 0.085512196920050021
1527 474 -0.209328877595194
1528 474 0.014853171089538656
997 475 0
998 475 0
999 475 0
1000 475 0
1001 475 0
1002 475 0
1003 475 0
1004 475 0
1005 475 0
1006 475 0
1007 475 0
1008 475 0
1009 475 0.99509004789631994
1010 475 0
1011 475 0
1012 475 0
1013 475 0
1014 475 0
1015 475 0
1016 475 0
1017 475 0
1018 475 0
1019 475 0
1020 475 0
1525 475 0
1526 475 0
1527 475 0
1528 475 0
997 476 0
998 476 0
999 476 0
1000 476 0
1001 476 0
1002 476 0
1003 476 0
1004 476 0
1005 476 0
1006 476 0
1007 476 0
1008 476 0
1009 476 0
1010 476 0.99509004789631994
1011 476 0
1012 476 0
1013 476 0
1014 476 0
1015 476 0
1016 476 0
1017 476 0
1018 476 0
1019 476 0
1020 476 0
1525 476 0
1526 476 0
1527 476 0
1528 476 0
997 477 0
998 477 0
999 477 0
1000 477 0
1001 477 0
1002 477 0
1003 477 0
1004 477 0
1005 477 0
1006 477 0
1007 477 0
1008 477 0
1009 477 0
1010 477 0
1011 477 0.99509004789631994
1012 477 0
1013 477 0
1014 477 0
1015 477 0
1016 477 0
1017 477 0
1018 477 0
1019 477 0
1020 477 0
1525 477 0
1526 477 0
1527 477 0
1528 477 0
997 478 0
998 478 0
999 478 0
1000 478 0
1001 478 0
1002 478 0
1003 478 0
1004 478 0
1005 478 0
1006 478 0
1007 478 0
1008 478 0
1009 478 0
1010 478 0
1011 478 0
1012 478 0.99509004789631994
1013 478 0
1014 478 0
1015 478 0
1016 478 0
1017 478 0
1018 478 0
1019 478 0
1020 478 0
1525 478 0
1526 478 0
1527 478 0
1528 478 0
997 479 0
998 479 0
999 479 0
1000 479 0
1001 479 0
1002 479 0
1003 479 0
1004 479 0
1005 479 0
1006 479 0
1007 479 0
1008 479 0
1009 479 0
1010 479 0
1011 479 0
1012 479 0
1013 479 0.99509004789631994
1014 479 0
1015 479 0
1016 479 0
1017 479 0
1018 479 0
1019 479 0
1020 479 0
1525 479 0
1526 479 0
1527 479 0
1528 479 0
997 480 0
998 480 0
999 480 0
1000 480 0
1001 480 0
1002 480 0
1003 480 0
1004 480 0
1005 480 0
1006 480 0
1007 480 0
1008 480 0
1009 480 0
1010 480 0
1011 480 0
1012 480 0
1013 480 0
1014 480 0.99509004789631994
1015 480 0
1016 480 0
1017 480 0
1018 480 0
1019 480 0
1020 480 0
1525 480 0
1526 480 0
1527 480 0
1528 480 0
997 481 0
998 481 0
999 481 0
1000 481 0
1001 481 0
1002 481 0
1003 481 0
1004 481 0
1005 481 0
1006 481 0
1007 481 0
1008 481 0
1009 481 0
1010 481 0
1011 481 0
1012 481 0
1013 481 0
1014 481 0
1015 481 0.99509004789631994
1016 481 0
1017 481 0
1018 481 0
1019 481 0
1020 481 0
1525 481 0
1526 481 0
1527 481 0
1528 481 0
997 482 0
998 482 0
999 482 0
1000 482 0
1001 482 0
1002 482 0
1003 482 0
1004 482 0
1005 482 0
1006 482 0
1007 482 0
1008 482 0
1009 482 0
1010 482 0
1011 482 0
1012 482 0
1013 482 0
1014 482 0
1015 482 0
1016 482 0.99509004789631994
1017 482 0
1018 482 0
1019 482 0
1020 482 0
1525 482 0
1526 482 0
1527 482 0
1528 482 0
997 483 0
998 483 0
999 483 0
1000 483 0
1001 483 0
1002 483 0
1003 483 0
1004 483 0
1005 483 0
1006 483 0
1007 483 0
1008 483 0
1009 483 0
1010 483 0
1011 483 0
1012 483 0
1013 483 0
1014 483 0
1015 483 0
1016 483 0
1017 483 0.99509004789631994
1018 483 0
1019 483 0
1020 483 0
1525 483 0
1526 483 0
1527 483 0
1528 483 0
997 484 0
998 484 0
999 484 0
1000 484 0
1001 484 0
1002 484 0
1003 484 0
1004 484 0
1005 484 0
1006 484 0
1007 484 0
1008 484 0
1009 484 0
1010 484 0
1011 484 0
1012 484 0
1013 484 0
1014 484 0
1015 484 0
1016 484 0
1017 484 0
1018 484 0.99509004789631994
1019 484 0
1020 484 0
1525 484 0
1526 484 0
1527 484 0
1528 484 0
997 485 0
998 485 0
999 485 0
1000 485 0
1001 485 0
1002 485 0
1003 485 0
1004 485 0
1005 485 0
1006 485 0
1007 485 0
1008 485 0
1009 485 0
1010 485 0
1011 485 0
1012 485 0
1013 485 0
1014 485 0
1015 485 0
1016 485 0
1017 485 0
1018 485 0
1019 485 0.99509004789631994
1020 485 0
1525 485 0
1526 485 0
1527 485 0
1528 485 0
997 486 0
998 486 0
999 486 0
1000 486 0
1001 486 0
1002 486 0
1003 486 0
1004 486 0
1005 486 0
1006 486 0
1007 486 0
1008 486 0
1009 486 0
1010 486 0
1011 486 0
1012 486 0
1013 486 0
1014 486 0
1015 486 0
1016 486 0
1017 486 0
1018 486 0
1019 486 0
1020 486 0.99509004789631994
1525 486 0
1526 486 0
1527 486 0
1528 486 0
1521 487 0
1522 487 0
1523 487 0
1524 487 0
1676 487 0
1521 488 0.99878751991636638
1522 488 0
1523 488 0
1524 488 0
1676 488 0
1521 489 0
1522 489 0.99886974093913028
1523 489 0
1524 489 0
1676 489 0
1521 490 0
1522 490 0
1523 490 0.99859691322799182
1524 490 0
1676 490 0
1521 491 0
1522 491 0
1523 491 0
1524 491 0.99879118685427859
1676 491 0
1521 492 0
1522 492 0
1523 492 0
1524 492 0
1676 492 1
985 493 -0.99509004789631994
986 493 -0
987 493 -0
988 493 -0
989 493 -0
990 493 -0
991 493 -0
992 493 -0
993 493 -0
994 493 -0
995 493 -0
996 493 -0
997 493 0
998 493 0
999 493 0
1000 493 0
1001 493 0
1002 493 0
1003 493 0
1004 493 0
1005 493 0
1006 493 0
1007 493 0
1008 493 0
1521 493 -0.1803189598547551
1522 493 -0.25584631152049064
1523 493 -0.074765084896359371
1524 493 -0.06244980534901011
985 494 -0
986 494 -0.99509004789631994
987 494 -0
988 494 -0
989 494 -0
990 494 -0
991 494 -0
992 494 -0
993 494 -0
994 494 -0
995 494 -0
996 494 -0
997 494 0
998 494 0
999 494 0
1000 494 0
1001 494 0
1002 494 0
1003 494 0
1004 494 0
1005 494 0
1006 494 0
1007 494 0
1008 494 0
1521 494 0.10820261428783474
1522 494 0.080196783561304039
1523 494 -0.016866001348705428
1524 494 -0.17094248486675911
985 495 -0
986 495 -0
987 495 -0.99509004789631994
988 495 -0
989 495 -0
990 495 -0
991 495 -0
992 495 -0
993 495 -0
994 495 -0
995 495 -0
996 495 -0
997 495 0
998 495 0
999 495 0
1000 495 0
1001 495 0
1002 495 0
1003 495 0
1004 495 0
1005 495 0
1006 495 0
1007 495 0
1008 495 0
1521 495 0.021296203412182201
1522 495 0.06379387941368389
1523 495 0.33227429440027084
1524 495 0.038055274961526345
985 496 -0
986 496 -0
987 496 -0
988 496 -0.99509004789631994
989 496 -0
990 496 -0
991 496 -0
992 496 -0
993 496 -0
994 496 -0
995 496 -0
996 496 -0
997 496 0
998 496 0
999 496 0
1000 496 0
1001 496 0
1002 496 0
1003 496 0
1004 496 0
1005 496 0
1006 496 0
1007 496 0
1008 496 0
1521 496 0.19846746771042395
1522 496 0.13291349456905685
1523 496 -0.11659569025066187
1524 496 0.1709989853023412
985 497 -0
986 497 -0
987 497 -0
988 497 -0
989 497 -0.99509004789631994
990 497 -0
991 497 -0
992 497 -0
993 497 -0
994 497 -0
995 497 -0
996 497 -0
997 497 0
998 497 0
999 497 0
1000 497 0
1001 497 0
1002 497 0
1003 497 0
1004 497 0
1005 497 0
1006 497 0
1007 497 0
1008 497 0
1521 497 0.06406726430169403
1522 497 0.0077975121873435499
1523 497 -0.012888481757033089
1524 497 0.1821584263174176
985 498 -0
986 498 -0
987 498 -0
988 498 -0
989 498 -0
990 498 -0.99509004789631994
991 498 -0
992 498 -0
993 498 -0
994 498 -0
995 498 -0
996 498 -0
997 498 0
998 498 0
999 498 0
1000 498 0
1001 498 0
1002 498 0
1003 498 0
1004 498 0
1005 498 0
1006 498 0
1007 498 0
1008 498 0
1521 498 0.14930176975937659
1522 498 -0.1220518999462523
1523 498 -0.21437482240798272
1524 498 -0.27728111366749703
985 499 -0
986 499 -0
987 499 -0
988 499 -0
989 499 -0
990 499 -0
991 499 -0.99509004789631994
992 499 -0
993 499 -0
994 499 -0
995 499 -0
996 499 -0
997 499 0
998 499 0
999 499 0
1000 499 0
1001 499 0
1002 499 0
1003 499 0
1004 499 0
1005 499 0
1006 499 0
1007 499 0
1008 499 0
1521 499 -0.27832449100114248
1522 499 -0.023030066571549251
1523 499 0.085999904285044407
1524 499 0.14042558666593874
985 500 -0
986 500 -0
987 500 -0
988 500 -0
989 500 -0
990 500 -0
991 500 -0
992 500 -0.99509004789631994
993 500 -0
994 500 -0
995 500 -0
996 500 -0
997 500 0
998 500 0
999 500 0
1000 500 0
1001 500 0
1002 500 0
1003 500 0
1004 500 0
1005 500 0
1006 500 0
1007 500 0
1008 500 0
1521 500 0.14426661227624929
1522 500 0.019112219351713613
1523 500 -0.3383340256558125
1524 500 -0.26332006554483989
985 501 -0
986 501 -0
987 501 -0
988 501 -0
989 501 -0
990 501 -0
991 501 -0
992 501 -0
993 501 -0.99509004789631994
994 501 -0
995 501 -0
996 501 -0
997 501 0
998 501 0
999 501 0
1000 501 0
1001 501 0
1002 501 0
1003 501 0
1004 501 0
1005 501 0
1006 501 0
1007 501 0
1008 501 0
1521 501 -0.11462509557936003
1522 501 -0.065598224589830417
1523 501 0.12045547271290091
1524 501 0.066735657880519217
985 502 -0
986 502 -0
987 502 -0
988 502 -0
989 502 -0
990 502 -0
991 502 -0
992 502 -0
993 502 -0
994 502 -0.99509004789631994
995 502 -0
996 502 -0
997 502 0
998 502 0
999 502 0
1000 502 0
1001 502 0
1002 502 0
1003 502 0
1004 502 0
1005 502 0
1006 502 0
1007 502 0
1008 502 0
1521 502 0.1112726701807888
1522 502 -0.18163442438886057
1523 502 -0.24934842404473068
1524 502 0.087619788974651794
985 503 -0
986 503 -0
987 503 -0
988 503 -0
989 503 -0
990 503 -0
991 503 -0
992 503 -0
993 503 -0
994 503 -0
995 503 -0.99509004789631994
996 503 -0
997 503 0
998 503 0
999 503 0
1000 503 0
1001 503 0
1002 503 0
1003 503 0
1004 503 0
1005 503 0
1006 503 0
1007 503 0
1008 503 0
1521 503 0.0048220099123521959
1522 503 -0.09230703811323461
1523 503 -0.22028815111069383
1524 503 -0.062540089363958593
985 504 -0
986 504 -0
987 504 -0
988 504 -0
989 504 -0
990 504 -0
991 504 -0
992 504 -0
993 504 -0
994 504 -0
995 504 -0
996 504 -0.99509004789631994
997 504 0
998 504 0
999 504 0
1000 504 0
1001 504 0
1002 504 0
1003 504 0
1004 504 0
1005 504 0
1006 504 0
1007 504 0
1008 504 0
1521 504 0.22589481330245723
1522 504 0.085512196920050021
1523 504 -0.209328877595194
1524 504 0.014853171089538656
985 505 0
986 505 0
987 505 0
988 505 0
989 505 0
990 505 0
991 505 0
992 505 0
993 505 0
994 505 0
995 505 0
996 505 0
997 505 0.99509004789631994
998 505 0
999 505 0
1000 505 0
1001 505 0
1002 505 0
1003 505 0
1004 505 0
1005 505 0
1006 505 0
1007 505 0
1008 505 0
1521 505 0
1522 505 0
1523 505 0
1524 505 0
985 506 0
986 506 0
987 506 0
988 506 0
989 506 0
990 506 0
991 506 0
992 506 0
993 506 0
994 506 0
995 506 0
996 506 0
997 506 0
998 506 0.99509004789631994
999 506 0
1000 506 0
1001 506 0
1002 506 0
1003 506 0
1004 506 0
1005 506 0
1006 506 0
1007 506 0
1008 506 0
1521 506 0
1522 506 0
1523 506 0
1524 506 0
985 507 0
986 507 0
987 507 0
988 507 0
989 507 0
990 507 0
991 507 0
992 507 0
993 507 0
994 507 0
995 507 0
996 507 0
997 507 0
998 507 0
999 507 0.99509004789631994
1000 507 0
1001 507 0
1002 507 0
1003 507 0
1004 507 0
1005 507 0
1006 507 0
1007 507 0
1008 507 0
1521 507 0
1522 507 0
1523 507 0
1524 507 0
985 508 0
986 508 0
987 508 0
988 508 0
989 508 0
990 508 0
991 508 0
992 508 0
993 508 0
994 508 0
995 508 0
996 508 0
997 508 0
998 508 0
999 508 0
1000 508 0.99509004789631994
1001 508 0
1002 508 0
1003 508 0
1004 508 0
1005 508 0
1006 508 0
1007 508 0
1008 508 0
1521 508 0
1522 508 0
1523 508 0
1524 508 0
985 509 0
986 509 0
987 509 0
988 509 0
989 509 0
990 509 0
991 509 0
992 509 0
993 509 0
994 509 0
995 509 0
996 509 0
997 509 0
998 509 0
999 509 0
1000 509 0
1001 509 0.99509004789631994
1002 509 0
1003 509 0
1004 509 0
1005 509 0
1006 509 0
1007 509 0
1008 509 0
1521 509 0
1522 509 0
1523 509 0
1524 509 0
985 510 0
986 510 0
987 510 0
988 510 0
989 510 0
990 510 0
991 510 0
992 510 0
993 510 0
994 510 0
995 510 0
996 510 0
997 510 0
998 510 0
999 510 0
1000 510 0
1001 510 0
1002 510 0.99509004789631994
1003 510 0
1004 510 0
1005 510 0
1006 510 0
1007 510 0
1008 510 0
1521 510 0
1522 510 0
1523 510 0
1524 510 0
985 511 0
986 511 0
987 511 0
988 511 0
989 511 0
990 511 0
991 511 0
992 511 0
993 511 0
994 511 0
995 511 0
996 511 0
997 511 0
998 511 0
999 511 0
1000 511 0
1001 511 0
1002 511 0
1003 511 0.99509004789631994
1004 511 0
1005 511 0
1006 511 0
1007 511 0
1008 511 0
1521 511 0
1522 511 0
1523 511 0
1524 511 0
985 512 0
986 512 0
987 512 0
988 512 0
989 512 0
990 512 0
991 512 0
992 512 0
993 512 0
994 512 0
995 512 0
996 512 0
997 512 0
998 512 0
999 512 0
1000 512 0
1001 512 0
1002 512 0
1003 512 0
1004 512 0.99509004789631994
1005 512 0
1006 512 0
1007 512 0
1008 512 0
1521 512 0
1522 512 0
1523 512 0
1524 512 0
985 513 0
986 513 0
987 513 0
988 513 0
989 513 0
990 513 0
991 513 0
992 513 0
993 513 0
994 513 0
995 513 0
996 513 0
997 513 0
998 513 0
999 513 0
1000 513 0
1001 513 0
1002 513 0
1003 513 0
1004 513 0
1005 513 0.99509004789631994
1006 513 0
1007 513 0
1008 513 0
1521 513 0
1522 513 0
1523 513 0
1524 513 0
985 514 0
986 514 0
987 514 0
988 514 0
989 514 0
990 514 0
991 514 0
992 514 0
993 514 0
994 514 0
995 514 0
996 514 0
997 514 0
998 514 0
999 514 0
1000 514 0
1001 514 0
1002 514 0
1003 514 0
1004 514 0
1005 514 0
1006 514 0.99509004789631994
1007 514 0
1008 514 0
1521 514 0
1522 514 0
1523 514 0
1524 514 0
985 515 0
986 515 0
987 515 0
988 515 0
989 515 0
990 515 0
991 515 0
992 515 0
993 515 0
994 515 0
995 515 0
996 515 0
997 515 0
998 515 0
999 515 0
1000 515 0
1001 515 0
1002 515 0
1003 515 0
1004 515 0
1005 515 0
1006 515 0
1007 515 0.99509004789631994
1008 515 0
1521 515 0
1522 515 0
1523 515 0
1524 515 0
985 516 0
986 516 0
987 516 0
988 516 0
989 516 0
990 516 0
991 516 0
992 516 0
993 516 0
994 516 0
995 516 0
996 516 0
997 516 0
998 516 0
999 516 0
1000 516 0
1001 516 0
1002 516 0
1003 516 0
1004 516 0
1005 516 0
1006 516 0
1007 516 0
1008 516 0.99509004789631994
1521 516 0
1522 516 0
1523 516 0
1524 516 0
1517 517 0
1518 517 0
1519 517 0
1520 517 0
1675 517 0
1517 518 0.99878751991636638
1518 518 0
1519 518 0
1520 518 0
1675 518 0
1517 519 0
1518 519 0.99886974093913028
1519 519 0
1520 519 0
1675 519 0
1517 520 0
1518 520 0
1519 520 0.99859691322799182
1520 520 0
1675 520 0
1517 521 0
1518 521 0
1519 521 0
1520 521 0.99879118685427859
1675 521 0
1517 522 0
1518 522 0
1519 522 0
1520 522 0
1675 522 1
973 523 -0.99509004789631994
974 523 -0
975 523 -0
976 523 -0
977 523 -0
978 523 -0
979 523 -0
980 523 -0
981 523 -0
982 523 -0
983 523 -0
984 523 -0
985 523 0
986 523 0
987 523 0
988 523 0
989 523 0
990 523 0
991 523 0
992 523 0
993 523 0
994 523 0
995 523 0
996 523 0
1517 523 -0.1803189598547551
1518 523 -0.25584631152049064
1519 523 -0.074765084896359371
1520 523 -0.06244980534901011
973 524 -0
974 524 -0.99509004789631994
975 524 -0
976 524 -0
977 524 -0
978 524 -0
979 524 -0
980 524 -0
981 524 -0
982 524 -0
983 524 -0
984 524 -0
985 524 0
986 524 0
987 524 0
988 524 0
989 524 0
990 524 0
991 524 0
992 524 0
993 524 0
994 524 0
995 524 0
996 524 0
1517 524 0.10820261428783474
1518 524 0.080196783561304039
1519 524 -0.016866001348705428
1520 524 -0.17094248486675911
973 525 -0
974 525 -0
975 525 -0.99509004789631994
976 525 -0
977 525 -0
978 525 -0
979 525 -0
980 525 -0
981 525 -0
982 525 -0
983 525 -0
984 525 -0
985 525 0
986 525 0
987 525 0
988 525 0
989 525 0
990 525 0
991 525 0
992 525 0
993 525 0
994 525 0
995 525 0
996 525 0
1517 525 0.021296203412182201
1518 525 0.06379387941368389
1519 525 0.33227429440027084
1520 525 0.038055274961526345
973 526 -0
974 526 -0
975 526 -0
976 526 -0.99509004789631994
977 526 -0
978 526 -0
979 526 -0
980 526 -0
981 526 -0
982 526 -0
983 526 -0
984 526 -0
985 526 0
986 526 0
987 526 0
988 526 0
989 526 0
990 526 0
991 526 0
992 526 0
993 526 0
994 526 0
995 526 0
996 526 0
1517 526 0.19846746771042395
1518 526 0.13291349456905685
1519 526 -0.11659569025066187
1520 526 0.1709989853023412
973 527 -0
974 527 -0
975 527 -0
976 527 -0
977 527 -0.99509004789631994
978 527 -0
979 527 -0
980 527 -0
981 527 -0
982 527 -0
983 527 -0
984 527 -0
985 527 0
986 527 0
987 527 0
988 527 0
989 527 0
990 527 0
991 527 0
992 527 0
993 527 0
994 527 0
995 527 0
996 527 0
1517 527 0.06406726430169403
1518 527 0.0077975121873435499
1519 527 -0.012888481757033089
1520 527 0.1821584263174176
973 528 -0
974 528 -0
975 528 -0
976 528 -0
977 528 -0
978 528 -0.99509004789631994
979 528 -0
980 528 -0
981 528 -0
982 528 -0
983 528 -0
984 528 -0
985 528 0
986 528 0
987 528 0
988 528 0
989 528 0
990 528 0
991 528 0
992 528 0
993 528 0
994 528 0
995 528 0
996 528 0
1517 528 0.14930176975937659
1518 528 -0.1220518999462523
1519 528 -0.21437482240798272
1520 528 -0.27728111366749703
973 529 -0
974 529 -0
975 529 -0
976 529 -0
977 529 -0
978 529 -0
979 529 -0.99509004789631994
980 529 -0
981 529 -0
982 529 -0
983 529 -0
984 529 -0
985 529 0
986 529 0
987 529 0
988 529 0
989 529 0
990 529 0
991 529 0
992 529 0
993 529 0
994 529 0
995 529 0
996 529 0
1517 529 -0.27832449100114248
1518 529 -0.023030066571549251
1519 529 0.085999904285044407
1520 529 0.14042558666593874
973 530 -0
974 530 -0
975 530 -0
976 530 -0
977 530 -0
978 530 -0
979 530 -0
980 530 -0.99509004789631994
981 530 -0
982 530 -0
983 530 -0
984 530 -0
985 530 0
986 530 0
987 530 0
988 530 0
989 530 0
990 530 0
991 530 0
992 530 0
993 530 0
994 530 0
995 530 0
996 530 0
1517 530 0.14426661227624929
1518 530 0.019112219351713613
1519 530 -0.3383340256558125
1520 530 -0.26332006554483989
973 531 -0
974 531 -0
975 531 -0
976 531 -0
977 531 -0
978 531 -0
979 531 -0
980 531 -0
981 531 -0.99509004789631994
982 531 -0
983 531 -0
984 531 -0
985 531 0
986 531 0
987 531 0
988 531 0
989 531 0
990 531 0
991 531 0
992 531 0
993 531 0
994 531 0
995 531 0
996 531 0
1517 531 -0.11462509557936003
1518 531 -0.065598224589830417
1519 531 0.12045547271290091
1520 531 0.066735657880519217
973 532 -0
974 532 -0
975 532 -0
976 532 -0
977 532 -0
978 532 -0
979 532 -0
980 532 -0
981 532 -0
982 532 -0.99509004789631994
983 532 -0
984 532 -0
985 532 0
986 532 0
987 532 0
988 532 0
989 532 0
990 532 0
991 532 0
992 532 0
993 532 0
994 532 0
995 532 0
996 532 0
1517 532 0.1112726701807888
1518 532 -0.18163442438886057
1519 532 -0.24934842404473068
1520 532 0.087619788974651794
973 533 -0
974 533 -0
975 533 -0
976 533 -0
977 533 -0
978 533 -0
979 533 -0
980 533 -0
981 533 -0
982 533 -0
983 533 -0.99509004789631994
984 533 -0
985 533 0
986 533 0
987 533 0
988 533 0
989 533 0
990 533 0
991 533 0
992 533 0
993 533 0
994 533 0
995 533 0
996 533 0
1517 533 0.0048220099123521959
1518 533 -0.09230703811323461
1519 533 -0.22028815111069383
1520 533 -0.062540089363958593
973 534 -0
974 534 -0
975 534 -0
976 534 -0
977 534 -0
978 534 -0
979 534 -0
980 534 -0
981 534 -0
982 534 -0
983 534 -0
984 534 -0.99509004789631994
985 534 0
986 534 0
987 534 0
988 534 0
989 534 0
990 534 0
991 534 0
992 534 0
993 534 0
994 534 0
995 534 0
996 534 0
1517 534 0.22589481330245723
1518 534 0.085512196920050021
1519 534 -0.209328877595194
1520 534 0.014853171089538656
973 535 0
974 535 0
975 535 0
976 535 0
977 535 0
978 535 0
979 535 0
980 535 0
981 535 0
982 535 0
983 535 0
984 535 0
985 535 0.99509004789631994
986 535 0
987 535 0
988 535 0
989 535 0
990 535 0
991 535 0
992 535 0
993 535 0
994 535 0
995 535 0
996 535 0
1517 535 0
1518 535 0
1519 535 0
1520 535 0
973 536 0
974 536 0
975 536 0
976 536 0
977 536 0
978 536 0
979 536 0
980 536 0
981 536 0
982 536 0
983 536 0
984 536 0
985 536 0
986 536 0.99509004789631994
987 536 0
988 536 0
989 536 0
990 536 0
991 536 0
992 536 0
993 536 0
994 536 0
995 536 0
996 536 0
1517 536 0
1518 536 0
1519 536 0
1520 536 0
973 537 0
974 537 0
975 537 0
976 537 0
977 537 0
978 537 0
979 537 0
980 537 0
981 537 0
982 537 0
983 537 0
984 537 0
985 537 0
986 537 0
987 537 0.99509004789631994
988 537 0
989 537 0
990 537 0
991 537 0
992 537 0
993 537 0
994 537 0
995 537 0
996 537 0
1517 537 0
1518 537 0
1519 537 0
1520 537 0
973 538 0
974 538 0
975 538 0
976 538 0
977 538 0
978 538 0
979 538 0
980 538 0
981 538 0
982 538 0
983 538 0
984 538 0
985 538 0
986 538 0
987 538 0
988 538 0.99509004789631994
989 538 0
990 538 0
991 538 0
992 538 0
993 538 0
994 538 0
995 538 0
996 538 0
1517 538 0
1518 538 0
1519 538 0
1520 538 0
973 539 0
974 539 0
975 539 0
976 539 0
977 539 0
978 539 0
979 539 0
980 539 0
981 539 0
982 539 0
983 539 0
984 539 0
985 539 0
986 539 0
987 539 0
988 539 0
989 539 0.99509004789631994
990 539 0
991 539 0
992 539 0
993 539 0
994 539 0
995 539 0
996 539 0
1517 539 0
1518 539 0
1519 539 0
1520 539 0
973 540 0
974 540 0
975 540 0
976 540 0
977 540 0
978 540 0
979 540 0
980 540 0
981 540 0
982 540 0
983 540 0
984 540 0
985 540 0
986 540 0
987 540 0
988 540 0
989 540 0
990 540 0.99509004789631994
991 540 0
992 540 0
993 540 0
994 540 0
995 540 0
996 540 0
1517 540 0
1518 540 0
1519 540 0
1520 540 0
973 541 0
974 541 0
975 541 0
976 541 0
977 541 0
978 541 0
979 541 0
980 541 0
981 541 0
982 541 0
983 541 0
984 541 0
985 541 0
986 541 0
987 541 0
988 541 0
989 541 0
990 541 0
991 541 0.99509004789631994
992 541 0
993 541 0
994 541 0
995 541 0
996 541 0
1517 541 0
1518 541 0
1519 541 0
1520 541 0
973 542 0
974 542 0
975 542 0
976 542 0
977 542 0
978 542 0
979 542 0
980 542 0
981 542 0
982 542 0
983 542 0
984 542 0
985 542 0
986 542 0
987 542 0
988 542 0
989 542 0
990 542 0
991 542 0
992 542 0.99509004789631994
993 542 0
994 542 0
995 542 0
996 542 0
1517 542 0
1518 542 0
1519 542 0
1520 542 0
973 543 0
974 543 0
975 543 0
976 543 0
977 543 0
978 543 0
979 543 0
980 543 0
981 543 0
982 543 0
983 543 0
984 543 0
985 543 0
986 543 0
987 543 0
988 543 0
989 543 0
990 543 0
991 543 0
992 543 0
993 543 0.99509004789631994
994 543 0
995 543 0
996 543 0
1517 543 0
1518 543 0
1519 543 0
1520 543 0
973 544 0
974 544 0
975 544 0
976 544 0
977 544 0
978 544 0
979 544 0
980 544 0
981 544 0
982 544 0
983 544 0
984 544 0
985 544 0
986 544 0
987 544 0
988 544 0
989 544 0
990 544 0
991 544 0
992 544 0
993 544 0
994 544 0.99509004789631994
995 544 0
996 544 0
1517 544 0
1518 544 0
1519 544 0
1520 544 0
973 545 0
974 545 0
975 545 0
976 545 0
977 545 0
978 545 0
979 545 0
980 545 0
981 545 0
982 545 0
983 545 0
984 545 0
985 545 0
986 545 0
987 545 0
988 545 0
989 545 0
990 545 0
991 545 0
992 545 0
993 545 0
994 545 0
995 545 0.99509004789631994
996 545 0
1517 545 0
1518 545 0
1519 545 0
1520 545 0
973 546 0
974 546 0
975 546 0
976 546 0
977 546 0
978 546 0
979 546 0
980 546 0
981 546 0
982 546 0
983 546 0
984 546 0
985 546 0
986 546 0
987 546 0
988 546 0
989 546 0
990 546 0
991 546 0
992 546 0
993 546 0
994 546 0
995 546 0
996 546 0.99509004789631994
1517 546 0
1518 546 0
1519 546 0
1520 546 0
1513 547 0
1514 547 0
1515 547 0
1516 547 0
1674 547 0
1513 548 0.99878751991636638
1514 548 0
1515 548 0
1516 548 0
1674 548 0
1513 549 0
1514 549 0.99886974093913028
1515 549 0
1516 549 0
1674 549 0
1513 550 0
1514 550 0
1515 550 0.99859691322799182
1516 550 0
1674 550 0
1513 551 0
1514 551 0
1515 551 0
1516 551 0.99879118685427859
1674 551 0
1513 552 0
1514 552 0
1515 552 0
1516 552 0
1674 552 1
961 553 -0.99509004789631994
962 553 -0
963 553 -0
964 553 -0
965 553 -0
966 553 -0
967 553 -0
968 553 -0
969 553 -0
970 553 -0
971 553 -0
972 553 -0
973 553 0
974 553 0
975 553 0
976 553 0
977 553 0
978 553 0
979 553 0
980 553 0
981 553 0
982 553 0
983 553 0
984 553 0
1513 553 -0.1803189598547551
1514 553 -0.25584631152049064
1515 553 -0.074765084896359371
1516 553 -0.06244980534901011
961 554 -0
962 554 -0.99509004789631994
963 554 -0
964 554 -0
965 554 -0
966 554 -0
967 554 -0
968 554 -0
969 554 -0
970 554 -0
971 554 -0
972 554 -0
973 554 0
974 554 0
975 554 0
976 554 0
977 554 0
978 554 0
979 554 0
980 554 0
981 554 0
982 554 0
983 554 0
984 554 0
1513 554 0.10820261428783474
1514 554 0.080196783561304039
1515 554 -0.016866001348705428
1516 554 -0.17094248486675911
961 555 -0
962 555 -0
963 555 -0.99509004789631994
964 555 -0
965 555 -0
966 555 -0
967 555 -0
968 555 -0
969 555 -0
970 555 -0
971 555 -0
972 555 -0
973 555 0
974 555 0
975 555 0
976 555 0
977 555 0
978 555 0
979 555 0
980 555 0
981 555 0
982 555 0
983 555 0
984 555 0
1513 555 0.021296203412182201
1514 555 0.06379387941368389
1515 555 0.33227429440027084
1516 555 0.038055274961526345
961 556 -0
962 556 -0
963 556 -0
964 556 -0.99509004789631994
965 556 -0
966 556 -0
967 556 -0
968 556 -0
969 556 -0
970 556 -0
971 556 -0
972 556 -0
973 556 0
974 556 0
975 556 0
976 556 0
977 556 0
978 556 0
979 556 0
980 556 0
981 556 0
982 556 0
983 556 0
984 556 0
1513 556 0.19846746771042395
1514 556 0.13291349456905685
1515 556 -0.11659569025066187
1516 556 0.1709989853023412
961 557 -0
962 557 -0
963 557 -0
964 557 -0
965 557 -0.99509004789631994
966 557 -0
967 557 -0
968 557 -0
969 557 -0
970 557 -0
971 557 -0
972 557 -0
973 557 0
974 557 0
975 557 0
976 557 0
977 557 0
978 557 0
979 557 0
980 557 0
981 557 0
982 557 0
983 557 0
984 557 0
1513 557 0.06406726430169403
1514 557 0.0077975121873435499
1515 557 -0.012888481757033089
1516 557 0.1821584263174176
961 558 -0
962 558 -0
963 558 -0
964 558 -0
965 558 -0
966 558 -0.99509004789631994
967 558 -0
968 558 -0
969 558 -0
970 558 -0
971 558 -0
972 558 -0
973 558 0
974 558 0
975 558 0
976 558 0
977 558 0
978 558 0
979 558 0
980 558 0
981 558 0
982 558 0
983 558 0
984 558 0
1513 558 0.14930176975937659
1514 558 -0.1220518999462523
1515 558 -0.21437482240798272
1516 558 -0.27728111366749703
961 559 -0
962 559 -0
963 559 -0
964 559 -0
965 559 -0
966 559 -0
967 559 -0.99509004789631994
968 559 -0
969 559 -0
970 559 -0
971 559 -0
972 559 -0
973 559 0
974 559 0
975 559 0
976 559 0
977 559 0
978 559 0
979 559 0
980 559 0
981 559 0
982 559 0
983 559 0
984 559 0
1513 559 -0.27832449100114248
1514 559 -0.023030066571549251
1515 559 0.085999904285044407
1516 559 0.14042558666593874
961 560 -0
962 560 -0
963 560 -0
964 560 -0
965 560 -0
966 560 -0
967 560 -0
968 560 -0.99509004789631994
969 560 -0
970 560 -0
971 560 -0
972 560 -0
973 560 0
974 560 0
975 560 0
976 560 0
977 560 0
978 560 0
979 560 0
980 560 0
981 560 0
982 560 0
983 560 0
984 560 0
1513 560 0.14426661227624929
1514 560 0.019112219351713613
1515 560 -0.3383340256558125
1516 560 -0.26332006554483989
961 561 -0
962 561 -0
963 561 -0
964 561 -0
965 561 -0
966 561 -0
967 561 -0
968 561 -0
969 561 -0.99509004789631994
970 561 -0
971 561 -0
972 561 -0
973 561 0
974 561 0
975 561 0
976 561 0
977 561 0
978 561 0
979 561 0
980 561 0
981 561 0
982 561 0
983 561 0
984 561 0
1513 561 -0.11462509557936003
1514 561 -0.065598224589830417
1515 561 0.12045547271290091
1516 561 0.066735657880519217
961 562 -0
962 562 -0
963 562 -0
964 562 -0
965 562 -0
966 562 -0
967 562 -0
968 562 -0
969 562 -0
970 562 -0.99509004789631994
971 562 -0
972 562 -0
973 562 0
974 562 0
975 562 0
976 562 0
977 562 0
978 562 0
979 562 0
980 562 0
981 562 0
982 562 0
983 562 0
984 562 0
1513 562 0.1112726701807888
1514 562 -0.18163442438886057
1515 562 -0.24934842404473068
1516 562 0.087619788974651794
961 563 -0
962 563 -0
963 563 -0
964 563 -0
965 563 -0
966 563 -0
967 563 -0
968 563 -0
969 563 -0
970 563 -0
971 563 -0.99509004789631994
972 563 -0
973 563 0
974 563 0
975 563 0
976 563 0
977 563 0
978 563 0
979 563 0
980 563 0
981 563 0
982 563 0
983 563 0
984 563 0
1513 563 0.0048220099123521959
1514 563 -0.09230703811323461
1515 563 -0.22028815111069383
1516 563 -0.062540089363958593
961 564 -0
962 564 -0
963 564 -0
964 564 -0
965 564 -0
966 564 -0
967 564 -0
968 564 -0
969 564 -0
970 564 -0
971 564 -0
972 564 -0.99509004789631994
973 564 0
974 564 0
975 564 0
976 564 0
977 564 0
978 564 0
979 564 0
980 564 0
981 564 0
982 564 0
983 564 0
984 564 0
1513 564 0.22589481330245723
1514 564 0.085512196920050021
1515 564 -0.209328877595194
1516 564 0.014853171089538656
961 565 0
962 565 0
963 565 0
964 565 0
965 565 0
966 565 0
967 565 0
968 565 0
969 565 0
970 565 0
971 565 0
972 565 0
973 565 0.99509004789631994
974 565 0
975 565 0
976 565 0
977 565 0
978 565 0
979 565 0
980 565 0
981 565 0
982 565 0
983 565 0
984 565 0
1513 565 0
1514 565 0
1515 565 0
1516 565 0
961 566 0
962 566 0
963 566 0
964 566 0
965 566 0
966 566 0
967 566 0
968 566 0
969 566 0
970 566 0
971 566 0
972 566 0
973 566 0
974 566 0.99509004789631994
975 566 0
976 566 0
977 566 0
978 566 0
979 566 0
980 566 0
981 566 0
982 566 0
983 566 0
984 566 0
1513 566 0
1514 566 0
1515 566 0
1516 566 0
961 567 0
962 567 0
963 567 0
964 567 0
965 567 0
966 567 0
967 567 0
968 567 0
969 567 0
970 567 0
971 567 0
972 567 0
973 567 0
974 567 0
975 567 0.99509004789631994
976 567 0
977 567 0
978 567 0
979 567 0
980 567 0
981 567 0
982 567 0
983 567 0
984 567 0
1513 567 0
1514 567 0
1515 567 0
1516 567 0
961 568 0
962 568 0
963 568 0
964 568 0
965 568 0
966 568 0
967 568 0
968 568 0
969 568 0
970 568 0
971 568 0
972 568 0
973 568 0
974 568 0
975 568 0
976 568 0.99509004789631994
977 568 0
978 568 0
979 568 0
980 568 0
981 568 0
982 568 0
983 568 0
984 568 0
1513 568 0
1514 568 0
1515 568 0
1516 568 0
961 569 0
962 569 0
963 569 0
964 569 0
965 569 0
966 569 0
967 569 0
968 569 0
969 569 0
970 569 0
971 569 0
972 569 0
973 569 0
974 569 0
975 569 0
976 569 0
977 569 0.99509004789631994
978 569 0
979 569 0
980 569 0
981 569 0
982 569 0
983 569 0
984 569 0
1513 569 0
1514 569 0
1515 569 0
1516 569 0
961 570 0
962 570 0
963 570 0
964 570 0
965 570 0
966 570 0
967 570 0
968 570 0
969 570 0
970 570 0
971 570 0
972 570 0
973 570 0
974 570 0
975 570 0
976 570 0
977 570 0
978 570 0.99509004789631994
979 570 0
980 570 0
981 570 0
982 570 0
983 570 0
984 570 0
1513 570 0
1514 570 0
1515 570 0
1516 570 0
961 571 0
962 571 0
963 571 0
964 571 0
965 571 0
966 571 0
967 571 0
968 571 0
969 571 0
970 571 0
971 571 0
972 571 0
973 571 0
974 571 0
975 571 0
976 571 0
977 571 0
978 571 0
979 571 0.99509004789631994
980 571 0
981 571 0
982 571 0
983 571 0
984 571 0
1513 571 0
1514 571 0
1515 571 0
1516 571 0
961 572 0
962 572 0
963 572 0
964 572 0
965 572 0
966 572 0
967 572 0
968 572 0
969 572 0
970 572 0
971 572 0
972 572 0
973 572 0
974 572 0
975 572 0
976 572 0
977 572 0
978 572 0
979 572 0
980 572 0.99509004789631994
981 572 0
982 572 0
983 572 0
984 572 0
1513 572 0
1514 572 0
1515 572 0
1516 572 0
961 573 0
962 573 0
963 573 0
964 573 0
965 573 0
966 573 0
967 573 0
968 573 0
969 573 0
970 573 0
971 573 0
972 573 0
973 573 0
974 573 0
975 573 0
976 573 0
977 573 0
978 573 0
979 573 0
980 573 0
981 573 0.99509004789631994
982 573 0
983 573 0
984 573 0
1513 573 0
1514 573 0
1515 573 0
1516 573 0
961 574 0
962 574 0
963 574 0
964 574 0
965 574 0
966 574 0
967 574 0
968 574 0
969 574 0
970 574 0
971 574 0
972 574 0
973 574 0
974 574 0
975 574 0
976 574 0
977 574 0
978 574 0
979 574 0
980 574 0
981 574 0
982 574 0.99509004789631994
983 574 0
984 574 0
1513 574 0
1514 574 0
1515 574 0
1516 574 0
961 575 0
962 575 0
963 575 0
964 575 0
965 575 0
966 575 0
967 575 0
968 575 0
969 575 0
970 575 0
971 575 0
972 575 0
973 575 0
974 575 0
975 575 0
976 575 0
977 575 0
978 575 0
979 575 0
980 575 0
981 575 0
982 575 0
983 575 0.99509004789631994
984 575 0
1513 575 0
1514 575 0
1515 575 0
1516 575 0
961 576 0
962 576 0
963 576 0
964 576 0
965 576 0
966 576 0
967 576 0
968 576 0
969 576 0
970 576 0
971 576 0
972 576 0
973 576 0
974 576 0
975 576 0
976 576 0
977 576 0
978 576 0
979 576 0
980 576 0
981 576 0
982 576 0
983 576 0
984 576 0.99509004789631994
1513 576 0
1514 576 0
1515 576 0
1516 576 0
1509 577 0
1510 577 0
1511 577 0
1512 577 0
1673 577 0
1509 578 0.99878751991636638
1510 578 0
1511 578 0
1512 578 0
1673 578 0
1509 579 0
1510 579 0.99886974093913028
1511 579 0
1512 579 0
1673 579 0
1509 580 0
1510 580 0
1511 580 0.99859691322799182
1512 580 0
1673 580 0
1509 581 0
1510 581 0
1511 581 0
1512 581 0.99879118685427859
1673 581 0
1509 582 0
1510 582 0
1511 582 0
1512 582 0
1673 582 1
949 583 -0.99509004789631994
950 583 -0
951 583 -0
952 583 -0
953 583 -0
954 583 -0
955 583 -0
956 583 -0
957 583 -0
958 583 -0
959 583 -0
960 583 -0
961 583 0
962 583 0
963 583 0
964 583 0
965 583 0
966 583 0
967 583 0
968 583 0
969 583 0
970 583 0
971 583 0
972 583 0
1509 583 -0.1803189598547551
1510 583 -0.25584631152049064
1511 583 -0.074765084896359371
1512 583 -0.06244980534901011
949 584 -0
950 584 -0.99509004789631994
951 584 -0
952 584 -0
953 584 -0
954 584 -0
955 584 -0
956 584 -0
957 584 -0
958 584 -0
959 584 -0
960 584 -0
961 584 0
962 584 0
963 584 0
964 584 0
965 584 0
966 584 0
967 584 0
968 584 0
969 584 0
970 584 0
971 584 0
972 584 0
1509 584 0.10820261428783474
1510 584 0.080196783561304039
1511 584 -0.016866001348705428
1512 584 -0.17094248486675911
949 585 -0
950 585 -0
951 585 -0.99509004789631994
952 585 -0
953 585 -0
954 585 -0
955 585 -0
956 585 -0
957 585 -0
958 585 -0
959 585 -0
960 585 -0
961 585 0
962 585 0
963 585 0
964 585 0
965 585 0
966 585 0
967 585 0
968 585 0
969 585 0
970 585 0
971 585 0
972 585 0
1509 585 0.021296203412182201
1510 585 0.06379387941368389
1511 585 0.33227429440027084
1512 585 0.038055274961526345
949 586 -0
950 586 -0
951 586 -0
952 586 -0.99509004789631994
953 586 -0
954 586 -0
955 586 -0
956 586 -0
957 586 -0
958 586 -0
959 586 -0
960 586 -0
961 586 0
962 586 0
963 586 0
964 586 0
965 586 0
966 586 0
967 586 0
968 586 0
969 586 0
970 586 0
971 586 0
972 586 0
1509 586 0.19846746771042395
1510 586 0.13291349456905685
1511 586 -0.11659569025066187
1512 586 0.1709989853023412
949 587 -0
950 587 -0
951 587 -0
952 587 -0
953 587 -0.99509004789631994
954 587 -0
955 587 -0
956 587 -0
957 587 -0
958 587 -0
959 587 -0
960 587 -0
961 587 0
962 587 0
963 587 0
964 587 0
965 587 0
966 587 0
967 587 0
968 587 0
969 587 0
970 587 0
971 587 0
972 587 0
1509 587 0.06406726430169403
1510 587 0.0077975121873435499
1511 587 -0.012888481757033089
1512 587 0.1821584263174176
949 588 -0
950 588 -0
951 588 -0
952 588 -0
953 588 -0
954 588 -0.99509004789631994
955 588 -0
956 588 -0
957 588 -0
958 588 -0
959 588 -0
960 588 -0
961 588 0
962 588 0
963 588 0
964 588 0
965 588 0
966 588 0
967 588 0
968 588 0
969 588 0
970 588 0
971 588 0
972 588 0
1509 588 0.14930176975937659
1510 588 -0.1220518999462523
1511 588 -0.21437482240798272
1512 588 -0.27728111366749703
949 589 -0
950 589 -0
951 589 -0
952 589 -0
953 589 -0
954 589 -0
955 589 -0.99509004789631994
956 589 -0
957 589 -0
958 589 -0
959 589 -0
960 589 -0
961 589 0
962 589 0
963 589 0
964 589 0
965 589 0
966 589 0
967 589 0
968 589 0
969 589 0
970 589 0
971 589 0
972 589 0
1509 589 -0.27832449100114248
1510 589 -0.023030066571549251
1511 589 0.085999904285044407
1512 589 0.14042558666593874
949 590 -0
950 590 -0
951 590 -0
952 590 -0
953 590 -0
954 590 -0
955 590 -0
956 590 -0.99509004789631994
957 590 -0
958 590 -0
959 590 -0
960 590 -0
961 590 0
962 590 0
963 590 0
964 590 0
965 590 0
966 590 0
967 590 0
968 590 0
969 590 0
970 590 0
971 590 0
972 590 0
1509 590 0.14426661227624929
1510 590 0.019112219351713613
1511 590 -0.3383340256558125
1512 590 -0.26332006554483989
949 591 -0
950 591 -0
951 591 -0
952 591 -0
953 591 -0
954 591 -0
955 591 -0
956 591 -0
957 591 -0.99509004789631994
958 591 -0
959 591 -0
960 591 -0
961 591 0
962 591 0
963 591 0
964 591 0
965 591 0
966 591 0
967 591 0
968 591 0
969 591 0
970 591 0
971 591 0
972 591 0
1509 591 -0.11462509557936003
1510 591 -0.065598224589830417
1511 591 0.12045547271290091
1512 591 0.066735657880519217
949 592 -0
950 592 -0
951 592 -0
952 592 -0
953 592 -0
954 592 -0
955 592 -0
956 592 -0
957 592 -0
958 592 -0.99509004789631994
959 592 -0
960 592 -0
961 592 0
962 592 0
963 592 0
964 592 0
965 592 0
966 592 0
967 592 0
968 592 0
969 592 0
970 592 0
971 592 0
972 592 0
1509 592 0.1112726701807888
1510 592 -0.18163442438886057
1511 592 -0.24934842404473068
1512 592 0.087619788974651794
949 593 -0
950 593 -0
951 593 -0
952 593 -0
953 593 -0
954 593 -0
955 593 -0
956 593 -0
957 593 -0
958 593 -0
959 593 -0.99509004789631994
960 593 -0
961 593 0
962 593 0
963 593 0
964 593 0
965 593 0
966 593 0
967 593 0
968 593 0
969 593 0
970 593 0
971 593 0
972 593 0
1509 593 0.0048220099123521959
1510 593 -0.09230703811323461
1511 593 -0.22028815111069383
1512 593 -0.062540089363958593
949 594 -0
950 594 -0
951 594 -0
952 594 -0
953 594 -0
954 594 -0
955 594 -0
956 594 -0
957 594 -0
958 594 -0
959 594 -0
960 594 -0.99509004789631994
961 594 0
962 594 0
963 594 0
964 594 0
965 594 0
966 594 0
967 594 0
968 594 0
969 594 0
970 594 0
971 594 0
972 594 0
1509 594 0.22589481330245723
1510 594 0.085512196920050021
1511 594 -0.209328877595194
1512 594 0.014853171089538656
949 595 0
950 595 0
951 595 0
952 595 0
953 595 0
954 595 0
955 595 0
956 595 0
957 595 0
958 595 0
959 595 0
960 595 0
961 595 0.99509004789631994
962 595 0
963 595 0
964 595 0
965 595 0
966 595 0
967 595 0
968 595 0
969 595 0
970 595 0
971 595 0
972 595 0
1509 595 0
1510 595 0
1511 595 0
1512 595 0
949 596 0
950 596 0
951 596 0
952 596 0
953 596 0
954 596 0
955 596 0
956 596 0
957 596 0
958 596 0
959 596 0
960 596 0
961 596 0
962 596 0.99509004789631994
963 596 0
964 596 0
965 596 0
966 596 0
967 596 0
968 596 0
969 596 0
970 596 0
971 596 0
972 596 0
1509 596 0
1510 596 0
1511 596 0
1512 596 0
949 597 0
950 597 0
951 597 0
952 597 0
953 597 0
954 597 0
955 597 0
956 597 0
957 597 0
958 597 0
959 597 0
960 597 0
961 597 0
962 597 0
963 597 0.99509004789631994
964 597 0
965 597 0
966 597 0
967 597 0
968 597 0
969 597 0
970 597 0
971 597 0
972 597 0
1509 597 0
1510 597 0
1511 597 0
1512 597 0
949 598 0
950 598 0
951 598 0
952 598 0
953 598 0
954 598 0
955 598 0
956 598 0
957 598 0
958 598 0
959 598 0
960 598 0
961 598 0
962 598 0
963 598 0
964 598 0.99509004789631994
965 598 0
966 598 0
967 598 0
968 598 0
969 598 0
970 598 0
971 598 0
972 598 0
1509 598 0
1510 598 0
1511 598 0
1512 598 0
949 599 0
950 599 0
951 599 0
952 599 0
953 599 0
954 599 0
955 599 0
956 599 0
957 599 0
958 599 0
959 599 0
960 599 0
961 599 0
962 599 0
963 599 0
964 599 0
965 599 0.99509004789631994
966 599 0
967 599 0
968 599 0
969 599 0
970 599 0
971 599 0
972 599 0
1509 599 0
1510 599 0
1511 599 0
1512 599 0
949 600 0
950 600 0
951 600 0
952 600 0
953 600 0
954 600 0
955 600 0
956 600 0
957 600 0
958 600 0
959 600 0
960 600 0
961 600 0
962 600 0
963 600 0
964 600 0
965 600 0
966 600 0.99509004789631994
967 600 0
968 600 0
969 600 0
970 600 0
971 600 0
972 600 0
1509 600 0
1510 600 0
1511 600 0
1512 600 0
949 601 0
950 601 0
951 601 0
952 601 0
953 601 0
954 601 0
955 601 0
956 601 0
957 601 0
958 601 0
959 601 0
960 601 0
961 601 0
962 601 0
963 601 0
964 601 0
965 601 0
966 601 0
967 601 0.99509004789631994
968 601 0
969 601 0
970 601 0
971 601 0
972 601 0
1509 601 0
1510 601 0
1511 601 0
1512 601 0
949 602 0
950 602 0
951 602 0
952 602 0
953 602 0
954 602 0
955 602 0
956 602 0
957 602 0
958 602 0
959 602 0
960 602 0
961 602 0
962 602 0
963 602 0
964 602 0
965 602 0
966 602 0
967 602 0
968 602 0.99509004789631994
969 602 0
970 602 0
971 602 0
972 602 0
1509 602 0
1510 602 0
1511 602 0
1512 602 0
949 603 0
950 603 0
951 603 0
952 603 0
953 603 0
954 603 0
955 603 0
956 603 0
957 603 0
958 603 0
959 603 0
960 603 0
961 603 0
962 603 0
963 603 0
964 603 0
965 603 0
966 603 0
967 603 0
968 603 0
969 603 0.99509004789631994
970 603 0
971 603 0
972 603 0
1509 603 0
1510 603 0
1511 603 0
1512 603 0
949 604 0
950 604 0
951 604 0
952 604 0
953 604 0
954 604 0
955 604 0
956 604 0
957 604 0
958 604 0
959 604 0
960 604 0
961 604 0
962 604 0
963 604 0
964 604 0
965 604 0
966 604 0
967 604 0
968 604 0
969 604 0
970 604 0.99509004789631994
971 604 0
972 604 0
1509 604 0
1510 604 0
1511 604 0
1512 604 0
949 605 0
950 605 0
951 605 0
952 605 0
953 605 0
954 605 0
955 605 0
956 605 0
957 605 0
958 605 0
959 605 0
960 605 0
961 605 0
962 605 0
963 605 0
964 605 0
965 605 0
966 605 0
967 605 0
968 605 0
969 605 0
970 605 0
971 605 0.99509004789631994
972 605 0
1509 605 0
1510 605 0
1511 605 0
1512 605 0
949 606 0
950 606 0
951 606 0
952 606 0
953 606 0
954 606 0
955 606 0
956 606 0
957 606 0
958 606 0
959 606 0
960 606 0
961 606 0
962 606 0
963 606 0
964 606 0
965 606 0
966 606 0
967 606 0
968 606 0
969 606 0
970 606 0
971 606 0
972 606 0.99509004789631994
1509 606 0
1510 606 0
1511 606 0
1512 606 0
1505 607 0
1506 607 0
1507 607 0
1508 607 0
1672 607 0
1505 608 0.99878751991636638
1506 608 0
1507 608 0
1508 608 0
1672 608 0
1505 609 0
1506 609 0.99886974093913028
1507 609 0
1508 609 0
1672 609 0
1505 610 0
1506 610 0
1507 610 0.99859691322799182
1508 610 0
1672 610 0
1505 611 0
1506 611 0
1507 611 0
1508 611 0.99879118685427859
1672 611 0
1505 612 0
1506 612 0
1507 612 0
1508 612 0
1672 612 1
937 613 -0.99509004789631994
938 613 -0
939 613 -0
940 613 -0
941 613 -0
942 613 -0
943 613 -0
944 613 -0
945 613 -0
946 613 -0
947 613 -0
948 613 -0
949 613 0
950 613 0
951 613 0
952 613 0
953 613 0
954 613 0
955 613 0
956 613 0
957 613 0
958 613 0
959 613 0
960 613 0
1505 613 -0.1803189598547551
1506 613 -0.25584631152049064
1507 613 -0.074765084896359371
1508 613 -0.06244980534901011
937 614 -0
938 614 -0.99509004789631994
939 614 -0
940 614 -0
941 614 -0
942 614 -0
943 614 -0
944 614 -0
945 614 -0
946 614 -0
947 614 -0
948 614 -0
949 614 0
950 614 0
951 614 0
952 614 0
953 614 0
954 614 0
955 614 0
956 614 0
957 614 0
958 614 0
959 614 0
960 614 0
1505 614 0.10820261428783474
1506 614 0.080196783561304039
1507 614 -0.016866001348705428
1508 614 -0.17094248486675911
937 615 -0
938 615 -0
939 615 -0.99509004789631994
940 615 -0
941 615 -0
942 615 -0
943 615 -0
944 615 -0
945 615 -0
946 615 -0
947 615 -0
948 615 -0
949 615 0
950 615 0
951 615 0
952 615 0
953 615 0
954 615 0
955 615 0
956 615 0
957 615 0
958 615 0
959 615 0
960 615 0
1505 615 0.021296203412182201
1506 615 0.06379387941368389
1507 615 0.33227429440027084
1508 615 0.038055274961526345
937 616 -0
938 616 -0
939 616 -0
940 616 -0.99509004789631994
941 616 -0
942 616 -0
943 616 -0
944 616 -0
945 616 -0
946 616 -0
947 616 -0
948 616 -0
949 616 0
950 616 0
951 616 0
952 616 0
953 616 0
954 616 0
955 616 0
956 616 0
957 616 0
958 616 0
959 616 0
960 616 0
1505 616 0.19846746771042395
1506 616 0.13291349456905685
1507 616 -0.11659569025066187
1508 616 0.1709989853023412
937 617 -0
938 617 -0
939 617 -0
940 617 -0
941 617 -0.99509004789631994
942 617 -0
943 617 -0
944 617 -0
945 617 -0
946 617 -0
947 617 -0
948 617 -0
949 617 0
950 617 0
951 617 0
952 617 0
953 617 0
954 617 0
955 617 0
956 617 0
957 617 0
958 617 0
959 617 0
960 617 0
1505 617 0.06406726430169403
1506 617 0.0077975121873435499
1507 617 -0.012888481757033089
1508 617 0.1821584263174176
937 618 -0
938 618 -0
939 618 -0
940 618 -0
941 618 -0
942 618 -0.99509004789631994
943 618 -0
944 618 -0
945 618 -0
946 618 -0
947 618 -0
948 618 -0
949 618 0
950 618 0
951 618 0
952 618 0
953 618 0
954 618 0
955 618 0
956 618 0
957 618 0
958 618 0
959 618 0
960 618 0
1505 618 0.14930176975937659
1506 618 -0.1220518999462523
1507 618 -0.21437482240798272
1508 618 -0.27728111366749703
937 619 -0
938 619 -0
939 619 -0
940 619 -0
941 619 -0
942 619 -0
943 619 -0.99509004789631994
944 619 -0
945 619 -0
946 619 -0
947 619 -0
948 619 -0
949 619 0
950 619 0
951 619 0
952 619 0
953 619 0
954 619 0
955 619 0
956 619 0
957 619 0
958 619 0
959 619 0
960 619 0
1505 619 -0.27832449100114248
1506 619 -0.023030066571549251
1507 619 0.085999904285044407
1508 619 0.14042558666593874
937 620 -0
938 620 -0
939 620 -0
940 620 -0
941 620 -0
942 620 -0
943 620 -0
944 620 -0.99509004789631994
945 620 -0
946 620 -0
947 620 -0
948 620 -0
949 620 0
950 620 0
951 620 0
952 620 0
953 620 0
954 620 0
955 620 0
956 620 0
957 620 0
958 620 0
959 620 0
960 620 0
1505 620 0.14426661227624929
1506 620 0.019112219351713613
1507 620 -0.3383340256558125
1508 620 -0.26332006554483989
937 621 -0
938 621 -0
939 621 -0
940 621 -0
941 621 -0
942 621 -0
943 621 -0
944 621 -0
945 621 -0.99509004789631994
946 621 -0
947 621 -0
948 621 -0
949 621 0
950 621 0
951 621 0
952 621 0
953 621 0
954 621 0
955 621 0
956 621 0
957 621 0
958 621 0
959 621 0
960 621 0
1505 621 -0.11462509557936003
1506 621 -0.065598224589830417
1507 621 0.12045547271290091
1508 621 0.066735657880519217
937 622 -0
938 622 -0
939 622 -0
940 622 -0
941 622 -0
942 622 -0
943 622 -0
944 622 -0
945 622 -0
946 622 -0.99509004789631994
947 622 -0
948 622 -0
949 622 0
950 622 0
951 622 0
952 622 0
953 622 0
954 622 0
955 622 0
956 622 0
957 622 0
958 622 0
959 622 0
960 622 0
1505 622 0.1112726701807888
1506 622 -0.18163442438886057
1507 622 -0.24934842404473068
1508 622 0.087619788974651794
937 623 -0
938 623 -0
939 623 -0
940 623 -0
941 623 -0
942 623 -0
943 623 -0
944 623 -0
945 623 -0
946 623 -0
947 623 -0.99509004789631994
948 623 -0
949 623 0
950 623 0
951 623 0
952 623 0
953 623 0
954 623 0
955 623 0
956 623 0
957 623 0
958 623 0
959 623 0
960 623 0
1505 623 0.0048220099123521959
1506 623 -0.09230703811323461
1507 623 -0.22028815111069383
1508 623 -0.062540089363958593
937 624 -0
938 624 -0
939 624 -0
940 624 -0
941 624 -0
942 624 -0
943 624 -0
944 624 -0
945 624 -0
946 624 -0
947 624 -0
948 624 -0.99509004789631994
949 624 0
950 624 0
951 624 0
952 624 0
953 624 0
954 624 0
955 624 0
956 624 0
957 624 0
958 624 0
959 624 0
960 624 0
1505 624 0.22589481330245723
1506 624 0.085512196920050021
1507 624 -0.209328877595194
1508 624 0.014853171089538656
937 625 0
938 625 0
939 625 0
940 625 0
941 625 0
942 625 0
943 625 0
944 625 0
945 625 0
946 625 0
947 625 0
948 625 0
949 625 0.99509004789631994
950 625 0
951 625 0
952 625 0
953 625 0
954 625 0
955 625 0
956 625 0
957 625 0
958 625 0
959 625 0
960 625 0
1505 625 0
1506 625 0
1507 625 0
1508 625 0
937 626 0
938 626 0
939 626 0
940 626 0
941 626 0
942 626 0
943 626 0
944 626 0
945 626 0
946 626 0
947 626 0
948 626 0
949 626 0
950 626 0.99509004789631994
951 626 0
952 626 0
953 626 0
954 626 0
955 626 0
956 626 0
957 626 0
958 626 0
959 626 0
960 626 0
1505 626 0
1506 626 0
1507 626 0
1508 626 0
937 627 0
938 627 0
939 627 0
940 627 0
941 627 0
942 627 0
943 627 0
944 627 0
945 627 0
946 627 0
947 627 0
948 627 0
949 627 0
950 627 0
951 627 0.99509004789631994
952 627 0
953 627 0
954 627 0
955 627 0
956 627 0
957 627 0
958 627 0
959 627 0
960 627 0
1505 627 0
1506 627 0
1507 627 0
1508 627 0
937 628 0
938 628 0
939 628 0
940 628 0
941 628 0
942 628 0
943 628 0
944 628 0
945 628 0
946 628 0
947 628 0
948 628 0
949 628 0
950 628 0
951 628 0
952 628 0.99509004789631994
953 628 0
954 628 0
955 628 0
956 628 0
957 628 0
958 628 0
959 628 0
960 628 0
1505 628 0
1506 628 0
1507 628 0
1508 628 0
937 629 0
938 629 0
939 629 0
940 629 0
941 629 0
942 629 0
943 629 0
944 629 0
945 629 0
946 629 0
947 629 0
948 629 0
949 629 0
950 629 0
951 629 0
952 629 0
953 629 0.99509004789631994
954 629 0
955 629 0
956 629 0
957 629 0
958 629 0
959 629 0
960 629 0
1505 629 0
1506 629 0
1507 629 0
1508 629 0
937 630 0
938 630 0
939 630 0
940 630 0
941 630 0
942 630 0
943 630 0
944 630 0
945 630 0
946 630 0
947 630 0
948 630 0
949 630 0
950 630 0
951 630 0
952 630 0
953 630 0
954 630 0.99509004789631994
955 630 0
956 630 0
957 630 0
958 630 0
959 630 0
960 630 0
1505 630 0
1506 630 0
1507 630 0
1508 630 0
937 631 0
938 631 0
939 631 0
940 631 0
941 631 0
942 631 0
943 631 0
944 631 0
945 631 0
946 631 0
947 631 0
948 631 0
949 631 0
950 631 0
951 631 0
952 631 0
953 631 0
954 631 0
955 631 0.99509004789631994
956 631 0
957 631 0
958 631 0
959 631 0
960 631 0
1505 631 0
1506 631 0
1507 631 0
1508 631 0
937 632 0
938 632 0
939 632 0
940 632 0
941 632 0
942 632 0
943 632 0
944 632 0
945 632 0
946 632 0
947 632 0
948 632 0
949 632 0
950 632 0
951 632 0
952 632 0
953 632 0
954 632 0
955 632 0
956 632 0.99509004789631994
957 632 0
958 632 0
959 632 0
960 632 0
1505 632 0
1506 632 0
1507 632 0
1508 632 0
937 633 0
938 633 0
939 633 0
940 633 0
941 633 0
942 633 0
943 633 0
944 633 0
945 633 0
946 633 0
947 633 0
948 633 0
949 633 0
950 633 0
951 633 0
952 633 0
953 633 0
954 633 0
955 633 0
956 633 0
957 633 0.99509004789631994
958 633 0
959 633 0
960 633 0
1505 633 0
1506 633 0
1507 633 0
1508 633 0
937 634 0
938 634 0
939 634 0
940 634 0
941 634 0
942 634 0
943 634 0
944 634 0
945 634 0
946 634 0
947 634 0
948 634 0
949 634 0
950 634 0
951 634 0
952 634 0
953 634 0
954 634 0
955 634 0
956 634 0
957 634 0
958 634 0.99509004789631994
959 634 0
960 634 0
1505 634 0
1506 634 0
1507 634 0
1508 634 0
937 635 0
938 635 0
939 635 0
940 635 0
941 635 0
942 635 0
943 635 0
944 635 0
945 635 0
946 635 0
947 635 0
948 635 0
949 635 0
950 635 0
951 635 0
952 635 0
953 635 0
954 635 0
955 635 0
956 635 0
957 635 0
958 635 0
959 635 0.99509004789631994
960 635 0
1505 635 0
1506 635 0
1507 635 0
1508 635 0
937 636 0
938 636 0
939 636 0
940 636 0
941 636 0
942 636 0
943 636 0
944 636 0
945 636 0
946 636 0
947 636 0
948 636 0
949 636 0
950 636 0
951 636 0
952 636 0
953 636 0
954 636 0
955 636 0
956 636 0
957 636 0
958 636 0
959 636 0
960 636 0.99509004789631994
1505 636 0
1506 636 0
1507 636 0
1508 636 0
1501 637 0
1502 637 0
1503 637 0
1504 637 0
1671 637 0
1501 638 0.99878751991636638
1502 638 0
1503 638 0
1504 638 0
1671 638 0
1501 639 0
1502 639 0.99886974093913028
1503 639 0
1504 639 0
1671 639 0
1501 640 0
1502 640 0
1503 640 0.99859691322799182
1504 640 0
1671 640 0
1501 641 0
1502 641 0
1503 641 0
1504 641 0.99879118685427859
1671 641 0
1501 642 0
1502 642 0
1503 642 0
1504 642 0
1671 642 1
925 643 -0.99509004789631994
926 643 -0
927 643 -0
928 643 -0
929 643 -0
930 643 -0
931 643 -0
932 643 -0
933 643 -0
934 643 -0
935 643 -0
936 643 -0
937 643 0
938 643 0
939 643 0
940 643 0
941 643 0
942 643 0
943 643 0
944 643 0
945 643 0
946 643 0
947 643 0
948 643 0
1501 643 -0.1803189598547551
1502 643 -0.25584631152049064
1503 643 -0.074765084896359371
1504 643 -0.06244980534901011
925 644 -0
926 644 -0.99509004789631994
927 644 -0
928 644 -0
929 644 -0
930 644 -0
931 644 -0
932 644 -0
933 644 -0
934 644 -0
935 644 -0
936 644 -0
937 644 0
938 644 0
939 644 0
940 644 0
941 644 0
942 644 0
943 644 0
944 644 0
945 644 0
946 644 0
947 644 0
948 644 0
1501 644 0.10820261428783474
1502 644 0.080196783561304039
1503 644 -0.016866001348705428
1504 644 -0.17094248486675911
925 645 -0
926 645 -0
927 645 -0.99509004789631994
928 645 -0
929 645 -0
930 645 -0
931 645 -0
932 645 -0
933 645 -0
934 645 -0
935 645 -0
936 645 -0
937 645 0
938 645 0
939 645 0
940 645 0
941 645 0
942 645 0
943 645 0
944 645 0
945 645 0
946 645 0
947 645 0
948 645 0
1501 645 0.021296203412182201
1502 645 0.06379387941368389
1503 645 0.33227429440027084
1504 645 0.038055274961526345
925 646 -0
926 646 -0
927 646 -0
928 646 -0.99509004789631994
929 646 -0
930 646 -0
931 646 -0
932 646 -0
933 646 -0
934 646 -0
935 646 -0
936 646 -0
937 646 0
938 646 0
939 646 0
940 646 0
941 646 0
942 646 0
943 646 0
944 646 0
945 646 0
946 646 0
947 646 0
948 646 0
1501 646 0.19846746771042395
1502 646 0.13291349456905685
1503 646 -0.11659569025066187
1504 646 0.1709989853023412
925 647 -0
926 647 -0
927 647 -0
928 647 -0
929 647 -0.99509004789631994
930 647 -0
931 647 -0
932 647 -0
933 647 -0
934 647 -0
935 647 -0
936 647 -0
937 647 0
938 647 0
939 647 0
940 647 0
941 647 0
942 647 0
943 647 0
944 647 0
945 647 0
946 647 0
947 647 0
948 647 0
1501 647 0.06406726430169403
1502 647 0.0077975121873435499
1503 647 -0.012888481757033089
1504 647 0.1821584263174176
925 648 -0
926 648 -0
927 648 -0
928 648 -0
929 648 -0
930 648 -0.99509004789631994
931 648 -0
932 648 -0
933 648 -0
934 648 -0
935 648 -0
936 648 -0
937 648 0
938 648 0
939 648 0
940 648 0
941 648 0
942 648 0
943 648 0
944 648 0
945 648 0
946 648 0
947 648 0
948 648 0
1501 648 0.14930176975937659
1502 648 -0.1220518999462523
1503 648 -0.21437482240798272
1504 648 -0.27728111366749703
925 649 -0
926 649 -0
927 649 -0
928 649 -0
929 649 -0
930 649 -0
931 649 -0.99509004789631994
932 649 -0
933 649 -0
934 649 -0
935 649 -0
936 649 -0
937 649 0
938 649 0
939 649 0
940 649 0
941 649 0
942 649 0
943 649 0
944 649 0
945 649 0
946 649 0
947 649 0
948 649 0
1501 649 -0.27832449100114248
1502 649 -0.023030066571549251
1503 649 0.085999904285044407
1504 649 0.14042558666593874
925 650 -0
926 650 -0
927 650 -0
928 650 -0
929 650 -0
930 650 -0
931 650 -0
932 650 -0.99509004789631994
933 650 -0
934 650 -0
935 650 -0
936 650 -0
937 650 0
938 650 0
939 650 0
940 650 0
941 650 0
942 650 0
943 650 0
944 650 0
945 650 0
946 650 0
947 650 0
948 650 0
1501 650 0.14426661227624929
1502 650 0.019112219351713613
1503 650 -0.3383340256558125
1504 650 -0.26332006554483989
925 651 -0
926 651 -0
927 651 -0
928 651 -0
929 651 -0
930 651 -0
931 651 -0
932 651 -0
933 651 -0.99509004789631994
934 651 -0
935 651 -0
936 651 -0
937 651 0
938 651 0
939 651 0
940 651 0
941 651 0
942 651 0
943 651 0
944 651 0
945 651 0
946 651 0
947 651 0
948 651 0
1501 651 -0.11462509557936003
1502 651 -0.065598224589830417
1503 651 0.12045547271290091
1504 651 0.066735657880519217
925 652 -0
926 652 -0
927 652 -0
928 652 -0
929 652 -0
930 652 -0
931 652 -0
932 652 -0
933 652 -0
934 652 -0.99509004789631994
935 652 -0
936 652 -0
937 652 0
938 652 0
939 652 0
940 652 0
941 652 0
942 652 0
943 652 0
944 652 0
945 652 0
946 652 0
947 652 0
948 652 0
1501 652 0.1112726701807888
1502 652 -0.18163442438886057
1503 652 -0.24934842404473068
1504 652 0.087619788974651794
925 653 -0
926 653 -0
927 653 -0
928 653 -0
929 653 -0
930 653 -0
931 653 -0
932 653 -0
933 653 -0
934 653 -0
935 653 -0.99509004789631994
936 653 -0
937 653 0
938 653 0
939 653 0
940 653 0
941 653 0
942 653 0
943 653 0
944 653 0
945 653 0
946 653 0
947 653 0
948 653 0
1501 653 0.0048220099123521959
1502 653 -0.09230703811323461
1503 653 -0.22028815111069383
1504 653 -0.062540089363958593
925 654 -0
926 654 -0
927 654 -0
928 654 -0
929 654 -0
930 654 -0
931 654 -0
932 654 -0
933 654 -0
934 654 -0
935 654 -0
936 654 -0.99509004789631994
937 654 0
938 654 0
939 654 0
940 654 0
941 654 0
942 654 0
943 654 0
944 654 0
945 654 0
946 654 0
947 654 0
948 654 0
1501 654 0.22589481330245723
1502 654 0.085512196920050021
1503 654 -0.209328877595194
1504 654 0.014853171089538656
925 655 0
926 655 0
927 655 0
928 655 0
929 655 0
930 655 0
931 655 0
932 655 0
933 655 0
934 655 0
935 655 0
936 655 0
937 655 0.99509004789631994
938 655 0
939 655 0
940 655 0
941 655 0
942 655 0
943 655 0
944 655 0
945 655 0
946 655 0
947 655 0
948 655 0
1501 655 0
1502 655 0
1503 655 0
1504 655 0
925 656 0
926 656 0
927 656 0
928 656 0
929 656 0
930 656 0
931 656 0
932 656 0
933 656 0
934 656 0
935 656 0
936 656 0
937 656 0
938 656 0.99509004789631994
939 656 0
940 656 0
941 656 0
942 656 0
943 656 0
944 656 0
945 656 0
946 656 0
947 656 0
948 656 0
1501 656 0
1502 656 0
1503 656 0
1504 656 0
925 657 0
926 657 0
927 657 0
928 657 0
929 657 0
930 657 0
931 657 0
932 657 0
933 657 0
934 657 0
935 657 0
936 657 0
937 657 0
938 657 0
939 657 0.99509004789631994
940 657 0
941 657 0
942 657 0
943 657 0
944 657 0
945 657 0
946 657 0
947 657 0
948 657 0
1501 657 0
1502 657 0
1503 657 0
1504 657 0
925 658 0
926 658 0
927 658 0
928 658 0
929 658 0
930 658 0
931 658 0
932 658 0
933 658 0
934 658 0
935 658 0
936 658 0
937 658 0
938 658 0
939 658 0
940 658 0.99509004789631994
941 658 0
942 658 0
943 658 0
944 658 0
945 658 0
946 658 0
947 658 0
948 658 0
1501 658 0
1502 658 0
1503 658 0
1504 658 0
925 659 0
926 659 0
927 659 0
928 659 0
929 659 0
930 659 0
931 659 0
932 659 0
933 659 0
934 659 0
935 659 0
936 659 0
937 659 0
938 659 0
939 659 0
940 659 0
941 659 0.99509004789631994
942 659 0
943 659 0
944 659 0
945 659 0
946 659 0
947 659 0
948 659 0
1501 659 0
1502 659 0
1503 659 0
1504 659 0
925 660 0
926 660 0
927 660 0
928 660 0
929 660 0
930 660 0
931 660 0
932 660 0
933 660 0
934 660 0
935 660 0
936 660 0
937 660 0
938 660 0
939 660 0
940 660 0
941 660 0
942 660 0.99509004789631994
943 660 0
944 660 0
945 660 0
946 660 0
947 660 0
948 660 0
1501 660 0
1502 660 0
1503 660 0
1504 660 0
925 661 0
926 661 0
927 661 0
928 661 0
929 661 0
930 661 0
931 661 0
932 661 0
933 661 0
934 661 0
935 661 0
936 661 0
937 661 0
938 661 0
939 661 0
940 661 0
941 661 0
942 661 0
943 661 0.99509004789631994
944 661 0
945 661 0
946 661 0
947 661 0
948 661 0
1501 661 0
1502 661 0
1503 661 0
1504 661 0
925 662 0
926 662 0
927 662 0
928 662 0
929 662 0
930 662 0
931 662 0
932 662 0
933 662 0
934 662 0
935 662 0
936 662 0
937 662 0
938 662 0
939 662 0
940 662 0
941 662 0
942 662 0
943 662 0
944 662 0.99509004789631994
945 662 0
946 662 0
947 662 0
948 662 0
1501 662 0
1502 662 0
1503 662 0
1504 662 0
925 663 0
926 663 0
927 663 0
928 663 0
929 663 0
930 663 0
931 663 0
932 663 0
933 663 0
934 663 0
935 663 0
936 663 0
937 663 0
938 663 0
939 663 0
940 663 0
941 663 0
942 663 0
943 663 0
944 663 0
945 663 0.99509004789631994
946 663 0
947 663 0
948 663 0
1501 663 0
1502 663 0
1503 663 0
1504 663 0
925 664 0
926 664 0
927 664 0
928 664 0
929 664 0
930 664 0
931 664 0
932 664 0
933 664 0
934 664 0
935 664 0
936 664 0
937 664 0
938 664 0
939 664 0
940 664 0
941 664 0
942 664 0
943 664 0
944 664 0
945 664 0
946 664 0.99509004789631994
947 664 0
948 664 0
1501 664 0
1502 664 0
1503 664 0
1504 664 0
925 665 0
926 665 0
927 665 0
928 665 0
929 665 0
930 665 0
931 665 0
932 665 0
933 665 0
934 665 0
935 665 0
936 665 0
937 665 0
938 665 0
939 665 0
940 665 0
941 665 0
942 665 0
943 665 0
944 665 0
945 665 0
946 665 0
947 665 0.99509004789631994
948 665 0
1501 665 0
1502 665 0
1503 665 0
1504 665 0
925 666 0
926 666 0
927 666 0
928 666 0
929 666 0
930 666 0
931 666 0
932 666 0
933 666 0
934 666 0
935 666 0
936 666 0
937 666 0
938 666 0
939 666 0
940 666 0
941 666 0
942 666 0
943 666 0
944 666 0
945 666 0
946 666 0
947 666 0
948 666 0.99509004789631994
1501 666 0
1502 666 0
1503 666 0
1504 666 0
1497 667 0
1498 667 0
1499 667 0
1500 667 0
1670 667 0
1497 668 0.99878751991636638
1498 668 0
1499 668 0
1500 668 0
1670 668 0
1497 669 0
1498 669 0.99886974093913028
1499 669 0
1500 669 0
1670 669 0
1497 670 0
1498 670 0
1499 670 0.99859691322799182
1500 670 0
1670 670 0
1497 671 0
1498 671 0
1499 671 0
1500 671 0.99879118685427859
1670 671 0
1497 672 0
1498 672 0
1499 672 0
1500 672 0
1670 672 1
913 673 -0.99509004789631994
914 673 -0
915 673 -0
916 673 -0
917 673 -0
918 673 -0
919 673 -0
920 673 -0
921 673 -0
922 673 -0
923 673 -0
924 673 -0
925 673 0
926 673 0
927 673 0
928 673 0
929 673 0
930 673 0
931 673 0
932 673 0
933 673 0
934 673 0
935 673 0
936 673 0
1497 673 -0.1803189598547551
1498 673 -0.25584631152049064
1499 673 -0.074765084896359371
1500 673 -0.06244980534901011
913 674 -0
914 674 -0.99509004789631994
915 674 -0
916 674 -0
917 674 -0
918 674 -0
919 674 -0
920 674 -0
921 674 -0
922 674 -0
923 674 -0
924 674 -0
925 674 0
926 674 0
927 674 0
928 674 0
929 674 0
930 674 0
931 674 0
932 674 0
933 674 0
934 674 0
935 674 0
936 674 0
1497 674 0.10820261428783474
1498 674 0.080196783561304039
1499 674 -0.016866001348705428
1500 674 -0.17094248486675911
913 675 -0
914 675 -0
915 675 -0.99509004789631994
916 675 -0
917 675 -0
918 675 -0
919 675 -0
920 675 -0
921 675 -0
922 675 -0
923 675 -0
924 675 -0
925 675 0
926 675 0
927 675 0
928 675 0
929 675 0
930 675 0
931 675 0
932 675 0
933 675 0
934 675 0
935 675 0
936 675 0
1497 675 0.021296203412182201
1498 675 0.06379387941368389
1499 675 0.33227429440027084
1500 675 0.038055274961526345
913 676 -0
914 676 -0
915 676 -0
916 676 -0.99509004789631994
917 676 -0
918 676 -0
919 676 -0
920 676 -0
921 676 -0
922 676 -0
923 676 -0
924 676 -0
925 676 0
926 676 0
927 676 0
928 676 0
929 676 0
930 676 0
931 676 0
932 676 0
933 676 0
934 676 0
935 676 0
936 676 0
1497 676 0.19846746771042395
1498 676 0.13291349456905685
1499 676 -0.11659569025066187
1500 676 0.1709989853023412
913 677 -0
914 677 -0
915 677 -0
916 677 -0
917 677 -0.99509004789631994
918 677 -0
919 677 -0
920 677 -0
921 677 -0
922 677 -0
923 677 -0
924 677 -0
925 677 0
926 677 0
927 677 0
928 677 0
929 677 0
930 677 0
931 677 0
932 677 0
933 677 0
934 677 0
935 677 0
936 677 0
1497 677 0.06406726430169403
1498 677 0.0077975121873435499
1499 677 -0.012888481757033089
1500 677 0.1821584263174176
913 678 -0
914 678 -0
915 678 -0
916 678 -0
917 678 -0
918 678 -0.99509004789631994
919 678 -0
920 678 -0
921 678 -0
922 678 -0
923 678 -0
924 678 -0
925 678 0
926 678 0
927 678 0
928 678 0
929 678 0
930 678 0
931 678 0
932 678 0
933 678 0
934 678 0
935 678 0
936 678 0
1497 678 0.14930176975937659
1498 678 -0.1220518999462523
1499 678 -0.21437482240798272
1500 678 -0.27728111366749703
913 679 -0
914 679 -0
915 679 -0
916 679 -0
917 679 -0
918 679 -0
919 679 -0.99509004789631994
920 679 -0
921 679 -0
922 679 -0
923 679 -0
924 679 -0
925 679 0
926 679 0
927 679 0
928 679 0
929 679 0
930 679 0
931 679 0
932 679 0
933 679 0
934 679 0
935 679 0
936 679 0
1497 679 -0.27832449100114248
1498 679 -0.023030066571549251
1499 679 0.085999904285044407
1500 679 0.14042558666593874
913 680 -0
914 680 -0
915 680 -0
916 680 -0
917 680 -0
918 680 -0
919 680 -0
920 680 -0.99509004789631994
921 680 -0
922 680 -0
923 680 -0
924 680 -0
925 680 0
926 680 0
927 680 0
928 680 0
929 680 0
930 680 0
931 680 0
932 680 0
933 680 0
934 680 0
935 680 0
936 680 0
1497 680 0.14426661227624929
1498 680 0.019112219351713613
1499 680 -0.3383340256558125
1500 680 -0.26332006554483989
913 681 -0
914 681 -0
915 681 -0
916 681 -0
917 681 -0
918 681 -0
919 681 -0
920 681 -0
921 681 -0.99509004789631994
922 681 -0
923 681 -0
924 681 -0
925 681 0
926 681 0
927 681 0
928 681 0
929 681 0
930 681 0
931 681 0
932 681 0
933 681 0
934 681 0
935 681 0
936 681 0
1497 681 -0.11462509557936003
1498 681 -0.065598224589830417
1499 681 0.12045547271290091
1500 681 0.066735657880519217
913 682 -0
914 682 -0
915 682 -0
916 682 -0
917 682 -0
918 682 -0
919 682 -0
920 682 -0
921 682 -0
922 682 -0.99509004789631994
923 682 -0
924 682 -0
925 682 0
926 682 0
927 682 0
928 682 0
929 682 0
930 682 0
931 682 0
932 682 0
933 682 0
934 682 0
935 682 0
936 682 0
1497 682 0.1112726701807888
1498 682 -0.18163442438886057
1499 682 -0.24934842404473068
1500 682 0.087619788974651794
913 683 -0
914 683 -0
915 683 -0
916 683 -0
917 683 -0
918 683 -0
919 683 -0
920 683 -0
921 683 -0
922 683 -0
923 683 -0.99509004789631994
924 683 -0
925 683 0
926 683 0
927 683 0
928 683 0
929 683 0
930 683 0
931 683 0
932 683 0
933 683 0
934 683 0
935 683 0
936 683 0
1497 683 0.0048220099123521959
1498 683 -0.09230703811323461
1499 683 -0.22028815111069383
1500 683 -0.062540089363958593
913 684 -0
914 684 -0
915 684 -0
916 684 -0
917 684 -0
918 684 -0
919 684 -0
920 684 -0
921 684 -0
922 684 -0
923 684 -0
924 684 -0.99509004789631994
925 684 0
926 684 0
927 684 0
928 684 0
929 684 0
930 684 0
931 684 0
932 684 0
933 684 0
934 684 0
935 684 0
936 684 0
1497 684 0.22589481330245723
1498 684 0.085512196920050021
1499 684 -0.209328877595194
1500 684 0.014853171089538656
913 685 0
914 685 0
915 685 0
916 685 0
917 685 0
918 685 0
919 685 0
920 685 0
921 685 0
922 685 0
923 685 0
924 685 0
925 685 0.99509004789631994
926 685 0
927 685 0
928 685 0
929 685 0
930 685 0
931 685 0
932 685 0
933 685 0
934 685 0
935 685 0
936 685 0
1497 685 0
1498 685 0
1499 685 0
1500 685 0
913 686 0
914 686 0
915 686 0
916 686 0
917 686 0
918 686 0
919 686 0
920 686 0
921 686 0
922 686 0
923 686 0
924 686 0
925 686 0
926 686 0.99509004789631994
927 686 0
928 686 0
929 686 0
930 686 0
931 686 0
932 686 0
933 686 0
934 686 0
935 686 0
936 686 0
1497 686 0
1498 686 0
1499 686 0
1500 686 0
913 687 0
914 687 0
915 687 0
916 687 0
917 687 0
918 687 0
919 687 0
920 687 0
921 687 0
922 687 0
923 687 0
924 687 0
925 687 0
926 687 0
927 687 0.99509004789631994
928 687 0
929 687 0
930 687 0
931 687 0
932 687 0
933 687 0
934 687 0
935 687 0
936 687 0
1497 687 0
1498 687 0
1499 687 0
1500 687 0
913 688 0
914 688 0
915 688 0
916 688 0
917 688 0
918 688 0
919 688 0
920 688 0
921 688 0
922 688 0
923 688 0
924 688 0
925 688 0
926 688 0
927 688 0
928 688 0.99509004789631994
929 688 0
930 688 0
931 688 0
932 688 0
933 688 0
934 688 0
935 688 0
936 688 0
1497 688 0
1498 688 0
1499 688 0
1500 688 0
913 689 0
914 689 0
915 689 0
916 689 0
917 689 0
918 689 0
919 689 0
920 689 0
921 689 0
922 689 0
923 689 0
924 689 0
925 689 0
926 689 0
927 689 0
928 689 0
929 689 0.99509004789631994
930 689 0
931 689 0
932 689 0
933 689 0
934 689 0
935 689 0
936 689 0
1497 689 0
1498 689 0
1499 689 0
1500 689 0
913 690 0
914 690 0
915 690 0
916 690 0
917 690 0
918 690 0
919 690 0
920 690 0
921 690 0
922 690 0
923 690 0
924 690 0
925 690 0
926 690 0
927 690 0
928 690 0
929 690 0
930 690 0.99509004789631994
931 690 0
932 690 0
933 690 0
934 690 0
935 690 0
936 690 0
1497 690 0
1498 690 0
1499 690 0
1500 690 0
913 691 0
914 691 0
915 691 0
916 691 0
917 691 0
918 691 0
919 691 0
920 691 0
921 691 0
922 691 0
923 691 0
924 691 0
925 691 0
926 691 0
927 691 0
928 691 0
929 691 0
930 691 0
931 691 0.99509004789631994
932 691 0
933 691 0
934 691 0
935 691 0
936 691 0
1497 691 0
1498 691 0
1499 691 0
1500 691 0
913 692 0
914 692 0
915 692 0
916 692 0
917 692 0
918 692 0
919 692 0
920 692 0
921 692 0
922 692 0
923 692 0
924 692 0
925 692 0
926 692 0
927 692 0
928 692 0
929 692 0
930 692 0
931 692 0
932 692 0.99509004789631994
933 692 0
934 692 0
935 692 0
936 692 0
1497 692 0
1498 692 0
1499 692 0
1500 692 0
913 693 0
914 693 0
915 693 0
916 693 0
917 693 0
918 693 0
919 693 0
920 693 0
921 693 0
922 693 0
923 693 0
924 693 0
925 693 0
926 693 0
927 693 0
928 693 0
929 693 0
930 693 0
931 693 0
932 693 0
933 693 0.99509004789631994
934 693 0
935 693 0
936 693 0
1497 693 0
1498 693 0
1499 693 0
1500 693 0
913 694 0
914 694 0
915 694 0
916 694 0
917 694 0
918 694 0
919 694 0
920 694 0
921 694 0
922 694 0
923 694 0
924 694 0
925 694 0
926 694 0
927 694 0
928 694 0
929 694 0
930 694 0
931 694 0
932 694 0
933 694 0
934 694 0.99509004789631994
935 694 0
936 694 0
1497 694 0
1498 694 0
1499 694 0
1500 694 0
913 695 0
914 695 0
915 695 0
916 695 0
917 695 0
918 695 0
919 695 0
920 695 0
921 695 0
922 695 0
923 695 0
924 695 0
925 695 0
926 695 0
927 695 0
928 695 0
929 695 0
930 695 0
931 695 0
932 695 0
933 695 0
934 695 0
935 695 0.99509004789631994
936 695 0
1497 695 0
1498 695 0
1499 695 0
1500 695 0
913 696 0
914 696 0
915 696 0
916 696 0
917 696 0
918 696 0
919 696 0
920 696 0
921 696 0
922 696 0
923 696 0
924 696 0
925 696 0
926 696 0
927 696 0
928 696 0
929 696 0
930 696 0
931 696 0
932 696 0
933 696 0
934 696 0
935 696 0
936 696 0.99509004789631994
1497 696 0
1498 696 0
1499 696 0
1500 696 0
1493 697 0
1494 697 0
1495 697 0
1496 697 0
1669 697 0
1493 698 0.99878751991636638
1494 698 0
1495 698 0
1496 698 0
1669 698 0
1493 699 0
1494 699 0.99886974093913028
1495 699 0
1496 699 0
1669 699 0
1493 700 0
1494 700 0
1495 700 0.99859691322799182
1496 700 0
1669 700 0
1493 701 0
1494 701 0
1495 701 0
1496 701 0.99879118685427859
1669 701 0
1493 702 0
1494 702 0
1495 702 0
1496 702 0
1669 702 1
901 703 -0.99509004789631994
902 703 -0
903 703 -0
904 703 -0
905 703 -0
906 703 -0
907 703 -0
908 703 -0
909 703 -0
910 703 -0
911 703 -0
912 703 -0
913 703 0
914 703 0
915 703 0
916 703 0
917 703 0
918 703 0
919 703 0
920 703 0
921 703 0
922 703 0
923 703 0
924 703 0
1493 703 -0.1803189598547551
1494 703 -0.25584631152049064
1495 703 -0.074765084896359371
1496 703 -0.06244980534901011
901 704 -0
902 704 -0.99509004789631994
903 704 -0
904 704 -0
905 704 -0
906 704 -0
907 704 -0
908 704 -0
909 704 -0
910 704 -0
911 704 -0
912 704 -0
913 704 0
914 704 0
915 704 0
916 704 0
917 704 0
918 704 0
919 704 0
920 704 0
921 704 0
922 704 0
923 704 0
924 704 0
1493 704 0.10820261428783474
1494 704 0.080196783561304039
1495 704 -0.016866001348705428
1496 704 -0.17094248486675911
901 705 -0
902 705 -0
903 705 -0.99509004789631994
904 705 -0
905 705 -0
906 705 -0
907 705 -0
908 705 -0
909 705 -0
910 705 -0
911 705 -0
912 705 -0
913 705 0
914 705 0
915 705 0
916 705 0
917 705 0
918 705 0
919 705 0
920 705 0
921 705 0
922 705 0
923 705 0
924 705 0
1493 705 0.021296203412182201
1494 705 0.06379387941368389
1495 705 0.33227429440027084
1496 705 0.038055274961526345
901 706 -0
902 706 -0
903 706 -0
904 706 -0.99509004789631994
905 706 -0
906 706 -0
907 706 -0
908 706 -0
909 706 -0
910 706 -0
911 706 -0
912 706 -0
913 706 0
914 706 0
915 706 0
916 706 0
917 706 0
918 706 0
919 706 0
920 706 0
921 706 0
922 706 0
923 706 0
924 706 0
1493 706 0.19846746771042395
1494 706 0.13291349456905685
1495 706 -0.11659569025066187
1496 706 0.1709989853023412
901 707 -0
902 707 -0
903 707 -0
904 707 -0
905 707 -0.99509004789631994
906 707 -0
907 707 -0
908 707 -0
909 707 -0
910 707 -0
911 707 -0
912 707 -0
913 707 0
914 707 0
915 707 0
916 707 0
917 707 0
918 707 0
919 707 0
920 707 0
921 707 0
922 707 0
923 707 0
924 707 0
1493 707 0.06406726430169403
1494 707 0.0077975121873435499
1495 707 -0.012888481757033089
1496 707 0.1821584263174176
901 708 -0
902 708 -0
903 708 -0
904 708 -0
905 708 -0
906 708 -0.99509004789631994
907 708 -0
908 708 -0
909 708 -0
910 708 -0
911 708 -0
912 708 -0
913 708 0
914 708 0
915 708 0
916 708 0
917 708 0
918 708 0
919 708 0
920 708 0
921 708 0
922 708 0
923 708 0
924 708 0
1493 708 0.14930176975937659
1494 708 -0.1220518999462523
1495 708 -0.21437482240798272
1496 708 -0.27728111366749703
901 709 -0
902 709 -0
903 709 -0
904 709 -0
905 709 -0
906 709 -0
907 709 -0.99509004789631994
908 709 -0
909 709 -0
910 709 -0
911 709 -0
912 709 -0
913 709 0
914 709 0
915 709 0
916 709 0
917 709 0
918 709 0
919 709 0
920 709 0
921 709 0
922 709 0
923 709 0
924 709 0
1493 709 -0.27832449100114248
1494 709 -0.023030066571549251
1495 709 0.085999904285044407
1496 709 0.14042558666593874
901 710 -0
902 710 -0
903 710 -0
904 710 -0
905 710 -0
906 710 -0
907 710 -0
908 710 -0.99509004789631994
909 710 -0
910 710 -0
911 710 -0
912 710 -0
913 710 0
914 710 0
915 710 0
916 710 0
917 710 0
918 710 0
919 710 0
920 710 0
921 710 0
922 710 0
923 710 0
924 710 0
1493 710 0.14426661227624929
1494 710 0.019112219351713613
1495 710 -0.3383340256558125
1496 710 -0.26332006554483989
901 711 -0
902 711 -0
903 711 -0
904 711 -0
905 711 -0
906 711 -0
907 711 -0
908 711 -0
909 711 -0.99509004789631994
910 711 -0
911 711 -0
912 711 -0
913 711 0
914 711 0
915 711 0
916 711 0
917 711 0
918 711 0
919 711 0
920 711 0
921 711 0
922 711 0
923 711 0
924 711 0
1493 711 -0.11462509557936003
1494 711 -0.065598224589830417
1495 711 0.12045547271290091
1496 711 0.066735657880519217
901 712 -0
902 712 -0
903 712 -0
904 712 -0
905 712 -0
906 712 -0
907 712 -0
908 712 -0
909 712 -0
910 712 -0.99509004789631994
911 712 -0
912 712 -0
913 712 0
914 712 0
915 712 0
916 712 0
917 712 0
918 712 0
919 712 0
920 712 0
921 712 0
922 712 0
923 712 0
924 712 0
1493 712 0.1112726701807888
1494 712 -0.18163442438886057
1495 712 -0.24934842404473068
1496 712 0.087619788974651794
901 713 -0
902 713 -0
903 713 -0
904 713 -0
905 713 -0
906 713 -0
907 713 -0
908 713 -0
909 713 -0
910 713 -0
911 713 -0.99509004789631994
912 713 -0
913 713 0
914 713 0
915 713 0
916 713 0
917 713 0
918 713 0
919 713 0
920 713 0
921 713 0
922 713 0
923 713 0
924 713 0
1493 713 0.0048220099123521959
1494 713 -0.09230703811323461
1495 713 -0.22028815111069383
1496 713 -0.062540089363958593
901 714 -0
902 714 -0
903 714 -0
904 714 -0
905 714 -0
906 714 -0
907 714 -0
908 714 -0
909 714 -0
910 714 -0
911 714 -0
912 714 -0.99509004789631994
913 714 0
914 714 0
915 714 0
916 714 0
917 714 0
918 714 0
919 714 0
920 714 0
921 714 0
922 714 0
923 714 0
924 714 0
1493 714 0.22589481330245723
1494 714 0.085512196920050021
1495 714 -0.209328877595194
1496 714 0.014853171089538656
901 715 0
902 715 0
903 715 0
904 715 0
905 715 0
906 715 0
907 715 0
908 715 0
909 715 0
910 715 0
911 715 0
912 715 0
913 715 0.99509004789631994
914 715 0
915 715 0
916 715 0
917 715 0
918 715 0
919 715 0
920 715 0
921 715 0
922 715 0
923 715 0
924 715 0
1493 715 0
1494 715 0
1495 715 0
1496 715 0
901 716 0
902 716 0
903 716 0
904 716 0
905 716 0
906 716 0
907 716 0
908 716 0
909 716 0
910 716 0
911 716 0
912 716 0
913 716 0
914 716 0.99509004789631994
915 716 0
916 716 0
917 716 0
918 716 0
919 716 0
920 716 0
921 716 0
922 716 0
923 716 0
924 716 0
1493 716 0
1494 716 0
1495 716 0
1496 716 0
901 717 0
902 717 0
903 717 0
904 717 0
905 717 0
906 717 0
907 717 0
908 717 0
909 717 0
910 717 0
911 717 0
912 717 0
913 717 0
914 717 0
915 717 0.99509004789631994
916 717 0
917 717 0
918 717 0
919 717 0
920 717 0
921 717 0
922 717 0
923 717 0
924 717 0
1493 717 0
1494 717 0
1495 717 0
1496 717 0
901 718 0
902 718 0
903 718 0
904 718 0
905 718 0
906 718 0
907 718 0
908 718 0
909 718 0
910 718 0
911 718 0
912 718 0
913 718 0
914 718 0
915 718 0
916 718 0.99509004789631994
917 718 0
918 718 0
919 718 0
920 718 0
921 718 0
922 718 0
923 718 0
924 718 0
1493 718 0
1494 718 0
1495 718 0
1496 718 0
901 719 0
902 719 0
903 719 0
904 719 0
905 719 0
906 719 0
907 719 0
908 719 0
909 719 0
910 719 0
911 719 0
912 719 0
913 719 0
914 719 0
915 719 0
916 719 0
917 719 0.99509004789631994
918 719 0
919 719 0
920 719 0
921 719 0
922 719 0
923 719 0
924 719 0
1493 719 0
1494 719 0
1495 719 0
1496 719 0
901 720 0
902 720 0
903 720 0
904 720 0
905 720 0
906 720 0
907 720 0
908 720 0
909 720 0
910 720 0
911 720 0
912 720 0
913 720 0
914 720 0
915 720 0
916 720 0
917 720 0
918 720 0.99509004789631994
919 720 0
920 720 0
921 720 0
922 720 0
923 720 0
924 720 0
1493 720 0
1494 720 0
1495 720 0
1496 720 0
901 721 0
902 721 0
903 721 0
904 721 0
905 721 0
906 721 0
907 721 0
908 721 0
909 721 0
910 721 0
911 721 0
912 721 0
913 721 0
914 721 0
915 721 0
916 721 0
917 721 0
918 721 0
919 721 0.99509004789631994
920 721 0
921 721 0
922 721 0
923 721 0
924 721 0
1493 721 0
1494 721 0
1495 721 0
1496 721 0
901 722 0
902 722 0
903 722 0
904 722 0
905 722 0
906 722 0
907 722 0
908 722 0
909 722 0
910 722 0
911 722 0
912 722 0
913 722 0
914 722 0
915 722 0
916 722 0
917 722 0
918 722 0
919 722 0
920 722 0.99509004789631994
921 722 0
922 722 0
923 722 0
924 722 0
1493 722 0
1494 722 0
1495 722 0
1496 722 0
901 723 0
902 723 0
903 723 0
904 723 0
905 723 0
906 723 0
907 723 0
908 723 0
909 723 0
910 723 0
911 723 0
912 723 0
913 723 0
914 723 0
915 723 0
916 723 0
917 723 0
918 723 0
919 723 0
920 723 0
921 723 0.99509004789631994
922 723 0
923 723 0
924 723 0
1493 723 0
1494 723 0
1495 723 0
1496 723 0
901 724 0
902 724 0
903 724 0
904 724 0
905 724 0
906 724 0
907 724 0
908 724 0
909 724 0
910 724 0
911 724 0
912 724 0
913 724 0
914 724 0
915 724 0
916 724 0
917 724 0
918 724 0
919 724 0
920 724 0
921 724 0
922 724 0.99509004789631994
923 724 0
924 724 0
1493 724 0
1494 724 0
1495 724 0
1496 724 0
901 725 0
902 725 0
903 725 0
904 725 0
905 725 0
906 725 0
907 725 0
908 725 0
909 725 0
910 725 0
911 725 0
912 725 0
913 725 0
914 725 0
915 725 0
916 725 0
917 725 0
918 725 0
919 725 0
920 725 0
921 725 0
922 725 0
923 725 0.99509004789631994
924 725 0
1493 725 0
1494 725 0
1495 725 0
1496 725 0
901 726 0
902 726 0
903 726 0
904 726 0
905 726 0
906 726 0
907 726 0
908 726 0
909 726 0
910 726 0
911 726 0
912 726 0
913 726 0
914 726 0
915 726 0
916 726 0
917 726 0
918 726 0
919 726 0
920 726 0
921 726 0
922 726 0
923 726 0
924 726 0.99509004789631994
1493 726 0
1494 726 0
1495 726 0
1496 726 0
1489 727 0
1490 727 0
1491 727 0
1492 727 0
1668 727 0
1489 728 0.99878751991636638
1490 728 0
1491 728 0
1492 728 0
1668 728 0
1489 729 0
1490 729 0.99886974093913028
1491 729 0
1492 729 0
1668 729 0
1489 730 0
1490 730 0
1491 730 0.99859691322799182
1492 730 0
1668 730 0
1489 731 0
1490 731 0
1491 731 0
1492 731 0.99879118685427859
1668 731 0
1489 732 0
1490 732 0
1491 732 0
1492 732 0
1668 732 1
889 733 -0.99509004789631994
890 733 -0
891 733 -0
892 733 -0
893 733 -0
894 733 -0
895 733 -0
896 733 -0
897 733 -0
898 733 -0
899 733 -0
900 733 -0
901 733 0
902 733 0
903 733 0
904 733 0
905 733 0
906 733 0
907 733 0
908 733 0
909 733 0
910 733 0
911 733 0
912 733 0
1489 733 -0.1803189598547551
1490 733 -0.25584631152049064
1491 733 -0.074765084896359371
1492 733 -0.06244980534901011
889 734 -0
890 734 -0.99509004789631994
891 734 -0
892 734 -0
893 734 -0
894 734 -0
895 734 -0
896 734 -0
897 734 -0
898 734 -0
899 734 -0
900 734 -0
901 734 0
902 734 0
903 734 0
904 734 0
905 734 0
906 734 0
907 734 0
908 734 0
909 734 0
910 734 0
911 734 0
912 734 0
1489 734 0.10820261428783474
1490 734 0.080196783561304039
1491 734 -0.016866001348705428
1492 734 -0.17094248486675911
889 735 -0
890 735 -0
891 735 -0.99509004789631994
892 735 -0
893 735 -0
894 735 -0
895 735 -0
896 735 -0
897 735 -0
898 735 -0
899 735 -0
900 735 -0
901 735 0
902 735 0
903 735 0
904 735 0
905 735 0
906 735 0
907 735 0
908 735 0
909 735 0
910 735 0
911 735 0
912 735 0
1489 735 0.021296203412182201
1490 735 0.06379387941368389
1491 735 0.33227429440027084
1492 735 0.038055274961526345
889 736 -0
890 736 -0
891 736 -0
892 736 -0.99509004789631994
893 736 -0
894 736 -0
895 736 -0
896 736 -0
897 736 -0
898 736 -0
899 736 -0
900 736 -0
901 736 0
902 736 0
903 736 0
904 736 0
905 736 0
906 736 0
907 736 0
908 736 0
909 736 0
910 736 0
911 736 0
912 736 0
1489 736 0.19846746771042395
1490 736 0.13291349456905685
1491 736 -0.11659569025066187
1492 736 0.1709989853023412
889 737 -0
890 737 -0
891 737 -0
892 737 -0
893 737 -0.99509004789631994
894 737 -0
895 737 -0
896 737 -0
897 737 -0
898 737 -0
899 737 -0
900 737 -0
901 737 0
902 737 0
903 737 0
904 737 0
905 737 0
906 737 0
907 737 0
908 737 0
909 737 0
910 737 0
911 737 0
912 737 0
1489 737 0.06406726430169403
1490 737 0.0077975121873435499
1491 737 -0.012888481757033089
1492 737 0.1821584263174176
889 738 -0
890 738 -0
891 738 -0
892 738 -0
893 738 -0
894 738 -0.99509004789631994
895 738 -0
896 738 -0
897 738 -0
898 738 -0
899 738 -0
900 738 -0
901 738 0
902 738 0
903 738 0
904 738 0
905 738 0
906 738 0
907 738 0
908 738 0
909 738 0
910 738 0
911 738 0
912 738 0
1489 738 0.14930176975937659
1490 738 -0.1220518999462523
1491 738 -0.21437482240798272
1492 738 -0.27728111366749703
889 739 -0
890 739 -0
891 739 -0
892 739 -0
893 739 -0
894 739 -0
895 739 -0.99509004789631994
896 739 -0
897 739 -0
898 739 -0
899 739 -0
900 739 -0
901 739 0
902 739 0
903 739 0
904 739 0
905 739 0
906 739 0
907 739 0
908 739 0
909 739 0
910 739 0
911 739 0
912 739 0
1489 739 -0.27832449100114248
1490 739 -0.023030066571549251
1491 739 0.085999904285044407
1492 739 0.14042558666593874
889 740 -0
890 740 -0
891 740 -0
892 740 -0
893 740 -0
894 740 -0
895 740 -0
896 740 -0.99509004789631994
897 740 -0
898 740 -0
899 740 -0
900 740 -0
901 740 0
902 740 0
903 740 0
904 740 0
905 740 0
906 740 0
907 740 0
908 740 0
909 740 0
910 740 0
911 740 0
912 740 0
1489 740 0.14426661227624929
1490 740 0.019112219351713613
1491 740 -0.3383340256558125
1492 740 -0.26332006554483989
889 741 -0
890 741 -0
891 741 -0
892 741 -0
893 741 -0
894 741 -0
895 741 -0
896 741 -0
897 741 -0.99509004789631994
898 741 -0
899 741 -0
900 741 -0
901 741 0
902 741 0
903 741 0
904 741 0
905 741 0
906 741 0
907 741 0
908 741 0
909 741 0
910 741 0
911 741 0
912 741 0
1489 741 -0.11462509557936003
1490 741 -0.065598224589830417
1491 741 0.12045547271290091
1492 741 0.066735657880519217
889 742 -0
890 742 -0
891 742 -0
892 742 -0
893 742 -0
894 742 -0
895 742 -0
896 742 -0
897 742 -0
898 742 -0.99509004789631994
899 742 -0
900 742 -0
901 742 0
902 742 0
903 742 0
904 742 0
905 742 0
906 742 0
907 742 0
908 742 0
909 742 0
910 742 0
911 742 0
912 742 0
1489 742 0.1112726701807888
1490 742 -0.18163442438886057
1491 742 -0.24934842404473068
1492 742 0.087619788974651794
889 743 -0
890 743 -0
891 743 -0
892 743 -0
893 743 -0
894 743 -0
895 743 -0
896 743 -0
897 743 -0
898 743 -0
899 743 -0.99509004789631994
900 743 -0
901 743 0
902 743 0
903 743 0
904 743 0
905 743 0
906 743 0
907 743 0
908 743 0
909 743 0
910 743 0
911 743 0
912 743 0
1489 743 0.0048220099123521959
1490 743 -0.09230703811323461
1491 743 -0.22028815111069383
1492 743 -0.062540089363958593
889 744 -0
890 744 -0
891 744 -0
892 744 -0
893 744 -0
894 744 -0
895 744 -0
896 744 -0
897 744 -0
898 744 -0
899 744 -0
900 744 -0.99509004789631994
901 744 0
902 744 0
903 744 0
904 744 0
905 744 0
906 744 0
907 744 0
908 744 0
909 744 0
910 744 0
911 744 0
912 744 0
1489 744 0.22589481330245723
1490 744 0.085512196920050021
1491 744 -0.209328877595194
1492 744 0.014853171089538656
889 745 0
890 745 0
891 745 0
892 745 0
893 745 0
894 745 0
895 745 0
896 745 0
897 745 0
898 745 0
899 745 0
900 745 0
901 745 0.99509004789631994
902 745 0
903 745 0
904 745 0
905 745 0
906 745 0
907 745 0
908 745 0
909 745 0
910 745 0
911 745 0
912 745 0
1489 745 0
1490 745 0
1491 745 0
1492 745 0
889 746 0
890 746 0
891 746 0
892 746 0
893 746 0
894 746 0
895 746 0
896 746 0
897 746 0
898 746 0
899 746 0
900 746 0
901 746 0
902 746 0.99509004789631994
903 746 0
904 746 0
905 746 0
906 746 0
907 746 0
908 746 0
909 746 0
910 746 0
911 746 0
912 746 0
1489 746 0
1490 746 0
1491 746 0
1492 746 0
889 747 0
890 747 0
891 747 0
892 747 0
893 747 0
894 747 0
895 747 0
896 747 0
897 747 0
898 747 0
899 747 0
900 747 0
901 747 0
902 747 0
903 747 0.99509004789631994
904 747 0
905 747 0
906 747 0
907 747 0
908 747 0
909 747 0
910 747 0
911 747 0
912 747 0
1489 747 0
1490 747 0
1491 747 0
1492 747 0
889 748 0
890 748 0
891 748 0
892 748 0
893 748 0
894 748 0
895 748 0
896 748 0
897 748 0
898 748 0
899 748 0
900 748 0
901 748 0
902 748 0
903 748 0
904 748 0.99509004789631994
905 748 0
906 748 0
907 748 0
908 748 0
909 748 0
910 748 0
911 748 0
912 748 0
1489 748 0
1490 748 0
1491 748 0
1492 748 0
889 749 0
890 749 0
891 749 0
892 749 0
893 749 0
894 749 0
895 749 0
896 749 0
897 749 0
898 749 0
899 749 0
900 749 0
901 749 0
902 749 0
903 749 0
904 749 0
905 749 0.99509004789631994
906 749 0
907 749 0
908 749 0
909 749 0
910 749 0
911 749 0
912 749 0
1489 749 0
1490 749 0
1491 749 0
1492 749 0
889 750 0
890 750 0
891 750 0
892 750 0
893 750 0
894 750 0
895 750 0
896 750 0
897 750 0
898 750 0
899 750 0
900 750 0
901 750 0
902 750 0
903 750 0
904 750 0
905 750 0
906 750 0.99509004789631994
907 750 0
908 750 0
909 750 0
910 750 0
911 750 0
912 750 0
1489 750 0
1490 750 0
1491 750 0
1492 750 0
889 751 0
890 751 0
891 751 0
892 751 0
893 751 0
894 751 0
895 751 0
896 751 0
897 751 0
898 751 0
899 751 0
900 751 0
901 751 0
902 751 0
903 751 0
904 751 0
905 751 0
906 751 0
907 751 0.99509004789631994
908 751 0
909 751 0
910 751 0
911 751 0
912 751 0
1489 751 0
1490 751 0
1491 751 0
1492 751 0
889 752 0
890 752 0
891 752 0
892 752 0
893 752 0
894 752 0
895 752 0
896 752 0
897 752 0
898 752 0
899 752 0
900 752 0
901 752 0
902 752 0
903 752 0
904 752 0
905 752 0
906 752 0
907 752 0
908 752 0.99509004789631994
909 752 0
910 752 0
911 752 0
912 752 0
1489 752 0
1490 752 0
1491 752 0
1492 752 0
889 753 0
890 753 0
891 753 0
892 753 0
893 753 0
894 753 0
895 753 0
896 753 0
897 753 0
898 753 0
899 753 0
900 753 0
901 753 0
902 753 0
903 753 0
904 753 0
905 753 0
906 753 0
907 753 0
908 753 0
909 753 0.99509004789631994
910 753 0
911 753 0
912 753 0
1489 753 0
1490 753 0
1491 753 0
1492 753 0
889 754 0
890 754 0
891 754 0
892 754 0
893 754 0
894 754 0
895 754 0
896 754 0
897 754 0
898 754 0
899 754 0
900 754 0
901 754 0
902 754 0
903 754 0
904 754 0
905 754 0
906 754 0
907 754 0
908 754 0
909 754 0
910 754 0.99509004789631994
911 754 0
912 754 0
1489 754 0
1490 754 0
1491 754 0
1492 754 0
889 755 0
890 755 0
891 755 0
892 755 0
893 755 0
894 755 0
895 755 0
896 755 0
897 755 0
898 755 0
899 755 0
900 755 0
901 755 0
902 755 0
903 755 0
904 755 0
905 755 0
906 755 0
907 755 0
908 755 0
909 755 0
910 755 0
911 755 0.99509004789631994
912 755 0
1489 755 0
1490 755 0
1491 755 0
1492 755 0
889 756 0
890 756 0
891 756 0
892 756 0
893 756 0
894 756 0
895 756 0
896 756 0
897 756 0
898 756 0
899 756 0
900 756 0
901 756 0
902 756 0
903 756 0
904 756 0
905 756 0
906 756 0
907 756 0
908 756 0
909 756 0
910 756 0
911 756 0
912 756 0.99509004789631994
1489 756 0
1490 756 0
1491 756 0
1492 756 0
1485 757 0
1486 757 0
1487 757 0
1488 757 0
1667 757 0
1485 758 0.99878751991636638
1486 758 0
1487 758 0
1488 758 0
1667 758 0
1485 759 0
1486 759 0.99886974093913028
1487 759 0
1488 759 0
1667 759 0
1485 760 0
1486 760 0
1487 760 0.99859691322799182
1488 760 0
1667 760 0
1485 761 0
1486 761 0
1487 761 0
1488 761 0.99879118685427859
1667 761 0
1485 762 0
1486 762 0
1487 762 0
1488 762 0
1667 762 1
877 763 -0.99509004789631994
878 763 -0
879 763 -0
880 763 -0
881 763 -0
882 763 -0
883 763 -0
884 763 -0
885 763 -0
886 763 -0
887 763 -0
888 763 -0
889 763 0
890 763 0
891 763 0
892 763 0
893 763 0
894 763 0
895 763 0
896 763 0
897 763 0
898 763 0
899 763 0
900 763 0
1485 763 -0.1803189598547551
1486 763 -0.25584631152049064
1487 763 -0.074765084896359371
1488 763 -0.06244980534901011
877 764 -0
878 764 -0.99509004789631994
879 764 -0
880 764 -0
881 764 -0
882 764 -0
883 764 -0
884 764 -0
885 764 -0
886 764 -0
887 764 -0
888 764 -0
889 764 0
890 764 0
891 764 0
892 764 0
893 764 0
894 764 0
895 764 0
896 764 0
897 764 0
898 764 0
899 764 0
900 764 0
1485 764 0.10820261428783474
1486 764 0.080196783561304039
1487 764 -0.016866001348705428
1488 764 -0.17094248486675911
877 765 -0
878 765 -0
879 765 -0.99509004789631994
880 765 -0
881 765 -0
882 765 -0
883 765 -0
884 765 -0
885 765 -0
886 765 -0
887 765 -0
888 765 -0
889 765 0
890 765 0
891 765 0
892 765 0
893 765 0
894 765 0
895 765 0
896 765 0
897 765 0
898 765 0
899 765 0
900 765 0
1485 765 0.021296203412182201
1486 765 0.06379387941368389
1487 765 0.33227429440027084
1488 765 0.038055274961526345
877 766 -0
878 766 -0
879 766 -0
880 766 -0.99509004789631994
881 766 -0
882 766 -0
883 766 -0
884 766 -0
885 766 -0
886 766 -0
887 766 -0
888 766 -0
889 766 0
890 766 0
891 766 0
892 766 0
893 766 0
894 766 0
895 766 0
896 766 0
897 766 0
898 766 0
899 766 0
900 766 0
1485 766 0.19846746771042395
1486 766 0.13291349456905685
1487 766 -0.11659569025066187
1488 766 0.1709989853023412
877 767 -0
878 767 -0
879 767 -0
880 767 -0
881 767 -0.99509004789631994
882 767 -0
883 767 -0
884 767 -0
885 767 -0
886 767 -0
887 767 -0
888 767 -0
889 767 0
890 767 0
891 767 0
892 767 0
893 767 0
894 767 0
895 767 0
896 767 0
897 767 0
898 767 0
899 767 0
900 767 0
1485 767 0.06406726430169403
1486 767 0.0077975121873435499
1487 767 -0.012888481757033089
1488 767 0.1821584263174176
877 768 -0
878 768 -0
879 768 -0
880 768 -0
881 768 -0
882 768 -0.99509004789631994
883 768 -0
884 768 -0
885 768 -0
886 768 -0
887 768 -0
888 768 -0
889 768 0
890 768 0
891 768 0
892 768 0
893 768 0
894 768 0
895 768 0
896 768 0
897 768 0
898 768 0
899 768 0
900 768 0
1485 768 0.14930176975937659
1486 768 -0.1220518999462523
1487 768 -0.21437482240798272
1488 768 -0.27728111366749703
877 769 -0
878 769 -0
879 769 -0
880 769 -0
881 769 -0
882 769 -0
883 769 -0.99509004789631994
884 769 -0
885 769 -0
886 769 -0
887 769 -0
888 769 -0
889 769 0
890 769 0
891 769 0
892 769 0
893 769 0
894 769 0
895 769 0
896 769 0
897 769 0
898 769 0
899 769 0
900 769 0
1485 769 -0.27832449100114248
1486 769 -0.023030066571549251
1487 769 0.085999904285044407
1488 769 0.14042558666593874
877 770 -0
878 770 -0
879 770 -0
880 770 -0
881 770 -0
882 770 -0
883 770 -0
884 770 -0.99509004789631994
885 770 -0
886 770 -0
887 770 -0
888 770 -0
889 770 0
890 770 0
891 770 0
892 770 0
893 770 0
894 770 0
895 770 0
896 770 0
897 770 0
898 770 0
899 770 0
900 770 0
1485 770 0.14426661227624929
1486 770 0.019112219351713613
1487 770 -0.3383340256558125
1488 770 -0.26332006554483989
877 771 -0
878 771 -0
879 771 -0
880 771 -0
881 771 -0
882 771 -0
883 771 -0
884 771 -0
885 771 -0.99509004789631994
886 771 -0
887 771 -0
888 771 -0
889 771 0
890 771 0
891 771 0
892 771 0
893 771 0
894 771 0
895 771 0
896 771 0
897 771 0
898 771 0
899 771 0
900 771 0
1485 771 -0.11462509557936003
1486 771 -0.065598224589830417
1487 771 0.12045547271290091
1488 771 0.066735657880519217
877 772 -0
878 772 -0
879 772 -0
880 772 -0
881 772 -0
882 772 -0
883 772 -0
884 772 -0
885 772 -0
886 772 -0.99509004789631994
887 772 -0
888 772 -0
889 772 0
890 772 0
891 772 0
892 772 0
893 772 0
894 772 0
895 772 0
896 772 0
897 772 0
898 772 0
899 772 0
900 772 0
1485 772 0.1112726701807888
1486 772 -0.18163442438886057
1487 772 -0.24934842404473068
1488 772 0.087619788974651794
877 773 -0
878 773 -0
879 773 -0
880 773 -0
881 773 -0
882 773 -0
883 773 -0
884 773 -0
885 773 -0
886 773 -0
887 773 -0.99509004789631994
888 773 -0
889 773 0
890 773 0
891 773 0
892 773 0
893 773 0
894 773 0
895 773 0
896 773 0
897 773 0
898 773 0
899 773 0
900 773 0
1485 773 0.0048220099123521959
1486 773 -0.09230703811323461
1487 773 -0.22028815111069383
1488 773 -0.062540089363958593
877 774 -0
878 774 -0
879 774 -0
880 774 -0
881 774 -0
882 774 -0
883 774 -0
884 774 -0
885 774 -0
886 774 -0
887 774 -0
888 774 -0.99509004789631994
889 774 0
890 774 0
891 774 0
892 774 0
893 774 0
894 774 0
895 774 0
896 774 0
897 774 0
898 774 0
899 774 0
900 774 0
1485 774 0.22589481330245723
1486 774 0.085512196920050021
1487 774 -0.209328877595194
1488 774 0.014853171089538656
877 775 0
878 775 0
879 775 0
880 775 0
881 775 0
882 775 0
883 775 0
884 775 0
885 775 0
886 775 0
887 775 0
888 775 0
889 775 0.99509004789631994
890 775 0
891 775 0
892 775 0
893 775 0
894 775 0
895 775 0
896 775 0
897 775 0
898 775 0
899 775 0
900 775 0
1485 775 0
1486 775 0
1487 775 0
1488 775 0
877 776 0
878 776 0
879 776 0
880 776 0
881 776 0
882 776 0
883 776 0
884 776 0
885 776 0
886 776 0
887 776 0
888 776 0
889 776 0
890 776 0.99509004789631994
891 776 0
892 776 0
893 776 0
894 776 0
895 776 0
896 776 0
897 776 0
898 776 0
899 776 0
900 776 0
1485 776 0
1486 776 0
1487 776 0
1488 776 0
877 777 0
878 777 0
879 777 0
880 777 0
881 777 0
882 777 0
883 777 0
884 777 0
885 777 0
886 777 0
887 777 0
888 777 0
889 777 0
890 777 0
891 777 0.99509004789631994
892 777 0
893 777 0
894 777 0
895 777 0
896 777 0
897 777 0
898 777 0
899 777 0
900 777 0
1485 777 0
1486 777 0
1487 777 0
1488 777 0
877 778 0
878 778 0
879 778 0
880 778 0
881 778 0
882 778 0
883 778 0
884 778 0
885 778 0
886 778 0
887 778 0
888 778 0
889 778 0
890 778 0
891 778 0
892 778 0.99509004789631994
893 778 0
894 778 0
895 778 0
896 778 0
897 778 0
898 778 0
899 778 0
900 778 0
1485 778 0
1486 778 0
1487 778 0
1488 778 0
877 779 0
878 779 0
879 779 0
880 779 0
881 779 0
882 779 0
883 779 0
884 779 0
885 779 0
886 779 0
887 779 0
888 779 0
889 779 0
890 779 0
891 779 0
892 779 0
893 779 0.99509004789631994
894 779 0
895 779 0
896 779 0
897 779 0
898 779 0
899 779 0
900 779 0
1485 779 0
1486 779 0
1487 779 0
1488 779 0
877 780 0
878 780 0
879 780 0
880 780 0
881 780 0
882 780 0
883 780 0
884 780 0
885 780 0
886 780 0
887 780 0
888 780 0
889 780 0
890 780 0
891 780 0
892 780 0
893 780 0
894 780 0.99509004789631994
895 780 0
896 780 0
897 780 0
898 780 0
899 780 0
900 780 0
1485 780 0
1486 780 0
1487 780 0
1488 780 0
877 781 0
878 781 0
879 781 0
880 781 0
881 781 0
882 781 0
883 781 0
884 781 0
885 781 0
886 781 0
887 781 0
888 781 0
889 781 0
890 781 0
891 781 0
892 781 0
893 781 0
894 781 0
895 781 0.99509004789631994
896 781 0
897 781 0
898 781 0
899 781 0
900 781 0
1485 781 0
1486 781 0
1487 781 0
1488 781 0
877 782 0
878 782 0
879 782 0
880 782 0
881 782 0
882 782 0
883 782 0
884 782 0
885 782 0
886 782 0
887 782 0
888 782 0
889 782 0
890 782 0
891 782 0
892 782 0
893 782 0
894 782 0
895 782 0
896 782 0.99509004789631994
897 782 0
898 782 0
899 782 0
900 782 0
1485 782 0
1486 782 0
1487 782 0
1488 782 0
877 783 0
878 783 0
879 783 0
880 783 0
881 783 0
882 783 0
883 783 0
884 783 0
885 783 0
886 783 0
887 783 0
888 783 0
889 783 0
890 783 0
891 783 0
892 783 0
893 783 0
894 783 0
895 783 0
896 783 0
897 783 0.99509004789631994
898 783 0
899 783 0
900 783 0
1485 783 0
1486 783 0
1487 783 0
1488 783 0
877 784 0
878 784 0
879 784 0
880 784 0
881 784 0
882 784 0
883 784 0
884 784 0
885 784 0
886 784 0
887 784 0
888 784 0
889 784 0
890 784 0
891 784 0
892 784 0
893 784 0
894 784 0
895 784 0
896 784 0
897 784 0
898 784 0.99509004789631994
899 784 0
900 784 0
1485 784 0
1486 784 0
1487 784 0
1488 784 0
877 785 0
878 785 0
879 785 0
880 785 0
881 785 0
882 785 0
883 785 0
884 785 0
885 785 0
886 785 0
887 785 0
888 785 0
889 785 0
890 785 0
891 785 0
892 785 0
893 785 0
894 785 0
895 785 0
896 785 0
897 785 0
898 785 0
899 785 0.99509004789631994
900 785 0
1485 785 0
1486 785 0
1487 785 0
1488 785 0
877 786 0
878 786 0
879 786 0
880 786 0
881 786 0
882 786 0
883 786 0
884 786 0
885 786 0
886 786 0
887 786 0
888 786 0
889 786 0
890 786 0
891 786 0
892 786 0
893 786 0
894 786 0
895 786 0
896 786 0
897 786 0
898 786 0
899 786 0
900 786 0.99509004789631994
1485 786 0
1486 786 0
1487 786 0
1488 786 0
1481 787 0
1482 787 0
1483 787 0
1484 787 0
1666 787 0
1481 788 0.99878751991636638
1482 788 0
1483 788 0
1484 788 0
1666 788 0
1481 789 0
1482 789 0.99886974093913028
1483 789 0
1484 789 0
1666 789 0
1481 790 0
1482 790 0
1483 790 0.99859691322799182
1484 790 0
1666 790 0
1481 791 0
1482 791 0
1483 791 0
1484 791 0.99879118685427859
1666 791 0
1481 792 0
1482 792 0
1483 792 0
1484 792 0
1666 792 1
865 793 -0.99509004789631994
866 793 -0
867 793 -0
868 793 -0
869 793 -0
870 793 -0
871 793 -0
872 793 -0
873 793 -0
874 793 -0
875 793 -0
876 793 -0
877 793 0
878 793 0
879 793 0
880 793 0
881 793 0
882 793 0
883 793 0
884 793 0
885 793 0
886 793 0
887 793 0
888 793 0
1481 793 -0.1803189598547551
1482 793 -0.25584631152049064
1483 793 -0.074765084896359371
1484 793 -0.06244980534901011
865 794 -0
866 794 -0.99509004789631994
867 794 -0
868 794 -0
869 794 -0
870 794 -0
871 794 -0
872 794 -0
873 794 -0
874 794 -0
875 794 -0
876 794 -0
877 794 0
878 794 0
879 794 0
880 794 0
881 794 0
882 794 0
883 794 0
884 794 0
885 794 0
886 794 0
887 794 0
888 794 0
1481 794 0.10820261428783474
1482 794 0.080196783561304039
1483 794 -0.016866001348705428
1484 794 -0.17094248486675911
865 795 -0
866 795 -0
867 795 -0.99509004789631994
868 795 -0
869 795 -0
870 795 -0
871 795 -0
872 795 -0
873 795 -0
874 795 -0
875 795 -0
876 795 -0
877 795 0
878 795 0
879 795 0
880 795 0
881 795 0
882 795 0
883 795 0
884 795 0
885 795 0
886 795 0
887 795 0
888 795 0
1481 795 0.021296203412182201
1482 795 0.06379387941368389
1483 795 0.33227429440027084
1484 795 0.038055274961526345
865 796 -0
866 796 -0
867 796 -0
868 796 -0.99509004789631994
869 796 -0
870 796 -0
871 796 -0
872 796 -0
873 796 -0
874 796 -0
875 796 -0
876 796 -0
877 796 0
878 796 0
879 796 0
880 796 0
881 796 0
882 796 0
883 796 0
884 796 0
885 796 0
886 796 0
887 796 0
888 796 0
1481 796 0.19846746771042395
1482 796 0.13291349456905685
1483 796 -0.11659569025066187
1484 796 0.1709989853023412
865 797 -0
866 797 -0
867 797 -0
868 797 -0
869 797 -0.99509004789631994
870 797 -0
871 797 -0
872 797 -0
873 797 -0
874 797 -0
875 797 -0
876 797 -0
877 797 0
878 797 0
879 797 0
880 797 0
881 797 0
882 797 0
883 797 0
884 797 0
885 797 0
886 797 0
887 797 0
888 797 0
1481 797 0.06406726430169403
1482 797 0.0077975121873435499
1483 797 -0.012888481757033089
1484 797 0.1821584263174176
865 798 -0
866 798 -0
867 798 -0
868 798 -0
869 798 -0
870 798 -0.99509004789631994
871 798 -0
872 798 -0
873 798 -0
874 798 -0
875 798 -0
876 798 -0
877 798 0
878 798 0
879 798 0
880 798 0
881 798 0
882 798 0
883 798 0
884 798 0
885 798 0
886 798 0
887 798 0
888 798 0
1481 798 0.14930176975937659
1482 798 -0.1220518999462523
1483 798 -0.21437482240798272
1484 798 -0.27728111366749703
865 799 -0
866 799 -0
867 799 -0
868 799 -0
869 799 -0
870 799 -0
871 799 -0.99509004789631994
872 799 -0
873 799 -0
874 799 -0
875 799 -0
876 799 -0
877 799 0
878 799 0
879 799 0
880 799 0
881 799 0
882 799 0
883 799 0
884 799 0
885 799 0
886 799 0
887 799 0
888 799 0
1481 799 -0.27832449100114248
1482 799 -0.023030066571549251
1483 799 0.085999904285044407
1484 799 0.14042558666593874
865 800 -0
866 800 -0
867 800 -0
868 800 -0
869 800 -0
870 800 -0
871 800 -0
872 800 -0.99509004789631994
873 800 -0
874 800 -0
875 800 -0
876 800 -0
877 800 0
878 800 0
879 800 0
880 800 0
881 800 0
882 800 0
883 800 0
884 800 0
885 800 0
886 800 0
887 800 0
888 800 0
1481 800 0.14426661227624929
1482 800 0.019112219351713613
1483 800 -0.3383340256558125
1484 800 -0.26332006554483989
865 801 -0
866 801 -0
867 801 -0
868 801 -0
869 801 -0
870 801 -0
871 801 -0
872 801 -0
873 801 -0.99509004789631994
874 801 -0
875 801 -0
876 801 -0
877 801 0
878 801 0
879 801 0
880 801 0
881 801 0
882 801 0
883 801 0
884 801 0
885 801 0
886 801 0
887 801 0
888 801 0
1481 801 -0.11462509557936003
1482 801 -0.065598224589830417
1483 801 0.12045547271290091
1484 801 0.066735657880519217
865 802 -0
866 802 -0
867 802 -0
868 802 -0
869 802 -0
870 802 -0
871 802 -0
872 802 -0
873 802 -0
874 802 -0.99509004789631994
875 802 -0
876 802 -0
877 802 0
878 802 0
879 802 0
880 802 0
881 802 0
882 802 0
883 802 0
884 802 0
885 802 0
886 802 0
887 802 0
888 802 0
1481 802 0.1112726701807888
1482 802 -0.18163442438886057
1483 802 -0.24934842404473068
1484 802 0.087619788974651794
865 803 -0
866 803 -0
867 803 -0
868 803 -0
869 803 -0
870 803 -0
871 803 -0
872 803 -0
873 803 -0
874 803 -0
875 803 -0.99509004789631994
876 803 -0
877 803 0
878 803 0
879 803 0
880 803 0
881 803 0
882 803 0
883 803 0
884 803 0
885 803 0
886 803 0
887 803 0
888 803 0
1481 803 0.0048220099123521959
1482 803 -0.09230703811323461
1483 803 -0.22028815111069383
1484 803 -0.062540089363958593
865 804 -0
866 804 -0
867 804 -0
868 804 -0
869 804 -0
870 804 -0
871 804 -0
872 804 -0
873 804 -0
874 804 -0
875 804 -0
876 804 -0.99509004789631994
877 804 0
878 804 0
879 804 0
880 804 0
881 804 0
882 804 0
883 804 0
884 804 0
885 804 0
886 804 0
887 804 0
888 804 0
1481 804 0.22589481330245723
1482 804 0.085512196920050021
1483 804 -0.209328877595194
1484 804 0.014853171089538656
865 805 0
866 805 0
867 805 0
868 805 0
869 805 0
870 805 0
871 805 0
872 805 0
873 805 0
874 805 0
875 805 0
876 805 0
877 805 0.99509004789631994
878 805 0
879 805 0
880 805 0
881 805 0
882 805 0
883 805 0
884 805 0
885 805 0
886 805 0
887 805 0
888 805 0
1481 805 0
1482 805 0
1483 805 0
1484 805 0
865 806 0
866 806 0
867 806 0
868 806 0
869 806 0
870 806 0
871 806 0
872 806 0
873 806 0
874 806 0
875 806 0
876 806 0
877 806 0
878 806 0.99509004789631994
879 806 0
880 806 0
881 806 0
882 806 0
883 806 0
884 806 0
885 806 0
886 806 0
887 806 0
888 806 0
1481 806 0
1482 806 0
1483 806 0
1484 806 0
865 807 0
866 807 0
867 807 0
868 807 0
869 807 0
870 807 0
871 807 0
872 807 0
873 807 0
874 807 0
875 807 0
876 807 0
877 807 0
878 807 0
879 807 0.99509004789631994
880 807 0
881 807 0
882 807 0
883 807 0
884 807 0
885 807 0
886 807 0
887 807 0
888 807 0
1481 807 0
1482 807 0
1483 807 0
1484 807 0
865 808 0
866 808 0
867 808 0
868 808 0
869 808 0
870 808 0
871 808 0
872 808 0
873 808 0
874 808 0
875 808 0
876 808 0
877 808 0
878 808 0
879 808 0
880 808 0.99509004789631994
881 808 0
882 808 0
883 808 0
884 808 0
885 808 0
886 808 0
887 808 0
888 808 0
1481 808 0
1482 808 0
1483 808 0
1484 808 0
865 809 0
866 809 0
867 809 0
868 809 0
869 809 0
870 809 0
871 809 0
872 809 0
873 809 0
874 809 0
875 809 0
876 809 0
877 809 0
878 809 0
879 809 0
880 809 0
881 809 0.99509004789631994
882 809 0
883 809 0
884 809 0
885 809 0
886 809 0
887 809 0
888 809 0
1481 809 0
1482 809 0
1483 809 0
1484 809 0
865 810 0
866 810 0
867 810 0
868 810 0
869 810 0
870 810 0
871 810 0
872 810 0
873 810 0
874 810 0
875 810 0
876 810 0
877 810 0
878 810 0
879 810 0
880 810 0
881 810 0
882 810 0.99509004789631994
883 810 0
884 810 0
885 810 0
886 810 0
887 810 0
888 810 0
1481 810 0
1482 810 0
1483 810 0
1484 810 0
865 811 0
866 811 0
867 811 0
868 811 0
869 811 0
870 811 0
871 811 0
872 811 0
873 811 0
874 811 0
875 811 0
876 811 0
877 811 0
878 811 0
879 811 0
880 811 0
881 811 0
882 811 0
883 811 0.99509004789631994
884 811 0
885 811 0
886 811 0
887 811 0
888 811 0
1481 811 0
1482 811 0
1483 811 0
1484 811 0
865 812 0
866 812 0
867 812 0
868 812 0
869 812 0
870 812 0
871 812 0
872 812 0
873 812 0
874 812 0
875 812 0
876 812 0
877 812 0
878 812 0
879 812 0
880 812 0
881 812 0
882 812 0
883 812 0
884 812 0.99509004789631994
885 812 0
886 812 0
887 812 0
888 812 0
1481 812 0
1482 812 0
1483 812 0
1484 812 0
865 813 0
866 813 0
867 813 0
868 813 0
869 813 0
870 813 0
871 813 0
872 813 0
873 813 0
874 813 0
875 813 0
876 813 0
877 813 0
878 813 0
879 813 0
880 813 0
881 813 0
882 813 0
883 813 0
884 813 0
885 813 0.99509004789631994
886 813 0
887 813 0
888 813 0
1481 813 0
1482 813 0
1483 813 0
1484 813 0
865 814 0
866 814 0
867 814 0
868 814 0
869 814 0
870 814 0
871 814 0
872 814 0
873 814 0
874 814 0
875 814 0
876 814 0
877 814 0
878 814 0
879 814 0
880 814 0
881 814 0
882 814 0
883 814 0
884 814 0
885 814 0
886 814 0.99509004789631994
887 814 0
888 814 0
1481 814 0
1482 814 0
1483 814 0
1484 814 0
865 815 0
866 815 0
867 815 0
868 815 0
869 815 0
870 815 0
871 815 0
872 815 0
873 815 0
874 815 0
875 815 0
876 815 0
877 815 0
878 815 0
879 815 0
880 815 0
881 815 0
882 815 0
883 815 0
884 815 0
885 815 0
886 815 0
887 815 0.99509004789631994
888 815 0
1481 815 0
1482 815 0
1483 815 0
1484 815 0
865 816 0
866 816 0
867 816 0
868 816 0
869 816 0
870 816 0
871 816 0
872 816 0
873 816 0
874 816 0
875 816 0
876 816 0
877 816 0
878 816 0
879 816 0
880 816 0
881 816 0
882 816 0
883 816 0
884 816 0
885 816 0
886 816 0
887 816 0
888 816 0.99509004789631994
1481 816 0
1482 816 0
1483 816 0
1484 816 0
1477 817 0
1478 817 0
1479 817 0
1480 817 0
1665 817 0
1477 818 0.99878751991636638
1478 818 0
1479 818 0
1480 818 0
1665 818 0
1477 819 0
1478 819 0.99886974093913028
1479 819 0
1480 819 0
1665 819 0
1477 820 0
1478 820 0
1479 820 0.99859691322799182
1480 820 0
1665 820 0
1477 821 0
1478 821 0
1479 821 0
1480 821 0.99879118685427859
1665 821 0
1477 822 0
1478 822 0
1479 822 0
1480 822 0
1665 822 1
853 823 -0.99509004789631994
854 823 -0
855 823 -0
856 823 -0
857 823 -0
858 823 -0
859 823 -0
860 823 -0
861 823 -0
862 823 -0
863 823 -0
864 823 -0
865 823 0
866 823 0
867 823 0
868 823 0
869 823 0
870 823 0
871 823 0
872 823 0
873 823 0
874 823 0
875 823 0
876 823 0
1477 823 -0.1803189598547551
1478 823 -0.25584631152049064
1479 823 -0.074765084896359371
1480 823 -0.06244980534901011
853 824 -0
854 824 -0.99509004789631994
855 824 -0
856 824 -0
857 824 -0
858 824 -0
859 824 -0
860 824 -0
861 824 -0
862 824 -0
863 824 -0
864 824 -0
865 824 0
866 824 0
867 824 0
868 824 0
869 824 0
870 824 0
871 824 0
872 824 0
873 824 0
874 824 0
875 824 0
876 824 0
1477 824 0.10820261428783474
1478 824 0.080196783561304039
1479 824 -0.016866001348705428
1480 824 -0.17094248486675911
853 825 -0
854 825 -0
855 825 -0.99509004789631994
856 825 -0
857 825 -0
858 825 -0
859 825 -0
860 825 -0
861 825 -0
862 825 -0
863 825 -0
864 825 -0
865 825 0
866 825 0
867 825 0
868 825 0
869 825 0
870 825 0
871 825 0
872 825 0
873 825 0
874 825 0
875 825 0
876 825 0
1477 825 0.021296203412182201
1478 825 0.06379387941368389
1479 825 0.33227429440027084
1480 825 0.038055274961526345
853 826 -0
854 826 -0
855 826 -0
856 826 -0.99509004789631994
857 826 -0
858 826 -0
859 826 -0
860 826 -0
861 826 -0
862 826 -0
863 826 -0
864 826 -0
865 826 0
866 826 0
867 826 0
868 826 0
869 826 0
870 826 0
871 826 0
872 826 0
873 826 0
874 826 0
875 826 0
876 826 0
1477 826 0.19846746771042395
1478 826 0.13291349456905685
1479 826 -0.11659569025066187
1480 826 0.1709989853023412
853 827 -0
854 827 -0
855 827 -0
856 827 -0
857 827 -0.99509004789631994
858 827 -0
859 827 -0
860 827 -0
861 827 -0
862 827 -0
863 827 -0
864 827 -0
865 827 0
866 827 0
867 827 0
868 827 0
869 827 0
870 827 0
871 827 0
872 827 0
873 827 0
874 827 0
875 827 0
876 827 0
1477 827 0.06406726430169403
1478 827 0.0077975121873435499
1479 827 -0.012888481757033089
1480 827 0.1821584263174176
853 828 -0
854 828 -0
855 828 -0
856 828 -0
857 828 -0
858 828 -0.99509004789631994
859 828 -0
860 828 -0
861 828 -0
862 828 -0
863 828 -0
864 828 -0
865 828 0
866 828 0
867 828 0
868 828 0
869 828 0
870 828 0
871 828 0
872 828 0
873 828 0
874 828 0
875 828 0
876 828 0
1477 828 0.14930176975937659
1478 828 -0.1220518999462523
1479 828 -0.21437482240798272
1480 828 -0.27728111366749703
853 829 -0
854 829 -0
855 829 -0
856 829 -0
857 829 -0
858 829 -0
859 829 -0.99509004789631994
860 829 -0
861 829 -0
862 829 -0
863 829 -0
864 829 -0
865 829 0
866 829 0
867 829 0
868 829 0
869 829 0
870 829 0
871 829 0
872 829 0
873 829 0
874 829 0
875 829 0
876 829 0
1477 829 -0.27832449100114248
1478 829 -0.023030066571549251
1479 829 0.085999904285044407
1480 829 0.14042558666593874
853 830 -0
854 830 -0
855 830 -0
856 830 -0
857 830 -0
858 830 -0
859 830 -0
860 830 -0.99509004789631994
861 830 -0
862 830 -0
863 830 -0
864 830 -0
865 830 0
866 830 0
867 830 0
868 830 0
869 830 0
870 830 0
871 830 0
872 830 0
873 830 0
874 830 0
875 830 0
876 830 0
1477 830 0.14426661227624929
1478 830 0.019112219351713613
1479 830 -0.3383340256558125
1480 830 -0.26332006554483989
853 831 -0
854 831 -0
855 831 -0
856 831 -0
857 831 -0
858 831 -0
859 831 -0
860 831 -0
861 831 -0.99509004789631994
862 831 -0
863 831 -0
864 831 -0
865 831 0
866 831 0
867 831 0
868 831 0
869 831 0
870 831 0
871 831 0
872 831 0
873 831 0
874 831 0
875 831 0
876 831 0
1477 831 -0.11462509557936003
1478 831 -0.065598224589830417
1479 831 0.12045547271290091
1480 831 0.066735657880519217
853 832 -0
854 832 -0
855 832 -0
856 832 -0
857 832 -0
858 832 -0
859 832 -0
860 832 -0
861 832 -0
862 832 -0.99509004789631994
863 832 -0
864 832 -0
865 832 0
866 832 0
867 832 0
868 832 0
869 832 0
870 832 0
871 832 0
872 832 0
873 832 0
874 832 0
875 832 0
876 832 0
1477 832 0.1112726701807888
1478 832 -0.18163442438886057
1479 832 -0.24934842404473068
1480 832 0.087619788974651794
853 833 -0
854 833 -0
855 833 -0
856 833 -0
857 833 -0
858 833 -0
859 833 -0
860 833 -0
861 833 -0
862 833 -0
863 833 -0.99509004789631994
864 833 -0
865 833 0
866 833 0
867 833 0
868 833 0
869 833 0
870 833 0
871 833 0
872 833 0
873 833 0
874 833 0
875 833 0
876 833 0
1477 833 0.0048220099123521959
1478 833 -0.09230703811323461
1479 833 -0.22028815111069383
1480 833 -0.062540089363958593
853 834 -0
854 834 -0
855 834 -0
856 834 -0
857 834 -0
858 834 -0
859 834 -0
860 834 -0
861 834 -0
862 834 -0
863 834 -0
864 834 -0.99509004789631994
865 834 0
866 834 0
867 834 0
868 834 0
869 834 0
870 834 0
871 834 0
872 834 0
873 834 0
874 834 0
875 834 0
876 834 0
1477 834 0.22589481330245723
1478 834 0.085512196920050021
1479 834 -0.209328877595194
1480 834 0.014853171089538656
853 835 0
854 835 0
855 835 0
856 835 0
857 835 0
858 835 0
859 835 0
860 835 0
861 835 0
862 835 0
863 835 0
864 835 0
865 835 0.99509004789631994
866 835 0
867 835 0
868 835 0
869 835 0
870 835 0
871 835 0
872 835 0
873 835 0
874 835 0
875 835 0
876 835 0
1477 835 0
1478 835 0
1479 835 0
1480 835 0
853 836 0
854 836 0
855 836 0
856 836 0
857 836 0
858 836 0
859 836 0
860 836 0
861 836 0
862 836 0
863 836 0
864 836 0
865 836 0
866 836 0.99509004789631994
867 836 0
868 836 0
869 836 0
870 836 0
871 836 0
872 836 0
873 836 0
874 836 0
875 836 0
876 836 0
1477 836 0
1478 836 0
1479 836 0
1480 836 0
853 837 0
854 837 0
855 837 0
856 837 0
857 837 0
858 837 0
859 837 0
860 837 0
861 837 0
862 837 0
863 837 0
864 837 0
865 837 0
866 837 0
867 837 0.99509004789631994
868 837 0
869 837 0
870 837 0
871 837 0
872 837 0
873 837 0
874 837 0
875 837 0
876 837 0
1477 837 0
1478 837 0
1479 837 0
1480 837 0
853 838 0
854 838 0
855 838 0
856 838 0
857 838 0
858 838 0
859 838 0
860 838 0
861 838 0
862 838 0
863 838 0
864 838 0
865 838 0
866 838 0
867 838 0
868 838 0.99509004789631994
869 838 0
870 838 0
871 838 0
872 838 0
873 838 0
874 838 0
875 838 0
876 838 0
1477 838 0
1478 838 0
1479 838 0
1480 838 0
853 839 0
854 839 0
855 839 0
856 839 0
857 839 0
858 839 0
859 839 0
860 839 0
861 839 0
862 839 0
863 839 0
864 839 0
865 839 0
866 839 0
867 839 0
868 839 0
869 839 0.99509004789631994
870 839 0
871 839 0
872 839 0
873 839 0
874 839 0
875 839 0
876 839 0
1477 839 0
1478 839 0
1479 839 0
1480 839 0
853 840 0
854 840 0
855 840 0
856 840 0
857 840 0
858 840 0
859 840 0
860 840 0
861 840 0
862 840 0
863 840 0
864 840 0
865 840 0
866 840 0
867 840 0
868 840 0
869 840 0
870 840 0.99509004789631994
871 840 0
872 840 0
873 840 0
874 840 0
875 840 0
876 840 0
1477 840 0
1478 840 0
1479 840 0
1480 840 0
853 841 0
854 841 0
855 841 0
856 841 0
857 841 0
858 841 0
859 841 0
860 841 0
861 841 0
862 841 0
863 841 0
864 841 0
865 841 0
866 841 0
867 841 0
868 841 0
869 841 0
870 841 0
871 841 0.99509004789631994
872 841 0
873 841 0
874 841 0
875 841 0
876 841 0
1477 841 0
1478 841 0
1479 841 0
1480 841 0
853 842 0
854 842 0
855 842 0
856 842 0
857 842 0
858 842 0
859 842 0
860 842 0
861 842 0
862 842 0
863 842 0
864 842 0
865 842 0
866 842 0
867 842 0
868 842 0
869 842 0
870 842 0
871 842 0
872 842 0.99509004789631994
873 842 0
874 842 0
875 842 0
876 842 0
1477 842 0
1478 842 0
1479 842 0
1480 842 0
853 843 0
854 843 0
855 843 0
856 843 0
857 843 0
858 843 0
859 843 0
860 843 0
861 843 0
862 843 0
863 843 0
864 843 0
865 843 0
866 843 0
867 843 0
868 843 0
869 843 0
870 843 0
871 843 0
872 843 0
873 843 0.99509004789631994
874 843 0
875 843 0
876 843 0
1477 843 0
1478 843 0
1479 843 0
1480 843 0
853 844 0
854 844 0
855 844 0
856 844 0
857 844 0
858 844 0
859 844 0
860 844 0
861 844 0
862 844 0
863 844 0
864 844 0
865 844 0
866 844 0
867 844 0
868 844 0
869 844 0
870 844 0
871 844 0
872 844 0
873 844 0
874 844 0.99509004789631994
875 844 0
876 844 0
1477 844 0
1478 844 0
1479 844 0
1480 844 0
853 845 0
854 845 0
855 845 0
856 845 0
857 845 0
858 845 0
859 845 0
860 845 0
861 845 0
862 845 0
863 845 0
864 845 0
865 845 0
866 845 0
867 845 0
868 845 0
869 845 0
870 845 0
871 845 0
872 845 0
873 845 0
874 845 0
875 845 0.99509004789631994
876 845 0
1477 845 0
1478 845 0
1479 845 0
1480 845 0
853 846 0
854 846 0
855 846 0
856 846 0
857 846 0
858 846 0
859 846 0
860 846 0
861 846 0
862 846 0
863 846 0
864 846 0
865 846 0
866 846 0
867 846 0
868 846 0
869 846 0
870 846 0
871 846 0
872 846 0
873 846 0
874 846 0
875 846 0
876 846 0.99509004789631994
1477 846 0
1478 846 0
1479 846 0
1480 846 0
1473 847 0
1474 847 0
1475 847 0
1476 847 0
1664 847 0
1473 848 0.99878751991636638
1474 848 0
1475 848 0
1476 848 0
1664 848 0
1473 849 0
1474 849 0.99886974093913028
1475 849 0
1476 849 0
1664 849 0
1473 850 0
1474 850 0
1475 850 0.99859691322799182
1476 850 0
1664 850 0
1473 851 0
1474 851 0
1475 851 0
1476 851 0.99879118685427859
1664 851 0
1473 852 0
1474 852 0
1475 852 0
1476 852 0
1664 852 1
841 853 -0.99509004789631994
842 853 -0
843 853 -0
844 853 -0
845 853 -0
846 853 -0
847 853 -0
848 853 -0
849 853 -0
850 853 -0
851 853 -0
852 853 -0
853 853 0
854 853 0
855 853 0
856 853 0
857 853 0
858 853 0
859 853 0
860 853 0
861 853 0
862 853 0
863 853 0
864 853 0
1473 853 -0.1803189598547551
1474 853 -0.25584631152049064
1475 853 -0.074765084896359371
1476 853 -0.06244980534901011
841 854 -0
842 854 -0.99509004789631994
843 854 -0
844 854 -0
845 854 -0
846 854 -0
847 854 -0
848 854 -0
849 854 -0
850 854 -0
851 854 -0
852 854 -0
853 854 0
854 854 0
855 854 0
856 854 0
857 854 0
858 854 0
859 854 0
860 854 0
861 854 0
862 854 0
863 854 0
864 854 0
1473 854 0.10820261428783474
1474 854 0.080196783561304039
1475 854 -0.016866001348705428
1476 854 -0.17094248486675911
841 855 -0
842 855 -0
843 855 -0.99509004789631994
844 855 -0
845 855 -0
846 855 -0
847 855 -0
848 855 -0
849 855 -0
850 855 -0
851 855 -0
852 855 -0
853 855 0
854 855 0
855 855 0
856 855 0
857 855 0
858 855 0
859 855 0
860 855 0
861 855 0
862 855 0
863 855 0
864 855 0
1473 855 0.021296203412182201
1474 855 0.06379387941368389
1475 855 0.33227429440027084
1476 855 0.038055274961526345
841 856 -0
842 856 -0
843 856 -0
844 856 -0.99509004789631994
845 856 -0
846 856 -0
847 856 -0
848 856 -0
849 856 -0
850 856 -0
851 856 -0
852 856 -0
853 856 0
854 856 0
855 856 0
856 856 0
857 856 0
858 856 0
859 856 0
860 856 0
861 856 0
862 856 0
863 856 0
864 856 0
1473 856 0.19846746771042395
1474 856 0.13291349456905685
1475 856 -0.11659569025066187
1476 856 0.1709989853023412
841 857 -0
842 857 -0
843 857 -0
844 857 -0
845 857 -0.99509004789631994
846 857 -0
847 857 -0
848 857 -0
849 857 -0
850 857 -0
851 857 -0
852 857 -0
853 857 0
854 857 0
855 857 0
856 857 0
857 857 0
858 857 0
859 857 0
860 857 0
861 857 0
862 857 0
863 857 0
864 857 0
1473 857 0.06406726430169403
1474 857 0.0077975121873435499
1475 857 -0.012888481757033089
1476 857 0.1821584263174176
841 858 -0
842 858 -0
843 858 -0
844 858 -0
845 858 -0
846 858 -0.99509004789631994
847 858 -0
848 858 -0
849 858 -0
850 858 -0
851 858 -0
852 858 -0
853 858 0
854 858 0
855 858 0
856 858 0
857 858 0
858 858 0
859 858 0
860 858 0
861 858 0
862 858 0
863 858 0
864 858 0
1473 858 0.14930176975937659
1474 858 -0.1220518999462523
1475 858 -0.21437482240798272
1476 858 -0.27728111366749703
841 859 -0
842 859 -0
843 859 -0
844 859 -0
845 859 -0
846 859 -0
847 859 -0.99509004789631994
848 859 -0
849 859 -0
850 859 -0
851 859 -0
852 859 -0
853 859 0
854 859 0
855 859 0
856 859 0
857 859 0
858 859 0
859 859 0
860 859 0
861 859 0
862 859 0
863 859 0
864 859 0
1473 859 -0.27832449100114248
1474 859 -0.023030066571549251
1475 859 0.085999904285044407
1476 859 0.14042558666593874
841 860 -0
842 860 -0
843 860 -0
844 860 -0
845 860 -0
846 860 -0
847 860 -0
848 860 -0.99509004789631994
849 860 -0
850 860 -0
851 860 -0
852 860 -0
853 860 0
854 860 0
855 860 0
856 860 0
857 860 0
858 860 0
859 860 0
860 860 0
861 860 0
862 860 0
863 860 0
864 860 0
1473 860 0.14426661227624929
1474 860 0.019112219351713613
1475 860 -0.3383340256558125
1476 860 -0.26332006554483989
841 861 -0
842 861 -0
843 861 -0
844 861 -0
845 861 -0
846 861 -0
847 861 -0
848 861 -0
849 861 -0.99509004789631994
850 861 -0
851 861 -0
852 861 -0
853 861 0
854 861 0
855 861 0
856 861 0
857 861 0
858 861 0
859 861 0
860 861 0
861 861 0
862 861 0
863 861 0
864 861 0
1473 861 -0.11462509557936003
1474 861 -0.065598224589830417
1475 861 0.12045547271290091
1476 861 0.066735657880519217
841 862 -0
842 862 -0
843 862 -0
844 862 -0
845 862 -0
846 862 -0
847 862 -0
848 862 -0
849 862 -0
850 862 -0.99509004789631994
851 862 -0
852 862 -0
853 862 0
854 862 0
855 862 0
856 862 0
857 862 0
858 862 0
859 862 0
860 862 0
861 862 0
862 862 0
863 862 0
864 862 0
1473 862 0.1112726701807888
1474 862 -0.18163442438886057
1475 862 -0.24934842404473068
1476 862 0.087619788974651794
841 863 -0
842 863 -0
843 863 -0
844 863 -0
845 863 -0
846 863 -0
847 863 -0
848 863 -0
849 863 -0
850 863 -0
851 863 -0.99509004789631994
852 863 -0
853 863 0
854 863 0
855 863 0
856 863 0
857 863 0
858 863 0
859 863 0
860 863 0
861 863 0
862 863 0
863 863 0
864 863 0
1473 863 0.0048220099123521959
1474 863 -0.09230703811323461
1475 863 -0.22028815111069383
1476 863 -0.062540089363958593
841 864 -0
842 864 -0
843 864 -0
844 864 -0
845 864 -0
846 864 -0
847 864 -0
848 864 -0
849 864 -0
850 864 -0
851 864 -0
852 864 -0.99509004789631994
853 864 0
854 864 0
855 864 0
856 864 0
857 864 0
858 864 0
859 864 0
860 864 0
861 864 0
862 864 0
863 864 0
864 864 0
1473 864 0.22589481330245723
1474 864 0.085512196920050021
1475 864 -0.209328877595194
1476 864 0.014853171089538656
841 865 0
842 865 0
843 865 0
844 865 0
845 865 0
846 865 0
847 865 0
848 865 0
849 865 0
850 865 0
851 865 0
852 865 0
853 865 0.99509004789631994
854 865 0
855 865 0
856 865 0
857 865 0
858 865 0
859 865 0
860 865 0
861 865 0
862 865 0
863 865 0
864 865 0
1473 865 0
1474 865 0
1475 865 0
1476 865 0
841 866 0
842 866 0
843 866 0
844 866 0
845 866 0
846 866 0
847 866 0
848 866 0
849 866 0
850 866 0
851 866 0
852 866 0
853 866 0
854 866 0.99509004789631994
855 866 0
856 866 0
857 866 0
858 866 0
859 866 0
860 866 0
861 866 0
862 866 0
863 866 0
864 866 0
1473 866 0
1474 866 0
1475 866 0
1476 866 0
841 867 0
842 867 0
843 867 0
844 867 0
845 867 0
846 867 0
847 867 0
848 867 0
849 867 0
850 867 0
851 867 0
852 867 0
853 867 0
854 867 0
855 867 0.99509004789631994
856 867 0
857 867 0
858 867 0
859 867 0
860 867 0
861 867 0
862 867 0
863 867 0
864 867 0
1473 867 0
1474 867 0
1475 867 0
1476 867 0
841 868 0
842 868 0
843 868 0
844 868 0
845 868 0
846 868 0
847 868 0
848 868 0
849 868 0
850 868 0
851 868 0
852 868 0
853 868 0
854 868 0
855 868 0
856 868 0.99509004789631994
857 868 0
858 868 0
859 868 0
860 868 0
861 868 0
862 868 0
863 868 0
864 868 0
1473 868 0
1474 868 0
1475 868 0
1476 868 0
841 869 0
842 869 0
843 869 0
844 869 0
845 869 0
846 869 0
847 869 0
848 869 0
849 869 0
850 869 0
851 869 0
852 869 0
853 869 0
854 869 0
855 869 0
856 869 0
857 869 0.99509004789631994
858 869 0
859 869 0
860 869 0
861 869 0
862 869 0
863 869 0
864 869 0
1473 869 0
1474 869 0
1475 869 0
1476 869 0
841 870 0
842 870 0
843 870 0
844 870 0
845 870 0
846 870 0
847 870 0
848 870 0
849 870 0
850 870 0
851 870 0
852 870 0
853 870 0
854 870 0
855 870 0
856 870 0
857 870 0
858 870 0.99509004789631994
859 870 0
860 870 0
861 870 0
862 870 0
863 870 0
864 870 0
1473 870 0
1474 870 0
1475 870 0
1476 870 0
841 871 0
842 871 0
843 871 0
844 871 0
845 871 0
846 871 0
847 871 0
848 871 0
849 871 0
850 871 0
851 871 0
852 871 0
853 871 0
854 871 0
855 871 0
856 871 0
857 871 0
858 871 0
859 871 0.99509004789631994
860 871 0
861 871 0
862 871 0
863 871 0
864 871 0
1473 871 0
1474 871 0
1475 871 0
1476 871 0
841 872 0
842 872 0
843 872 0
844 872 0
845 872 0
846 872 0
847 872 0
848 872 0
849 872 0
850 872 0
851 872 0
852 872 0
853 872 0
854 872 0
855 872 0
856 872 0
857 872 0
858 872 0
859 872 0
860 872 0.99509004789631994
861 872 0
862 872 0
863 872 0
864 872 0
1473 872 0
1474 872 0
1475 872 0
1476 872 0
841 873 0
842 873 0
843 873 0
844 873 0
845 873 0
846 873 0
847 873 0
848 873 0
849 873 0
850 873 0
851 873 0
852 873 0
853 873 0
854 873 0
855 873 0
856 873 0
857 873 0
858 873 0
859 873 0
860 873 0
861 873 0.99509004789631994
862 873 0
863 873 0
864 873 0
1473 873 0
1474 873 0
1475 873 0
1476 873 0
841 874 0
842 874 0
843 874 0
844 874 0
845 874 0
846 874 0
847 874 0
848 874 0
849 874 0
850 874 0
851 874 0
852 874 0
853 874 0
854 874 0
855 874 0
856 874 0
857 874 0
858 874 0
859 874 0
860 874 0
861 874 0
862 874 0.99509004789631994
863 874 0
864 874 0
1473 874 0
1474 874 0
1475 874 0
1476 874 0
841 875 0
842 875 0
843 875 0
844 875 0
845 875 0
846 875 0
847 875 0
848 875 0
849 875 0
850 875 0
851 875 0
852 875 0
853 875 0
854 875 0
855 875 0
856 875 0
857 875 0
858 875 0
859 875 0
860 875 0
861 875 0
862 875 0
863 875 0.99509004789631994
864 875 0
1473 875 0
1474 875 0
1475 875 0
1476 875 0
841 876 0
842 876 0
843 876 0
844 876 0
845 876 0
846 876 0
847 876 0
848 876 0
849 876 0
850 876 0
851 876 0
852 876 0
853 876 0
854 876 0
855 876 0
856 876 0
857 876 0
858 876 0
859 876 0
860 876 0
861 876 0
862 876 0
863 876 0
864 876 0.99509004789631994
1473 876 0
1474 876 0
1475 876 0
1476 876 0
1469 877 0
1470 877 0
1471 877 0
1472 877 0
1663 877 0
1469 878 0.99878751991636638
1470 878 0
1471 878 0
1472 878 0
1663 878 0
1469 879 0
1470 879 0.99886974093913028
1471 879 0
1472 879 0
1663 879 0
1469 880 0
1470 880 0
1471 880 0.99859691322799182
1472 880 0
1663 880 0
1469 881 0
1470 881 0
1471 881 0
1472 881 0.99879118685427859
1663 881 0
1469 882 0
1470 882 0
1471 882 0
1472 882 0
1663 882 1
829 883 -0.99509004789631994
830 883 -0
831 883 -0
832 883 -0
833 883 -0
834 883 -0
835 883 -0
836 883 -0
837 883 -0
838 883 -0
839 883 -0
840 883 -0
841 883 0
842 883 0
843 883 0
844 883 0
845 883 0
846 883 0
847 883 0
848 883 0
849 883 0
850 883 0
851 883 0
852 883 0
1469 883 -0.1803189598547551
1470 883 -0.25584631152049064
1471 883 -0.074765084896359371
1472 883 -0.06244980534901011
829 884 -0
830 884 -0.99509004789631994
831 884 -0
832 884 -0
833 884 -0
834 884 -0
835 884 -0
836 884 -0
837 884 -0
838 884 -0
839 884 -0
840 884 -0
841 884 0
842 884 0
843 884 0
844 884 0
845 884 0
846 884 0
847 884 0
848 884 0
849 884 0
850 884 0
851 884 0
852 884 0
1469 884 0.10820261428783474
1470 884 0.080196783561304039
1471 884 -0.016866001348705428
1472 884 -0.17094248486675911
829 885 -0
830 885 -0
831 885 -0.99509004789631994
832 885 -0
833 885 -0
834 885 -0
835 885 -0
836 885 -0
837 885 -0
838 885 -0
839 885 -0
840 885 -0
841 885 0
842 885 0
843 885 0
844 885 0
845 885 0
846 885 0
847 885 0
848 885 0
849 885 0
850 885 0
851 885 0
852 885 0
1469 885 0.021296203412182201
1470 885 0.06379387941368389
1471 885 0.33227429440027084
1472 885 0.038055274961526345
829 886 -0
830 886 -0
831 886 -0
832 886 -0.99509004789631994
833 886 -0
834 886 -0
835 886 -0
836 886 -0
837 886 -0
838 886 -0
839 886 -0
840 886 -0
841 886 0
842 886 0
843 886 0
844 886 0
845 886 0
846 886 0
847 886 0
848 886 0
849 886 0
850 886 0
851 886 0
852 886 0
1469 886 0.19846746771042395
1470 886 0.13291349456905685
1471 886 -0.11659569025066187
1472 886 0.1709989853023412
829 887 -0
830 887 -0
831 887 -0
832 887 -0
833 887 -0.99509004789631994
834 887 -0
835 887 -0
836 887 -0
837 887 -0
838 887 -0
839 887 -0
840 887 -0
841 887 0
842 887 0
843 887 0
844 887 0
845 887 0
846 887 0
847 887 0
848 887 0
849 887 0
850 887 0
851 887 0
852 887 0
1469 887 0.06406726430169403
1470 887 0.0077975121873435499
1471 887 -0.012888481757033089
1472 887 0.1821584263174176
829 888 -0
830 888 -0
831 888 -0
832 888 -0
833 888 -0
834 888 -0.99509004789631994
835 888 -0
836 888 -0
837 888 -0
838 888 -0
839 888 -0
840 888 -0
841 888 0
842 888 0
843 888 0
844 888 0
845 888 0
846 888 0
847 888 0
848 888 0
849 888 0
850 888 0
851 888 0
852 888 0
1469 888 0.14930176975937659
1470 888 -0.1220518999462523
1471 888 -0.21437482240798272
1472 888 -0.27728111366749703
829 889 -0
830 889 -0
831 889 -0
832 889 -0
833 889 -0
834 889 -0
835 889 -0.99509004789631994
836 889 -0
837 889 -0
838 889 -0
839 889 -0
840 889 -0
841 889 0
842 889 0
843 889 0
844 889 0
845 889 0
846 889 0
847 889 0
848 889 0
849 889 0
850 889 0
851 889 0
852 889 0
1469 889 -0.27832449100114248
1470 889 -0.023030066571549251
1471 889 0.085999904285044407
1472 889 0.14042558666593874
829 890 -0
830 890 -0
831 890 -0
832 890 -0
833 890 -0
834 890 -0
835 890 -0
836 890 -0.99509004789631994
837 890 -0
838 890 -0
839 890 -0
840 890 -0
841 890 0
842 890 0
843 890 0
844 890 0
845 890 0
846 890 0
847 890 0
848 890 0
849 890 0
850 890 0
851 890 0
852 890 0
1469 890 0.14426661227624929
1470 890 0.019112219351713613
1471 890 -0.3383340256558125
1472 890 -0.26332006554483989
829 891 -0
830 891 -0
831 891 -0
832 891 -0
833 891 -0
834 891 -0
835 891 -0
836 891 -0
837 891 -0.99509004789631994
838 891 -0
839 891 -0
840 891 -0
841 891 0
842 891 0
843 891 0
844 891 0
845 891 0
846 891 0
847 891 0
848 891 0
849 891 0
850 891 0
851 891 0
852 891 0
1469 891 -0.11462509557936003
1470 891 -0.065598224589830417
1471 891 0.12045547271290091
1472 891 0.066735657880519217
829 892 -0
830 892 -0
831 892 -0
832 892 -0
833 892 -0
834 892 -0
835 892 -0
836 892 -0
837 892 -0
838 892 -0.99509004789631994
839 892 -0
840 892 -0
841 892 0
842 892 0
843 892 0
844 892 0
845 892 0
846 892 0
847 892 0
848 892 0
849 892 0
850 892 0
851 892 0
852 892 0
1469 892 0.1112726701807888
1470 892 -0.18163442438886057
1471 892 -0.24934842404473068
1472 892 0.087619788974651794
829 893 -0
830 893 -0
831 893 -0
832 893 -0
833 893 -0
834 893 -0
835 893 -0
836 893 -0
837 893 -0
838 893 -0
839 893 -0.99509004789631994
840 893 -0
841 893 0
842 893 0
843 893 0
844 893 0
845 893 0
846 893 0
847 893 0
848 893 0
849 893 0
850 893 0
851 893 0
852 893 0
1469 893 0.0048220099123521959
1470 893 -0.09230703811323461
1471 893 -0.22028815111069383
1472 893 -0.062540089363958593
829 894 -0
830 894 -0
831 894 -0
832 894 -0
833 894 -0
834 894 -0
835 894 -0
836 894 -0
837 894 -0
838 894 -0
839 894 -0
840 894 -0.99509004789631994
841 894 0
842 894 0
843 894 0
844 894 0
845 894 0
846 894 0
847 894 0
848 894 0
849 894 0
850 894 0
851 894 0
852 894 0
1469 894 0.22589481330245723
1470 894 0.085512196920050021
1471 894 -0.209328877595194
1472 894 0.014853171089538656
829 895 0
830 895 0
831 895 0
832 895 0
833 895 0
834 895 0
835 895 0
836 895 0
837 895 0
838 895 0
839 895 0
840 895 0
841 895 0.99509004789631994
842 895 0
843 895 0
844 895 0
845 895 0
846 895 0
847 895 0
848 895 0
849 895 0
850 895 0
851 895 0
852 895 0
1469 895 0
1470 895 0
1471 895 0
1472 895 0
829 896 0
830 896 0
831 896 0
832 896 0
833 896 0
834 896 0
835 896 0
836 896 0
837 896 0
838 896 0
839 896 0
840 896 0
841 896 0
842 896 0.99509004789631994
843 896 0
844 896 0
845 896 0
846 896 0
847 896 0
848 896 0
849 896 0
850 896 0
851 896 0
852 896 0
1469 896 0
1470 896 0
1471 896 0
1472 896 0
829 897 0
830 897 0
831 897 0
832 897 0
833 897 0
834 897 0
835 897 0
836 897 0
837 897 0
838 897 0
839 897 0
840 897 0
841 897 0
842 897 0
843 897 0.99509004789631994
844 897 0
845 897 0
846 897 0
847 897 0
848 897 0
849 897 0
850 897 0
851 897 0
852 897 0
1469 897 0
1470 897 0
1471 897 0
1472 897 0
829 898 0
830 898 0
831 898 0
832 898 0
833 898 0
834 898 0
835 898 0
836 898 0
837 898 0
838 898 0
839 898 0
840 898 0
841 898 0
842 898 0
843 898 0
844 898 0.99509004789631994
845 898 0
846 898 0
847 898 0
848 898 0
849 898 0
850 898 0
851 898 0
852 898 0
1469 898 0
1470 898 0
1471 898 0
1472 898 0
829 899 0
830 899 0
831 899 0
832 899 0
833 899 0
834 899 0
835 899 0
836 899 0
837 899 0
838 899 0
839 899 0
840 899 0
841 899 0
842 899 0
843 899 0
844 899 0
845 899 0.99509004789631994
846 899 0
847 899 0
848 899 0
849 899 0
850 899 0
851 899 0
852 899 0
1469 899 0
1470 899 0
1471 899 0
1472 899 0
829 900 0
830 900 0
831 900 0
832 900 0
833 900 0
834 900 0
835 900 0
836 900 0
837 900 0
838 900 0
839 900 0
840 900 0
841 900 0
842 900 0
843 900 0
844 900 0
845 900 0
846 900 0.99509004789631994
847 900 0
848 900 0
849 900 0
850 900 0
851 900 0
852 900 0
1469 900 0
1470 900 0
1471 900 0
1472 900 0
829 901 0
830 901 0
831 901 0
832 901 0
833 901 0
834 901 0
835 901 0
836 901 0
837 901 0
838 901 0
839 901 0
840 901 0
841 901 0
842 901 0
843 901 0
844 901 0
845 901 0
846 901 0
847 901 0.99509004789631994
848 901 0
849 901 0
850 901 0
851 901 0
852 901 0
1469 901 0
1470 901 0
1471 901 0
1472 901 0
829 902 0
830 902 0
831 902 0
832 902 0
833 902 0
834 902 0
835 902 0
836 902 0
837 902 0
838 902 0
839 902 0
840 902 0
841 902 0
842 902 0
843 902 0
844 902 0
845 902 0
846 902 0
847 902 0
848 902 0.99509004789631994
849 902 0
850 902 0
851 902 0
852 902 0
1469 902 0
1470 902 0
1471 902 0
1472 902 0
829 903 0
830 903 0
831 903 0
832 903 0
833 903 0
834 903 0
835 903 0
836 903 0
837 903 0
838 903 0
839 903 0
840 903 0
841 903 0
842 903 0
843 903 0
844 903 0
845 903 0
846 903 0
847 903 0
848 903 0
849 903 0.99509004789631994
850 903 0
851 903 0
852 903 0
1469 903 0
1470 903 0
1471 903 0
1472 903 0
829 904 0
830 904 0
831 904 0
832 904 0
833 904 0
834 904 0
835 904 0
836 904 0
837 904 0
838 904 0
839 904 0
840 904 0
841 904 0
842 904 0
843 904 0
844 904 0
845 904 0
846 904 0
847 904 0
848 904 0
849 904 0
850 904 0.99509004789631994
851 904 0
852 904 0
1469 904 0
1470 904 0
1471 904 0
1472 904 0
829 905 0
830 905 0
831 905 0
832 905 0
833 905 0
834 905 0
835 905 0
836 905 0
837 905 0
838 905 0
839 905 0
840 905 0
841 905 0
842 905 0
843 905 0
844 905 0
845 905 0
846 905 0
847 905 0
848 905 0
849 905 0
850 905 0
851 905 0.99509004789631994
852 905 0
1469 905 0
1470 905 0
1471 905 0
1472 905 0
829 906 0
830 906 0
831 906 0
832 906 0
833 906 0
834 906 0
835 906 0
836 906 0
837 906 0
838 906 0
839 906 0
840 906 0
841 906 0
842 906 0
843 906 0
844 906 0
845 906 0
846 906 0
847 906 0
848 906 0
849 906 0
850 906 0
851 906 0
852 906 0.99509004789631994
1469 906 0
1470 906 0
1471 906 0
1472 906 0
1465 907 0
1466 907 0
1467 907 0
1468 907 0
1662 907 0
1465 908 0.99878751991636638
1466 908 0
1467 908 0
1468 908 0
1662 908 0
1465 909 0
1466 909 0.99886974093913028
1467 909 0
1468 909 0
1662 909 0
1465 910 0
1466 910 0
1467 910 0.99859691322799182
1468 910 0
1662 910 0
1465 911 0
1466 911 0
1467 911 0
1468 911 0.99879118685427859
1662 911 0
1465 912 0
1466 912 0
1467 912 0
1468 912 0
1662 912 1
817 913 -0.99509004789631994
818 913 -0
819 913 -0
820 913 -0
821 913 -0
822 913 -0
823 913 -0
824 913 -0
825 913 -0
826 913 -0
827 913 -0
828 913 -0
829 913 0
830 913 0
831 913 0
832 913 0
833 913 0
834 913 0
835 913 0
836 913 0
837 913 0
838 913 0
839 913 0
840 913 0
1465 913 -0.1803189598547551
1466 913 -0.25584631152049064
1467 913 -0.074765084896359371
1468 913 -0.06244980534901011
817 914 -0
818 914 -0.99509004789631994
819 914 -0
820 914 -0
821 914 -0
822 914 -0
823 914 -0
824 914 -0
825 914 -0
826 914 -0
827 914 -0
828 914 -0
829 914 0
830 914 0
831 914 0
832 914 0
833 914 0
834 914 0
835 914 0
836 914 0
837 914 0
838 914 0
839 914 0
840 914 0
1465 914 0.10820261428783474
1466 914 0.080196783561304039
1467 914 -0.016866001348705428
1468 914 -0.17094248486675911
817 915 -0
818 915 -0
819 915 -0.99509004789631994
820 915 -0
821 915 -0
822 915 -0
823 915 -0
824 915 -0
825 915 -0
826 915 -0
827 915 -0
828 915 -0
829 915 0
830 915 0
831 915 0
832 915 0
833 915 0
834 915 0
835 915 0
836 915 0
837 915 0
838 915 0
839 915 0
840 915 0
1465 915 0.021296203412182201
1466 915 0.06379387941368389
1467 915 0.33227429440027084
1468 915 0.038055274961526345
817 916 -0
818 916 -0
819 916 -0
820 916 -0.99509004789631994
821 916 -0
822 916 -0
823 916 -0
824 916 -0
825 916 -0
826 916 -0
827 916 -0
828 916 -0
829 916 0
830 916 0
831 916 0
832 916 0
833 916 0
834 916 0
835 916 0
836 916 0
837 916 0
838 916 0
839 916 0
840 916 0
1465 916 0.19846746771042395
1466 916 0.13291349456905685
1467 916 -0.11659569025066187
1468 916 0.1709989853023412
817 917 -0
818 917 -0
819 917 -0
820 917 -0
821 917 -0.99509004789631994
822 917 -0
823 917 -0
824 917 -0
825 917 -0
826 917 -0
827 917 -0
828 917 -0
829 917 0
830 917 0
831 917 0
832 917 0
833 917 0
834 917 0
835 917 0
836 917 0
837 917 0
838 917 0
839 917 0
840 917 0
1465 917 0.06406726430169403
1466 917 0.0077975121873435499
1467 917 -0.012888481757033089
1468 917 0.1821584263174176
817 918 -0
818 918 -0
819 918 -0
820 918 -0
821 918 -0
822 918 -0.99509004789631994
823 918 -0
824 918 -0
825 918 -0
826 918 -0
827 918 -0
828 918 -0
829 918 0
830 918 0
831 918 0
832 918 0
833 918 0
834 918 0
835 918 0
836 918 0
837 918 0
838 918 0
839 918 0
840 918 0
1465 918 0.14930176975937659
1466 918 -0.1220518999462523
1467 918 -0.21437482240798272
1468 918 -0.27728111366749703
817 919 -0
818 919 -0
819 919 -0
820 919 -0
821 919 -0
822 919 -0
823 919 -0.99509004789631994
824 919 -0
825 919 -0
826 919 -0
827 919 -0
828 919 -0
829 919 0
830 919 0
831 919 0
832 919 0
833 919 0
834 919 0
835 919 0
836 919 0
837 919 0
838 919 0
839 919 0
840 919 0
1465 919 -0.27832449100114248
1466 919 -0.023030066571549251
1467 919 0.085999904285044407
1468 919 0.14042558666593874
817 920 -0
818 920 -0
819 920 -0
820 920 -0
821 920 -0
822 920 -0
823 920 -0
824 920 -0.99509004789631994
825 920 -0
826 920 -0
827 920 -0
828 920 -0
829 920 0
830 920 0
831 920 0
832 920 0
833 920 0
834 920 0
835 920 0
836 920 0
837 920 0
838 920 0
839 920 0
840 920 0
1465 920 0.14426661227624929
1466 920 0.019112219351713613
1467 920 -0.3383340256558125
1468 920 -0.26332006554483989
817 921 -0
818 921 -0
819 921 -0
820 921 -0
821 921 -0
822 921 -0
823 921 -0
824 921 -0
825 921 -0.99509004789631994
826 921 -0
827 921 -0
828 921 -0
829 921 0
830 921 0
831 921 0
832 921 0
833 921 0
834 921 0
835 921 0
836 921 0
837 921 0
838 921 0
839 921 0
840 921 0
1465 921 -0.11462509557936003
1466 921 -0.065598224589830417
1467 921 0.12045547271290091
1468 921 0.066735657880519217
817 922 -0
818 922 -0
819 922 -0
820 922 -0
821 922 -0
822 922 -0
823 922 -0
824 922 -0
825 922 -0
826 922 -0.99509004789631994
827 922 -0
828 922 -0
829 922 0
830 922 0
831 922 0
832 922 0
833 922 0
834 922 0
835 922 0
836 922 0
837 922 0
838 922 0
839 922 0
840 922 0
1465 922 0.1112726701807888
1466 922 -0.18163442438886057
1467 922 -0.24934842404473068
1468 922 0.087619788974651794
817 923 -0
818 923 -0
819 923 -0
820 923 -0
821 923 -0
822 923 -0
823 923 -0
824 923 -0
825 923 -0
826 923 -0
827 923 -0.99509004789631994
828 923 -0
829 923 0
830 923 0
831 923 0
832 923 0
833 923 0
834 923 0
835 923 0
836 923 0
837 923 0
838 923 0
839 923 0
840 923 0
1465 923 0.0048220099123521959
1466 923 -0.09230703811323461
1467 923 -0.22028815111069383
1468 923 -0.062540089363958593
817 924 -0
818 924 -0
819 924 -0
820 924 -0
821 924 -0
822 924 -0
823 924 -0
824 924 -0
825 924 -0
826 924 -0
827 924 -0
828 924 -0.99509004789631994
829 924 0
830 924 0
831 924 0
832 924 0
833 924 0
834 924 0
835 924 0
836 924 0
837 924 0
838 924 0
839 924 0
840 924 0
1465 924 0.22589481330245723
1466 924 0.085512196920050021
1467 924 -0.209328877595194
1468 924 0.014853171089538656
817 925 0
818 925 0
819 925 0
820 925 0
821 925 0
822 925 0
823 925 0
824 925 0
825 925 0
826 925 0
827 925 0
828 925 0
829 925 0.99509004789631994
830 925 0
831 925 0
832 925 0
833 925 0
834 925 0
835 925 0
836 925 0
837 925 0
838 925 0
839 925 0
840 925 0
1465 925 0
1466 925 0
1467 925 0
1468 925 0
817 926 0
818 926 0
819 926 0
820 926 0
821 926 0
822 926 0
823 926 0
824 926 0
825 926 0
826 926 0
827 926 0
828 926 0
829 926 0
830 926 0.99509004789631994
831 926 0
832 926 0
833 926 0
834 926 0
835 926 0
836 926 0
837 926 0
838 926 0
839 926 0
840 926 0
1465 926 0
1466 926 0
1467 926 0
1468 926 0
817 927 0
818 927 0
819 927 0
820 927 0
821 927 0
822 927 0
823 927 0
824 927 0
825 927 0
826 927 0
827 927 0
828 927 0
829 927 0
830 927 0
831 927 0.99509004789631994
832 927 0
833 927 0
834 927 0
835 927 0
836 927 0
837 927 0
838 927 0
839 927 0
840 927 0
1465 927 0
1466 927 0
1467 927 0
1468 927 0
817 928 0
818 928 0
819 928 0
820 928 0
821 928 0
822 928 0
823 928 0
824 928 0
825 928 0
826 928 0
827 928 0
828 928 0
829 928 0
830 928 0
831 928 0
832 928 0.99509004789631994
833 928 0
834 928 0
835 928 0
836 928 0
837 928 0
838 928 0
839 928 0
840 928 0
1465 928 0
1466 928 0
1467 928 0
1468 928 0
817 929 0
818 929 0
819 929 0
820 929 0
821 929 0
822 929 0
823 929 0
824 929 0
825 929 0
826 929 0
827 929 0
828 929 0
829 929 0
830 929 0
831 929 0
832 929 0
833 929 0.99509004789631994
834 929 0
835 929 0
836 929 0
837 929 0
838 929 0
839 929 0
840 929 0
1465 929 0
1466 929 0
1467 929 0
1468 929 0
817 930 0
818 930 0
819 930 0
820 930 0
821 930 0
822 930 0
823 930 0
824 930 0
825 930 0
826 930 0
827 930 0
828 930 0
829 930 0
830 930 0
831 930 0
832 930 0
833 930 0
834 930 0.99509004789631994
835 930 0
836 930 0
837 930 0
838 930 0
839 930 0
840 930 0
1465 930 0
1466 930 0
1467 930 0
1468 930 0
817 931 0
818 931 0
819 931 0
820 931 0
821 931 0
822 931 0
823 931 0
824 931 0
825 931 0
826 931 0
827 931 0
828 931 0
829 931 0
830 931 0
831 931 0
832 931 0
833 931 0
834 931 0
835 931 0.99509004789631994
836 931 0
837 931 0
838 931 0
839 931 0
840 931 0
1465 931 0
1466 931 0
1467 931 0
1468 931 0
817 932 0
818 932 0
819 932 0
820 932 0
821 932 0
822 932 0
823 932 0
824 932 0
825 932 0
826 932 0
827 932 0
828 932 0
829 932 0
830 932 0
831 932 0
832 932 0
833 932 0
834 932 0
835 932 0
836 932 0.99509004789631994
837 932 0
838 932 0
839 932 0
840 932 0
1465 932 0
1466 932 0
1467 932 0
1468 932 0
817 933 0
818 933 0
819 933 0
820 933 0
821 933 0
822 933 0
823 933 0
824 933 0
825 933 0
826 933 0
827 933 0
828 933 0
829 933 0
830 933 0
831 933 0
832 933 0
833 933 0
834 933 0
835 933 0
836 933 0
837 933 0.99509004789631994
838 933 0
839 933 0
840 933 0
1465 933 0
1466 933 0
1467 933 0
1468 933 0
817 934 0
818 934 0
819 934 0
820 934 0
821 934 0
822 934 0
823 934 0
824 934 0
825 934 0
826 934 0
827 934 0
828 934 0
829 934 0
830 934 0
831 934 0
832 934 0
833 934 0
834 934 0
835 934 0
836 934 0
837 934 0
838 934 0.99509004789631994
839 934 0
840 934 0
1465 934 0
1466 934 0
1467 934 0
1468 934 0
817 935 0
818 935 0
819 935 0
820 935 0
821 935 0
822 935 0
823 935 0
824 935 0
825 935 0
826 935 0
827 935 0
828 935 0
829 935 0
830 935 0
831 935 0
832 935 0
833 935 0
834 935 0
835 935 0
836 935 0
837 935 0
838 935 0
839 935 0.99509004789631994
840 935 0
1465 935 0
1466 935 0
1467 935 0
1468 935 0
817 936 0
818 936 0
819 936 0
820 936 0
821 936 0
822 936 0
823 936 0
824 936 0
825 936 0
826 936 0
827 936 0
828 936 0
829 936 0
830 936 0
831 936 0
832 936 0
833 936 0
834 936 0
835 936 0
836 936 0
837 936 0
838 936 0
839 936 0
840 936 0.99509004789631994
1465 936 0
1466 936 0
1467 936 0
1468 936 0
1461 937 0
1462 937 0
1463 937 0
1464 937 0
1661 937 0
1461 938 0.99878751991636638
1462 938 0
1463 938 0
1464 938 0
1661 938 0
1461 939 0
1462 939 0.99886974093913028
1463 939 0
1464 939 0
1661 939 0
1461 940 0
1462 940 0
1463 940 0.99859691322799182
1464 940 0
1661 940 0
1461 941 0
1462 941 0
1463 941 0
1464 941 0.99879118685427859
1661 941 0
1461 942 0
1462 942 0
1463 942 0
1464 942 0
1661 942 1
805 943 -0.99509004789631994
806 943 -0
807 943 -0
808 943 -0
809 943 -0
810 943 -0
811 943 -0
812 943 -0
813 943 -0
814 943 -0
815 943 -0
816 943 -0
817 943 0
818 943 0
819 943 0
820 943 0
821 943 0
822 943 0
823 943 0
824 943 0
825 943 0
826 943 0
827 943 0
828 943 0
1461 943 -0.1803189598547551
1462 943 -0.25584631152049064
1463 943 -0.074765084896359371
1464 943 -0.06244980534901011
805 944 -0
806 944 -0.99509004789631994
807 944 -0
808 944 -0
809 944 -0
810 944 -0
811 944 -0
812 944 -0
813 944 -0
814 944 -0
815 944 -0
816 944 -0
817 944 0
818 944 0
819 944 0
820 944 0
821 944 0
822 944 0
823 944 0
824 944 0
825 944 0
826 944 0
827 944 0
828 944 0
1461 944 0.10820261428783474
1462 944 0.080196783561304039
1463 944 -0.016866001348705428
1464 944 -0.17094248486675911
805 945 -0
806 945 -0
807 945 -0.99509004789631994
808 945 -0
809 945 -0
810 945 -0
811 945 -0
812 945 -0
813 945 -0
814 945 -0
815 945 -0
816 945 -0
817 945 0
818 945 0
819 945 0
820 945 0
821 945 0
822 945 0
823 945 0
824 945 0
825 945 0
826 945 0
827 945 0
828 945 0
1461 945 0.021296203412182201
1462 945 0.06379387941368389
1463 945 0.33227429440027084
1464 945 0.038055274961526345
805 946 -0
806 946 -0
807 946 -0
808 946 -0.99509004789631994
809 946 -0
810 946 -0
811 946 -0
812 946 -0
813 946 -0
814 946 -0
815 946 -0
816 946 -0
817 946 0
818 946 0
819 946 0
820 946 0
821 946 0
822 946 0
823 946 0
824 946 0
825 946 0
826 946 0
827 946 0
828 946 0
1461 946 0.19846746771042395
1462 946 0.13291349456905685
1463 946 -0.11659569025066187
1464 946 0.1709989853023412
805 947 -0
806 947 -0
807 947 -0
808 947 -0
809 947 -0.99509004789631994
810 947 -0
811 947 -0
812 947 -0
813 947 -0
814 947 -0
815 947 -0
816 947 -0
817 947 0
818 947 0
819 947 0
820 947 0
821 947 0
822 947 0
823 947 0
824 947 0
825 947 0
826 947 0
827 947 0
828 947 0
1461 947 0.06406726430169403
1462 947 0.0077975121873435499
1463 947 -0.012888481757033089
1464 947 0.1821584263174176
805 948 -0
806 948 -0
807 948 -0
808 948 -0
809 948 -0
810 948 -0.99509004789631994
811 948 -0
812 948 -0
813 948 -0
814 948 -0
815 948 -0
816 948 -0
817 948 0
818 948 0
819 948 0
820 948 0
821 948 0
822 948 0
823 948 0
824 948 0
825 948 0
826 948 0
827 948 0
828 948 0
1461 948 0.14930176975937659
1462 948 -0.1220518999462523
1463 948 -0.21437482240798272
1464 948 -0.27728111366749703
805 949 -0
806 949 -0
807 949 -0
808 949 -0
809 949 -0
810 949 -0
811 949 -0.99509004789631994
812 949 -0
813 949 -0
814 949 -0
815 949 -0
816 949 -0
817 949 0
818 949 0
819 949 0
820 949 0
821 949 0
822 949 0
823 949 0
824 949 0
825 949 0
826 949 0
827 949 0
828 949 0
1461 949 -0.27832449100114248
1462 949 -0.023030066571549251
1463 949 0.085999904285044407
1464 949 0.14042558666593874
805 950 -0
806 950 -0
807 950 -0
808 950 -0
809 950 -0
810 950 -0
811 950 -0
812 950 -0.99509004789631994
813 950 -0
814 950 -0
815 950 -0
816 950 -0
817 950 0
818 950 0
819 950 0
820 950 0
821 950 0
822 950 0
823 950 0
824 950 0
825 950 0
826 950 0
827 950 0
828 950 0
1461 950 0.14426661227624929
1462 950 0.019112219351713613
1463 950 -0.3383340256558125
1464 950 -0.26332006554483989
805 951 -0
806 951 -0
807 951 -0
808 951 -0
809 951 -0
810 951 -0
811 951 -0
812 951 -0
813 951 -0.99509004789631994
814 951 -0
815 951 -0
816 951 -0
817 951 0
818 951 0
819 951 0
820 951 0
821 951 0
822 951 0
823 951 0
824 951 0
825 951 0
826 951 0
827 951 0
828 951 0
1461 951 -0.11462509557936003
1462 951 -0.065598224589830417
1463 951 0.12045547271290091
1464 951 0.066735657880519217
805 952 -0
806 952 -0
807 952 -0
808 952 -0
809 952 -0
810 952 -0
811 952 -0
812 952 -0
813 952 -0
814 952 -0.99509004789631994
815 952 -0
816 952 -0
817 952 0
818 952 0
819 952 0
820 952 0
821 952 0
822 952 0
823 952 0
824 952 0
825 952 0
826 952 0
827 952 0
828 952 0
1461 952 0.1112726701807888
1462 952 -0.18163442438886057
1463 952 -0.24934842404473068
1464 952 0.087619788974651794
805 953 -0
806 953 -0
807 953 -0
808 953 -0
809 953 -0
810 953 -0
811 953 -0
812 953 -0
813 953 -0
814 953 -0
815 953 -0.99509004789631994
816 953 -0
817 953 0
818 953 0
819 953 0
820 953 0
821 953 0
822 953 0
823 953 0
824 953 0
825 953 0
826 953 0
827 953 0
828 953 0
1461 953 0.0048220099123521959
1462 953 -0.09230703811323461
1463 953 -0.22028815111069383
1464 953 -0.062540089363958593
805 954 -0
806 954 -0
807 954 -0
808 954 -0
809 954 -0
810 954 -0
811 954 -0
812 954 -0
813 954 -0
814 954 -0
815 954 -0
816 954 -0.99509004789631994
817 954 0
818 954 0
819 954 0
820 954 0
821 954 0
822 954 0
823 954 0
824 954 0
825 954 0
826 954 0
827 954 0
828 954 0
1461 954 0.22589481330245723
1462 954 0.085512196920050021
1463 954 -0.209328877595194
1464 954 0.014853171089538656
805 955 0
806 955 0
807 955 0
808 955 0
809 955 0
810 955 0
811 955 0
812 955 0
813 955 0
814 955 0
815 955 0
816 955 0
817 955 0.99509004789631994
818 955 0
819 955 0
820 955 0
821 955 0
822 955 0
823 955 0
824 955 0
825 955 0
826 955 0
827 955 0
828 955 0
1461 955 0
1462 955 0
1463 955 0
1464 955 0
805 956 0
806 956 0
807 956 0
808 956 0
809 956 0
810 956 0
811 956 0
812 956 0
813 956 0
814 956 0
815 956 0
816 956 0
817 956 0
818 956 0.99509004789631994
819 956 0
820 956 0
821 956 0
822 956 0
823 956 0
824 956 0
825 956 0
826 956 0
827 956 0
828 956 0
1461 956 0
1462 956 0
1463 956 0
1464 956 0
805 957 0
806 957 0
807 957 0
808 957 0
809 957 0
810 957 0
811 957 0
812 957 0
813 957 0
814 957 0
815 957 0
816 957 0
817 957 0
818 957 0
819 957 0.99509004789631994
820 957 0
821 957 0
822 957 0
823 957 0
824 957 0
825 957 0
826 957 0
827 957 0
828 957 0
1461 957 0
1462 957 0
1463 957 0
1464 957 0
805 958 0
806 958 0
807 958 0
808 958 0
809 958 0
810 958 0
811 958 0
812 958 0
813 958 0
814 958 0
815 958 0
816 958 0
817 958 0
818 958 0
819 958 0
820 958 0.99509004789631994
821 958 0
822 958 0
823 958 0
824 958 0
825 958 0
826 958 0
827 958 0
828 958 0
1461 958 0
1462 958 0
1463 958 0
1464 958 0
805 959 0
806 959 0
807 959 0
808 959 0
809 959 0
810 959 0
811 959 0
812 959 0
813 959 0
814 959 0
815 959 0
816 959 0
817 959 0
818 959 0
819 959 0
820 959 0
821 959 0.99509004789631994
822 959 0
823 959 0
824 959 0
825 959 0
826 959 0
827 959 0
828 959 0
1461 959 0
1462 959 0
1463 959 0
1464 959 0
805 960 0
806 960 0
807 960 0
808 960 0
809 960 0
810 960 0
811 960 0
812 960 0
813 960 0
814 960 0
815 960 0
816 960 0
817 960 0
818 960 0
819 960 0
820 960 0
821 960 0
822 960 0.99509004789631994
823 960 0
824 960 0
825 960 0
826 960 0
827 960 0
828 960 0
1461 960 0
1462 960 0
1463 960 0
1464 960 0
805 961 0
806 961 0
807 961 0
808 961 0
809 961 0
810 961 0
811 961 0
812 961 0
813 961 0
814 961 0
815 961 0
816 961 0
817 961 0
818 961 0
819 961 0
820 961 0
821 961 0
822 961 0
823 961 0.99509004789631994
824 961 0
825 961 0
826 961 0
827 961 0
828 961 0
1461 961 0
1462 961 0
1463 961 0
1464 961 0
805 962 0
806 962 0
807 962 0
808 962 0
809 962 0
810 962 0
811 962 0
812 962 0
813 962 0
814 962 0
815 962 0
816 962 0
817 962 0
818 962 0
819 962 0
820 962 0
821 962 0
822 962 0
823 962 0
824 962 0.99509004789631994
825 962 0
826 962 0
827 962 0
828 962 0
1461 962 0
1462 962 0
1463 962 0
1464 962 0
805 963 0
806 963 0
807 963 0
808 963 0
809 963 0
810 963 0
811 963 0
812 963 0
813 963 0
814 963 0
815 963 0
816 963 0
817 963 0
818 963 0
819 963 0
820 963 0
821 963 0
822 963 0
823 963 0
824 963 0
825 963 0.99509004789631994
826 963 0
827 963 0
828 963 0
1461 963 0
1462 963 0
1463 963 0
1464 963 0
805 964 0
806 964 0
807 964 0
808 964 0
809 964 0
810 964 0
811 964 0
812 964 0
813 964 0
814 964 0
815 964 0
816 964 0
817 964 0
818 964 0
819 964 0
820 964 0
821 964 0
822 964 0
823 964 0
824 964 0
825 964 0
826 964 0.99509004789631994
827 964 0
828 964 0
1461 964 0
1462 964 0
1463 964 0
1464 964 0
805 965 0
806 965 0
807 965 0
808 965 0
809 965 0
810 965 0
811 965 0
812 965 0
813 965 0
814 965 0
815 965 0
816 965 0
817 965 0
818 965 0
819 965 0
820 965 0
821 965 0
822 965 0
823 965 0
824 965 0
825 965 0
826 965 0
827 965 0.99509004789631994
828 965 0
1461 965 0
1462 965 0
1463 965 0
1464 965 0
805 966 0
806 966 0
807 966 0
808 966 0
809 966 0
810 966 0
811 966 0
812 966 0
813 966 0
814 966 0
815 966 0
816 966 0
817 966 0
818 966 0
819 966 0
820 966 0
821 966 0
822 966 0
823 966 0
824 966 0
825 966 0
826 966 0
827 966 0
828 966 0.99509004789631994
1461 966 0
1462 966 0
1463 966 0
1464 966 0
1457 967 0
1458 967 0
1459 967 0
1460 967 0
1660 967 0
1457 968 0.99878751991636638
1458 968 0
1459 968 0
1460 968 0
1660 968 0
1457 969 0
1458 969 0.99886974093913028
1459 969 0
1460 969 0
1660 969 0
1457 970 0
1458 970 0
1459 970 0.99859691322799182
1460 970 0
1660 970 0
1457 971 0
1458 971 0
1459 971 0
1460 971 0.99879118685427859
1660 971 0
1457 972 0
1458 972 0
1459 972 0
1460 972 0
1660 972 1
793 973 -0.99509004789631994
794 973 -0
795 973 -0
796 973 -0
797 973 -0
798 973 -0
799 973 -0
800 973 -0
801 973 -0
802 973 -0
803 973 -0
804 973 -0
805 973 0
806 973 0
807 973 0
808 973 0
809 973 0
810 973 0
811 973 0
812 973 0
813 973 0
814 973 0
815 973 0
816 973 0
1457 973 -0.1803189598547551
1458 973 -0.25584631152049064
1459 973 -0.074765084896359371
1460 973 -0.06244980534901011
793 974 -0
794 974 -0.99509004789631994
795 974 -0
796 974 -0
797 974 -0
798 974 -0
799 974 -0
800 974 -0
801 974 -0
802 974 -0
803 974 -0
804 974 -0
805 974 0
806 974 0
807 974 0
808 974 0
809 974 0
810 974 0
811 974 0
812 974 0
813 974 0
814 974 0
815 974 0
816 974 0
1457 974 0.10820261428783474
1458 974 0.080196783561304039
1459 974 -0.016866001348705428
1460 974 -0.17094248486675911
793 975 -0
794 975 -0
795 975 -0.99509004789631994
796 975 -0
797 975 -0
798 975 -0
799 975 -0
800 975 -0
801 975 -0
802 975 -0
803 975 -0
804 975 -0
805 975 0
806 975 0
807 975 0
808 975 0
809 975 0
810 975 0
811 975 0
812 975 0
813 975 0
814 975 0
815 975 0
816 975 0
1457 975 0.021296203412182201
1458 975 0.06379387941368389
1459 975 0.33227429440027084
1460 975 0.038055274961526345
793 976 -0
794 976 -0
795 976 -0
796 976 -0.99509004789631994
797 976 -0
798 976 -0
799 976 -0
800 976 -0
801 976 -0
802 976 -0
803 976 -0
804 976 -0
805 976 0
806 976 0
807 976 0
808 976 0
809 976 0
810 976 0
811 976 0
812 976 0
813 976 0
814 976 0
815 976 0
816 976 0
1457 976 0.19846746771042395
1458 976 0.13291349456905685
1459 976 -0.11659569025066187
1460 976 0.1709989853023412
793 977 -0
794 977 -0
795 977 -0
796 977 -0
797 977 -0.99509004789631994
798 977 -0
799 977 -0
800 977 -0
801 977 -0
802 977 -0
803 977 -0
804 977 -0
805 977 0
806 977 0
807 977 0
808 977 0
809 977 0
810 977 0
811 977 0
812 977 0
813 977 0
814 977 0
815 977 0
816 977 0
1457 977 0.06406726430169403
1458 977 0.0077975121873435499
1459 977 -0.012888481757033089
1460 977 0.1821584263174176
793 978 -0
794 978 -0
795 978 -0
796 978 -0
797 978 -0
798 978 -0.99509004789631994
799 978 -0
800 978 -0
801 978 -0
802 978 -0
803 978 -0
804 978 -0
805 978 0
806 978 0
807 978 0
808 978 0
809 978 0
810 978 0
811 978 0
812 978 0
813 978 0
814 978 0
815 978 0
816 978 0
1457 978 0.14930176975937659
1458 978 -0.1220518999462523
1459 978 -0.21437482240798272
1460 978 -0.27728111366749703
793 979 -0
794 979 -0
795 979 -0
796 979 -0
797 979 -0
798 979 -0
799 979 -0.99509004789631994
800 979 -0
801 979 -0
802 979 -0
803 979 -0
804 979 -0
805 979 0
806 979 0
807 979 0
808 979 0
809 979 0
810 979 0
811 979 0
812 979 0
813 979 0
814 979 0
815 979 0
816 979 0
1457 979 -0.27832449100114248
1458 979 -0.023030066571549251
1459 979 0.085999904285044407
1460 979 0.14042558666593874
793 980 -0
794 980 -0
795 980 -0
796 980 -0
797 980 -0
798 980 -0
799 980 -0
800 980 -0.99509004789631994
801 980 -0
802 980 -0
803 980 -0
804 980 -0
805 980 0
806 980 0
807 980 0
808 980 0
809 980 0
810 980 0
811 980 0
812 980 0
813 980 0
814 980 0
815 980 0
816 980 0
1457 980 0.14426661227624929
1458 980 0.019112219351713613
1459 980 -0.3383340256558125
1460 980 -0.26332006554483989
793 981 -0
794 981 -0
795 981 -0
796 981 -0
797 981 -0
798 981 -0
799 981 -0
800 981 -0
801 981 -0.99509004789631994
802 981 -0
803 981 -0
804 981 -0
805 981 0
806 981 0
807 981 0
808 981 0
809 981 0
810 981 0
811 981 0
812 981 0
813 981 0
814 981 0
815 981 0
816 981 0
1457 981 -0.11462509557936003
1458 981 -0.065598224589830417
1459 981 0.12045547271290091
1460 981 0.066735657880519217
793 982 -0
794 982 -0
795 982 -0
796 982 -0
797 982 -0
798 982 -0
799 982 -0
800 982 -0
801 982 -0
802 982 -0.99509004789631994
803 982 -0
804 982 -0
805 982 0
806 982 0
807 982 0
808 982 0
809 982 0
810 982 0
811 982 0
812 982 0
813 982 0
814 982 0
815 982 0
816 982 0
1457 982 0.1112726701807888
1458 982 -0.18163442438886057
1459 982 -0.24934842404473068
1460 982 0.087619788974651794
793 983 -0
794 983 -0
795 983 -0
796 983 -0
797 983 -0
798 983 -0
799 983 -0
800 983 -0
801 983 -0
802 983 -0
803 983 -0.99509004789631994
804 983 -0
805 983 0
806 983 0
807 983 0
808 983 0
809 983 0
810 983 0
811 983 0
812 983 0
813 983 0
814 983 0
815 983 0
816 983 0
1457 983 0.0048220099123521959
1458 983 -0.09230703811323461
1459 983 -0.22028815111069383
1460 983 -0.062540089363958593
793 984 -0
794 984 -0
795 984 -0
796 984 -0
797 984 -0
798 984 -0
799 984 -0
800 984 -0
801 984 -0
802 984 -0
803 984 -0
804 984 -0.99509004789631994
805 984 0
806 984 0
807 984 0
808 984 0
809 984 0
810 984 0
811 984 0
812 984 0
813 984 0
814 984 0
815 984 0
816 984 0
1457 984 0.22589481330245723
1458 984 0.085512196920050021
1459 984 -0.209328877595194
1460 984 0.014853171089538656
793 985 0
794 985 0
795 985 0
796 985 0
797 985 0
798 985 0
799 985 0
800 985 0
801 985 0
802 985 0
803 985 0
804 985 0
805 985 0.99509004789631994
806 985 0
807 985 0
808 985 0
809 985 0
810 985 0
811 985 0
812 985 0
813 985 0
814 985 0
815 985 0
816 985 0
1457 985 0
1458 985 0
1459 985 0
1460 985 0
793 986 0
794 986 0
795 986 0
796 986 0
797 986 0
798 986 0
799 986 0
800 986 0
801 986 0
802 986 0
803 986 0
804 986 0
805 986 0
806 986 0.99509004789631994
807 986 0
808 986 0
809 986 0
810 986 0
811 986 0
812 986 0
813 986 0
814 986 0
815 986 0
816 986 0
1457 986 0
1458 986 0
1459 986 0
1460 986 0
793 987 0
794 987 0
795 987 0
796 987 0
797 987 0
798 987 0
799 987 0
800 987 0
801 987 0
802 987 0
803 987 0
804 987 0
805 987 0
806 987 0
807 987 0.99509004789631994
808 987 0
809 987 0
810 987 0
811 987 0
812 987 0
813 987 0
814 987 0
815 987 0
816 987 0
1457 987 0
1458 987 0
1459 987 0
1460 987 0
793 988 0
794 988 0
795 988 0
796 988 0
797 988 0
798 988 0
799 988 0
800 988 0
801 988 0
802 988 0
803 988 0
804 988 0
805 988 0
806 988 0
807 988 0
808 988 0.99509004789631994
809 988 0
810 988 0
811 988 0
812 988 0
813 988 0
814 988 0
815 988 0
816 988 0
1457 988 0
1458 988 0
1459 988 0
1460 988 0
793 989 0
794 989 0
795 989 0
796 989 0
797 989 0
798 989 0
799 989 0
800 989 0
801 989 0
802 989 0
803 989 0
804 989 0
805 989 0
806 989 0
807 989 0
808 989 0
809 989 0.99509004789631994
810 989 0
811 989 0
812 989 0
813 989 0
814 989 0
815 989 0
816 989 0
1457 989 0
1458 989 0
1459 989 0
1460 989 0
793 990 0
794 990 0
795 990 0
796 990 0
797 990 0
798 990 0
799 990 0
800 990 0
801 990 0
802 990 0
803 990 0
804 990 0
805 990 0
806 990 0
807 990 0
808 990 0
809 990 0
810 990 0.99509004789631994
811 990 0
812 990 0
813 990 0
814 990 0
815 990 0
816 990 0
1457 990 0
1458 990 0
1459 990 0
1460 990 0
793 991 0
794 991 0
795 991 0
796 991 0
797 991 0
798 991 0
799 991 0
800 991 0
801 991 0
802 991 0
803 991 0
804 991 0
805 991 0
806 991 0
807 991 0
808 991 0
809 991 0
810 991 0
811 991 0.99509004789631994
812 991 0
813 991 0
814 991 0
815 991 0
816 991 0
1457 991 0
1458 991 0
1459 991 0
1460 991 0
793 992 0
794 992 0
795 992 0
796 992 0
797 992 0
798 992 0
799 992 0
800 992 0
801 992 0
802 992 0
803 992 0
804 992 0
805 992 0
806 992 0
807 992 0
808 992 0
809 992 0
810 992 0
811 992 0
812 992 0.99509004789631994
813 992 0
814 992 0
815 992 0
816 992 0
1457 992 0
1458 992 0
1459 992 0
1460 992 0
793 993 0
794 993 0
795 993 0
796 993 0
797 993 0
798 993 0
799 993 0
800 993 0
801 993 0
802 993 0
803 993 0
804 993 0
805 993 0
806 993 0
807 993 0
808 993 0
809 993 0
810 993 0
811 993 0
812 993 0
813 993 0.99509004789631994
814 993 0
815 993 0
816 993 0
1457 993 0
1458 993 0
1459 993 0
1460 993 0
793 994 0
794 994 0
795 994 0
796 994 0
797 994 0
798 994 0
799 994 0
800 994 0
801 994 0
802 994 0
803 994 0
804 994 0
805 994 0
806 994 0
807 994 0
808 994 0
809 994 0
810 994 0
811 994 0
812 994 0
813 994 0
814 994 0.99509004789631994
815 994 0
816 994 0
1457 994 0
1458 994 0
1459 994 0
1460 994 0
793 995 0
794 995 0
795 995 0
796 995 0
797 995 0
798 995 0
799 995 0
800 995 0
801 995 0
802 995 0
803 995 0
804 995 0
805 995 0
806 995 0
807 995 0
808 995 0
809 995 0
810 995 0
811 995 0
812 995 0
813 995 0
814 995 0
815 995 0.99509004789631994
816 995 0
1457 995 0
1458 995 0
1459 995 0
1460 995 0
793 996 0
794 996 0
795 996 0
796 996 0
797 996 0
798 996 0
799 996 0
800 996 0
801 996 0
802 996 0
803 996 0
804 996 0
805 996 0
806 996 0
807 996 0
808 996 0
809 996 0
810 996 0
811 996 0
812 996 0
813 996 0
814 996 0
815 996 0
816 996 0.99509004789631994
1457 996 0
1458 996 0
1459 996 0
1460 996 0
1453 997 0
1454 997 0
1455 997 0
1456 997 0
1659 997 0
1453 998 0.99878751991636638
1454 998 0
1455 998 0
1456 998 0
1659 998 0
1453 999 0
1454 999 0.99886974093913028
1455 999 0
1456 999 0
1659 999 0
1453 1000 0
1454 1000 0
1455 1000 0.99859691322799182
1456 1000 0
1659 1000 0
1453 1001 0
1454 1001 0
1455 1001 0
1456 1001 0.99879118685427859
1659 1001 0
1453 1002 0
1454 1002 0
1455 1002 0
1456 1002 0
1659 1002 1
781 1003 -0.99509004789631994
782 1003 -0
783 1003 -0
784 1003 -0
785 1003 -0
786 1003 -0
787 1003 -0
788 1003 -0
789 1003 -0
790 1003 -0
791 1003 -0
792 1003 -0
793 1003 0
794 1003 0
795 1003 0
796 1003 0
797 1003 0
798 1003 0
799 1003 0
800 1003 0
801 1003 0
802 1003 0
803 1003 0
804 1003 0
1453 1003 -0.1803189598547551
1454 1003 -0.25584631152049064
1455 1003 -0.074765084896359371
1456 1003 -0.06244980534901011
781 1004 -0
782 1004 -0.99509004789631994
783 1004 -0
784 1004 -0
785 1004 -0
786 1004 -0
787 1004 -0
788 1004 -0
789 1004 -0
790 1004 -0
791 1004 -0
792 1004 -0
793 1004 0
794 1004 0
795 1004 0
796 1004 0
797 1004 0
798 1004 0
799 1004 0
800 1004 0
801 1004 0
802 1004 0
803 1004 0
804 1004 0
1453 1004 0.10820261428783474
1454 1004 0.080196783561304039
1455 1004 -0.016866001348705428
1456 1004 -0.17094248486675911
781 1005 -0
782 1005 -0
783 1005 -0.99509004789631994
784 1005 -0
785 1005 -0
786 1005 -0
787 1005 -0
788 1005 -0
789 1005 -0
790 1005 -0
791 1005 -0
792 1005 -0
793 1005 0
794 1005 0
795 1005 0
796 1005 0
797 1005 0
798 1005 0
799 1005 0
800 1005 0
801 1005 0
802 1005 0
803 1005 0
804 1005 0
1453 1005 0.021296203412182201
1454 1005 0.06379387941368389
1455 1005 0.33227429440027084
1456 1005 0.038055274961526345
781 1006 -0
782 1006 -0
783 1006 -0
784 1006 -0.99509004789631994
785 1006 -0
786 1006 -0
787 1006 -0
788 1006 -0
789 1006 -0
790 1006 -0
791 1006 -0
792 1006 -0
793 1006 0
794 1006 0
795 1006 0
796 1006 0
797 1006 0
798 1006 0
799 1006 0
800 1006 0
801 1006 0
802 1006 0
803 1006 0
804 1006 0
1453 1006 0.19846746771042395
1454 1006 0.13291349456905685
1455 1006 -0.11659569025066187
1456 1006 0.1709989853023412
781 1007 -0
782 1007 -0
783 1007 -0
784 1007 -0
785 1007 -0.99509004789631994
786 1007 -0
787 1007 -0
788 1007 -0
789 1007 -0
790 1007 -0
791 1007 -0
792 1007 -0
793 1007 0
794 1007 0
795 1007 0
796 1007 0
797 1007 0
798 1007 0
799 1007 0
800 1007 0
801 1007 0
802 1007 0
803 1007 0
804 1007 0
1453 1007 0.06406726430169403
1454 1007 0.0077975121873435499
1455 1007 -0.012888481757033089
1456 1007 0.1821584263174176
781 1008 -0
782 1008 -0
783 1008 -0
784 1008 -0
785 1008 -0
786 1008 -0.99509004789631994
787 1008 -0
788 1008 -0
789 1008 -0
790 1008 -0
791 1008 -0
792 1008 -0
793 1008 0
794 1008 0
795 1008 0
796 1008 0
797 1008 0
798 1008 0
799 1008 0
800 1008 0
801 1008 0
802 1008 0
803 1008 0
804 1008 0
1453 1008 0.14930176975937659
1454 1008 -0.1220518999462523
1455 1008 -0.21437482240798272
1456 1008 -0.27728111366749703
781 1009 -0
782 1009 -0
783 1009 -0
784 1009 -0
785 1009 -0
786 1009 -0
787 1009 -0.99509004789631994
788 1009 -0
789 1009 -0
790 1009 -0
791 1009 -0
792 1009 -0
793 1009 0
794 1009 0
795 1009 0
796 1009 0
797 1009 0
798 1009 0
799 1009 0
800 1009 0
801 1009 0
802 1009 0
803 1009 0
804 1009 0
1453 1009 -0.27832449100114248
1454 1009 -0.023030066571549251
1455 1009 0.085999904285044407
1456 1009 0.14042558666593874
781 1010 -0
782 1010 -0
783 1010 -0
784 1010 -0
785 1010 -0
786 1010 -0
787 1010 -0
788 1010 -0.99509004789631994
789 1010 -0
790 1010 -0
791 1010 -0
792 1010 -0
793 1010 0
794 1010 0
795 1010 0
796 1010 0
797 1010 0
798 1010 0
799 1010 0
800 1010 0
801 1010 0
802 1010 0
803 1010 0
804 1010 0
1453 1010 0.14426661227624929
1454 1010 0.019112219351713613
1455 1010 -0.3383340256558125
1456 1010 -0.26332006554483989
781 1011 -0
782 1011 -0
783 1011 -0
784 1011 -0
785 1011 -0
786 1011 -0
787 1011 -0
788 1011 -0
789 1011 -0.99509004789631994
790 1011 -0
791 1011 -0
792 1011 -0
793 1011 0
794 1011 0
795 1011 0
796 1011 0
797 1011 0
798 1011 0
799 1011 0
800 1011 0
801 1011 0
802 1011 0
803 1011 0
804 1011 0
1453 1011 -0.11462509557936003
1454 1011 -0.065598224589830417
1455 1011 0.12045547271290091
1456 1011 0.066735657880519217
781 1012 -0
782 1012 -0
783 1012 -0
784 1012 -0
785 1012 -0
786 1012 -0
787 1012 -0
788 1012 -0
789 1012 -0
790 1012 -0.99509004789631994
791 1012 -0
792 1012 -0
793 1012 0
794 1012 0
795 1012 0
796 1012 0
797 1012 0
798 1012 0
799 1012 0
800 1012 0
801 1012 0
802 1012 0
803 1012 0
804 1012 0
1453 1012 0.1112726701807888
1454 1012 -0.18163442438886057
1455 1012 -0.24934842404473068
1456 1012 0.087619788974651794
781 1013 -0
782 1013 -0
783 1013 -0
784 1013 -0
785 1013 -0
786 1013 -0
787 1013 -0
788 1013 -0
789 1013 -0
790 1013 -0
791 1013 -0.99509004789631994
792 1013 -0
793 1013 0
794 1013 0
795 1013 0
796 1013 0
797 1013 0
798 1013 0
799 1013 0
800 1013 0
801 1013 0
802 1013 0
803 1013 0
804 1013 0
1453 1013 0.0048220099123521959
1454 1013 -0.09230703811323461
1455 1013 -0.22028815111069383
1456 1013 -0.062540089363958593
781 1014 -0
782 1014 -0
783 1014 -0
784 1014 -0
785 1014 -0
786 1014 -0
787 1014 -0
788 1014 -0
789 1014 -0
790 1014 -0
791 1014 -0
792 1014 -0.99509004789631994
793 1014 0
794 1014 0
795 1014 0
796 1014 0
797 1014 0
798 1014 0
799 1014 0
800 1014 0
801 1014 0
802 1014 0
803 1014 0
804 1014 0
1453 1014 0.22589481330245723
1454 1014 0.085512196920050021
1455 1014 -0.209328877595194
1456 1014 0.014853171089538656
781 1015 0
782 1015 0
783 1015 0
784 1015 0
785 1015 0
786 1015 0
787 1015 0
788 1015 0
789 1015 0
790 1015 0
791 1015 0
792 1015 0
793 1015 0.99509004789631994
794 1015 0
795 1015 0
796 1015 0
797 1015 0
798 1015 0
799 1015 0
800 1015 0
801 1015 0
802 1015 0
803 1015 0
804 1015 0
1453 1015 0
1454 1015 0
1455 1015 0
1456 1015 0
781 1016 0
782 1016 0
783 1016 0
784 1016 0
785 1016 0
786 1016 0
787 1016 0
788 1016 0
789 1016 0
790 1016 0
791 1016 0
792 1016 0
793 1016 0
794 1016 0.99509004789631994
795 1016 0
796 1016 0
797 1016 0
798 1016 0
799 1016 0
800 1016 0
801 1016 0
802 1016 0
803 1016 0
804 1016 0
1453 1016 0
1454 1016 0
1455 1016 0
1456 1016 0
781 1017 0
782 1017 0
783 1017 0
784 1017 0
785 1017 0
786 1017 0
787 1017 0
788 1017 0
789 1017 0
790 1017 0
791 1017 0
792 1017 0
793 1017 0
794 1017 0
795 1017 0.99509004789631994
796 1017 0
797 1017 0
798 1017 0
799 1017 0
800 1017 0
801 1017 0
802 1017 0
803 1017 0
804 1017 0
1453 1017 0
1454 1017 0
1455 1017 0
1456 1017 0
781 1018 0
782 1018 0
783 1018 0
784 1018 0
785 1018 0
786 1018 0
787 1018 0
788 1018 0
789 1018 0
790 1018 0
791 1018 0
792 1018 0
793 1018 0
794 1018 0
795 1018 0
796 1018 0.99509004789631994
797 1018 0
798 1018 0
799 1018 0
800 1018 0
801 1018 0
802 1018 0
803 1018 0
804 1018 0
1453 1018 0
1454 1018 0
1455 1018 0
1456 1018 0
781 1019 0
782 1019 0
783 1019 0
784 1019 0
785 1019 0
786 1019 0
787 1019 0
788 1019 0
789 1019 0
790 1019 0
791 1019 0
792 1019 0
793 1019 0
794 1019 0
795 1019 0
796 1019 0
797 1019 0.99509004789631994
798 1019 0
799 1019 0
800 1019 0
801 1019 0
802 1019 0
803 1019 0
804 1019 0
1453 1019 0
1454 1019 0
1455 1019 0
1456 1019 0
781 1020 0
782 1020 0
783 1020 0
784 1020 0
785 1020 0
786 1020 0
787 1020 0
788 1020 0
789 1020 0
790 1020 0
791 1020 0
792 1020 0
793 1020 0
794 1020 0
795 1020 0
796 1020 0
797 1020 0
798 1020 0.99509004789631994
799 1020 0
800 1020 0
801 1020 0
802 1020 0
803 1020 0
804 1020 0
1453 1020 0
1454 1020 0
1455 1020 0
1456 1020 0
781 1021 0
782 1021 0
783 1021 0
784 1021 0
785 1021 0
786 1021 0
787 1021 0
788 1021 0
789 1021 0
790 1021 0
791 1021 0
792 1021 0
793 1021 0
794 1021 0
795 1021 0
796 1021 0
797 1021 0
798 1021 0
799 1021 0.99509004789631994
800 1021 0
801 1021 0
802 1021 0
803 1021 0
804 1021 0
1453 1021 0
1454 1021 0
1455 1021 0
1456 1021 0
781 1022 0
782 1022 0
783 1022 0
784 1022 0
785 1022 0
786 1022 0
787 1022 0
788 1022 0
789 1022 0
790 1022 0
791 1022 0
792 1022 0
793 1022 0
794 1022 0
795 1022 0
796 1022 0
797 1022 0
798 1022 0
799 1022 0
800 1022 0.99509004789631994
801 1022 0
802 1022 0
803 1022 0
804 1022 0
1453 1022 0
1454 1022 0
1455 1022 0
1456 1022 0
781 1023 0
782 1023 0
783 1023 0
784 1023 0
785 1023 0
786 1023 0
787 1023 0
788 1023 0
789 1023 0
790 1023 0
791 1023 0
792 1023 0
793 1023 0
794 1023 0
795 1023 0
796 1023 0
797 1023 0
798 1023 0
799 1023 0
800 1023 0
801 1023 0.99509004789631994
802 1023 0
803 1023 0
804 1023 0
1453 1023 0
1454 1023 0
1455 1023 0
1456 1023 0
781 1024 0
782 1024 0
783 1024 0
784 1024 0
785 1024 0
786 1024 0
787 1024 0
788 1024 0
789 1024 0
790 1024 0
791 1024 0
792 1024 0
793 1024 0
794 1024 0
795 1024 0
796 1024 0
797 1024 0
798 1024 0
799 1024 0
800 1024 0
801 1024 0
802 1024 0.99509004789631994
803 1024 0
804 1024 0
1453 1024 0
1454 1024 0
1455 1024 0
1456 1024 0
781 1025 0
782 1025 0
783 1025 0
784 1025 0
785 1025 0
786 1025 0
787 1025 0
788 1025 0
789 1025 0
790 1025 0
791 1025 0
792 1025 0
793 1025 0
794 1025 0
795 1025 0
796 1025 0
797 1025 0
798 1025 0
799 1025 0
800 1025 0
801 1025 0
802 1025 0
803 1025 0.99509004789631994
804 1025 0
1453 1025 0
1454 1025 0
1455 1025 0
1456 1025 0
781 1026 0
782 1026 0
783 1026 0
784 1026 0
785 1026 0
786 1026 0
787 1026 0
788 1026 0
789 1026 0
790 1026 0
791 1026 0
792 1026 0
793 1026 0
794 1026 0
795 1026 0
796 1026 0
797 1026 0
798 1026 0
799 1026 0
800 1026 0
801 1026 0
802 1026 0
803 1026 0
804 1026 0.99509004789631994
1453 1026 0
1454 1026 0
1455 1026 0
1456 1026 0
1449 1027 0
1450 1027 0
1451 1027 0
1452 1027 0
1658 1027 0
1449 1028 0.99878751991636638
1450 1028 0
1451 1028 0
1452 1028 0
1658 1028 0
1449 1029 0
1450 1029 0.99886974093913028
1451 1029 0
1452 1029 0
1658 1029 0
1449 1030 0
1450 1030 0
1451 1030 0.99859691322799182
1452 1030 0
1658 1030 0
1449 1031 0
1450 1031 0
1451 1031 0
1452 1031 0.99879118685427859
1658 1031 0
1449 1032 0
1450 1032 0
1451 1032 0
1452 1032 0
1658 1032 1
769 1033 -0.99509004789631994
770 1033 -0
771 1033 -0
772 1033 -0
773 1033 -0
774 1033 -0
775 1033 -0
776 1033 -0
777 1033 -0
778 1033 -0
779 1033 -0
780 1033 -0
781 1033 0
782 1033 0
783 1033 0
784 1033 0
785 1033 0
786 1033 0
787 1033 0
788 1033 0
789 1033 0
790 1033 0
791 1033 0
792 1033 0
1449 1033 -0.1803189598547551
1450 1033 -0.25584631152049064
1451 1033 -0.074765084896359371
1452 1033 -0.06244980534901011
769 1034 -0
770 1034 -0.99509004789631994
771 1034 -0
772 1034 -0
773 1034 -0
774 1034 -0
775 1034 -0
776 1034 -0
777 1034 -0
778 1034 -0
779 1034 -0
780 1034 -0
781 1034 0
782 1034 0
783 1034 0
784 1034 0
785 1034 0
786 1034 0
787 1034 0
788 1034 0
789 1034 0
790 1034 0
791 1034 0
792 1034 0
1449 1034 0.10820261428783474
1450 1034 0.080196783561304039
1451 1034 -0.016866001348705428
1452 1034 -0.17094248486675911
769 1035 -0
770 1035 -0
771 1035 -0.99509004789631994
772 1035 -0
773 1035 -0
774 1035 -0
775 1035 -0
776 1035 -0
777 1035 -0
778 1035 -0
779 1035 -0
780 1035 -0
781 1035 0
782 1035 0
783 1035 0
784 1035 0
785 1035 0
786 1035 0
787 1035 0
788 1035 0
789 1035 0
790 1035 0
791 1035 0
792 1035 0
1449 1035 0.021296203412182201
1450 1035 0.06379387941368389
1451 1035 0.33227429440027084
1452 1035 0.038055274961526345
769 1036 -0
770 1036 -0
771 1036 -0
772 1036 -0.99509004789631994
773 1036 -0
774 1036 -0
775 1036 -0
776 1036 -0
777 1036 -0
778 1036 -0
779 1036 -0
780 1036 -0
781 1036 0
782 1036 0
783 1036 0
784 1036 0
785 1036 0
786 1036 0
787 1036 0
788 1036 0
789 1036 0
790 1036 0
791 1036 0
792 1036 0
1449 1036 0.19846746771042395
1450 1036 0.13291349456905685
1451 1036 -0.11659569025066187
1452 1036 0.1709989853023412
769 1037 -0
770 1037 -0
771 1037 -0
772 1037 -0
773 1037 -0.99509004789631994
774 1037 -0
775 1037 -0
776 1037 -0
777 1037 -0
778 1037 -0
779 1037 -0
780 1037 -0
781 1037 0
782 1037 0
783 1037 0
784 1037 0
785 1037 0
786 1037 0
787 1037 0
788 1037 0
789 1037 0
790 1037 0
791 1037 0
792 1037 0
1449 1037 0.06406726430169403
1450 1037 0.0077975121873435499
1451 1037 -0.012888481757033089
1452 1037 0.1821584263174176
769 1038 -0
770 1038 -0
771 1038 -0
772 1038 -0
773 1038 -0
774 1038 -0.99509004789631994
775 1038 -0
776 1038 -0
777 1038 -0
778 1038 -0
779 1038 -0
780 1038 -0
781 1038 0
782 1038 0
783 1038 0
784 1038 0
785 1038 0
786 1038 0
787 1038 0
788 1038 0
789 1038 0
790 1038 0
791 1038 0
792 1038 0
1449 1038 0.14930176975937659
1450 1038 -0.1220518999462523
1451 1038 -0.21437482240798272
1452 1038 -0.27728111366749703
769 1039 -0
770 1039 -0
771 1039 -0
772 1039 -0
773 1039 -0
774 1039 -0
775 1039 -0.99509004789631994
776 1039 -0
777 1039 -0
778 1039 -0
779 1039 -0
780 1039 -0
781 1039 0
782 1039 0
783 1039 0
784 1039 0
785 1039 0
786 1039 0
787 1039 0
788 1039 0
789 1039 0
790 1039 0
791 1039 0
792 1039 0
1449 1039 -0.27832449100114248
1450 1039 -0.023030066571549251
1451 1039 0.085999904285044407
1452 1039 0.14042558666593874
769 1040 -0
770 1040 -0
771 1040 -0
772 1040 -0
773 1040 -0
774 1040 -0
775 1040 -0
776 1040 -0.99509004789631994
777 1040 -0
778 1040 -0
779 1040 -0
780 1040 -0
781 1040 0
782 1040 0
783 1040 0
784 1040 0
785 1040 0
786 1040 0
787 1040 0
788 1040 0
789 1040 0
790 1040 0
791 1040 0
792 1040 0
1449 1040 0.14426661227624929
1450 1040 0.019112219351713613
1451 1040 -0.3383340256558125
1452 1040 -0.26332006554483989
769 1041 -0
770 1041 -0
771 1041 -0
772 1041 -0
773 1041 -0
774 1041 -0
775 1041 -0
776 1041 -0
777 1041 -0.99509004789631994
778 1041 -0
779 1041 -0
780 1041 -0
781 1041 0
782 1041 0
783 1041 0
784 1041 0
785 1041 0
786 1041 0
787 1041 0
788 1041 0
789 1041 0
790 1041 0
791 1041 0
792 1041 0
1449 1041 -0.11462509557936003
1450 1041 -0.065598224589830417
1451 1041 0.12045547271290091
1452 1041 0.066735657880519217
769 1042 -0
770 1042 -0
771 1042 -0
772 1042 -0
773 1042 -0
774 1042 -0
775 1042 -0
776 1042 -0
777 1042 -0
778 1042 -0.99509004789631994
779 1042 -0
780 1042 -0
781 1042 0
782 1042 0
783 1042 0
784 1042 0
785 1042 0
786 1042 0
787 1042 0
788 1042 0
789 1042 0
790 1042 0
791 1042 0
792 1042 0
1449 1042 0.1112726701807888
1450 1042 -0.18163442438886057
1451 1042 -0.24934842404473068
1452 1042 0.087619788974651794
769 1043 -0
770 1043 -0
771 1043 -0
772 1043 -0
773 1043 -0
774 1043 -0
775 1043 -0
776 1043 -0
777 1043 -0
778 1043 -0
779 1043 -0.99509004789631994
780 1043 -0
781 1043 0
782 1043 0
783 1043 0
784 1043 0
785 1043 0
786 1043 0
787 1043 0
788 1043 0
789 1043 0
790 1043 0
791 1043 0
792 1043 0
1449 1043 0.0048220099123521959
1450 1043 -0.09230703811323461
1451 1043 -0.22028815111069383
1452 1043 -0.062540089363958593
769 1044 -0
770 1044 -0
771 1044 -0
772 1044 -0
773 1044 -0
774 1044 -0
775 1044 -0
776 1044 -0
777 1044 -0
778 1044 -0
779 1044 -0
780 1044 -0.99509004789631994
781 1044 0
782 1044 0
783 1044 0
784 1044 0
785 1044 0
786 1044 0
787 1044 0
788 1044 0
789 1044 0
790 1044 0
791 1044 0
792 1044 0
1449 1044 0.22589481330245723
1450 1044 0.085512196920050021
1451 1044 -0.209328877595194
1452 1044 0.014853171089538656
769 1045 0
770 1045 0
771 1045 0
772 1045 0
773 1045 0
774 1045 0
775 1045 0
776 1045 0
777 1045 0
778 1045 0
779 1045 0
780 1045 0
781 1045 0.99509004789631994
782 1045 0
783 1045 0
784 1045 0
785 1045 0
786 1045 0
787 1045 0
788 1045 0
789 1045 0
790 1045 0
791 1045 0
792 1045 0
1449 1045 0
1450 1045 0
1451 1045 0
1452 1045 0
769 1046 0
770 1046 0
771 1046 0
772 1046 0
773 1046 0
774 1046 0
775 1046 0
776 1046 0
777 1046 0
778 1046 0
779 1046 0
780 1046 0
781 1046 0
782 1046 0.99509004789631994
783 1046 0
784 1046 0
785 1046 0
786 1046 0
787 1046 0
788 1046 0
789 1046 0
790 1046 0
791 1046 0
792 1046 0
1449 1046 0
1450 1046 0
1451 1046 0
1452 1046 0
769 1047 0
770 1047 0
771 1047 0
772 1047 0
773 1047 0
774 1047 0
775 1047 0
776 1047 0
777 1047 0
778 1047 0
779 1047 0
780 1047 0
781 1047 0
782 1047 0
783 1047 0.99509004789631994
784 1047 0
785 1047 0
786 1047 0
787 1047 0
788 1047 0
789 1047 0
790 1047 0
791 1047 0
792 1047 0
1449 1047 0
1450 1047 0
1451 1047 0
1452 1047 0
769 1048 0
770 1048 0
771 1048 0
772 1048 0
773 1048 0
774 1048 0
775 1048 0
776 1048 0
777 1048 0
778 1048 0
779 1048 0
780 1048 0
781 1048 0
782 1048 0
783 1048 0
784 1048 0.99509004789631994
785 1048 0
786 1048 0
787 1048 0
788 1048 0
789 1048 0
790 1048 0
791 1048 0
792 1048 0
1449 1048 0
1450 1048 0
1451 1048 0
1452 1048 0
769 1049 0
770 1049 0
771 1049 0
772 1049 0
773 1049 0
774 1049 0
775 1049 0
776 1049 0
777 1049 0
778 1049 0
779 1049 0
780 1049 0
781 1049 0
782 1049 0
783 1049 0
784 1049 0
785 1049 0.99509004789631994
786 1049 0
787 1049 0
788 1049 0
789 1049 0
790 1049 0
791 1049 0
792 1049 0
1449 1049 0
1450 1049 0
1451 1049 0
1452 1049 0
769 1050 0
770 1050 0
771 1050 0
772 1050 0
773 1050 0
774 1050 0
775 1050 0
776 1050 0
777 1050 0
778 1050 0
779 1050 0
780 1050 0
781 1050 0
782 1050 0
783 1050 0
784 1050 0
785 1050 0
786 1050 0.99509004789631994
787 1050 0
788 1050 0
789 1050 0
790 1050 0
791 1050 0
792 1050 0
1449 1050 0
1450 1050 0
1451 1050 0
1452 1050 0
769 1051 0
770 1051 0
771 1051 0
772 1051 0
773 1051 0
774 1051 0
775 1051 0
776 1051 0
777 1051 0
778 1051 0
779 1051 0
780 1051 0
781 1051 0
782 1051 0
783 1051 0
784 1051 0
785 1051 0
786 1051 0
787 1051 0.99509004789631994
788 1051 0
789 1051 0
790 1051 0
791 1051 0
792 1051 0
1449 1051 0
1450 1051 0
1451 1051 0
1452 1051 0
769 1052 0
770 1052 0
771 1052 0
772 1052 0
773 1052 0
774 1052 0
775 1052 0
776 1052 0
777 1052 0
778 1052 0
779 1052 0
780 1052 0
781 1052 0
782 1052 0
783 1052 0
784 1052 0
785 1052 0
786 1052 0
787 1052 0
788 1052 0.99509004789631994
789 1052 0
790 1052 0
791 1052 0
792 1052 0
1449 1052 0
1450 1052 0
1451 1052 0
1452 1052 0
769 1053 0
770 1053 0
771 1053 0
772 1053 0
773 1053 0
774 1053 0
775 1053 0
776 1053 0
777 1053 0
778 1053 0
779 1053 0
780 1053 0
781 1053 0
782 1053 0
783 1053 0
784 1053 0
785 1053 0
786 1053 0
787 1053 0
788 1053 0
789 1053 0.99509004789631994
790 1053 0
791 1053 0
792 1053 0
1449 1053 0
1450 1053 0
1451 1053 0
1452 1053 0
769 1054 0
770 1054 0
771 1054 0
772 1054 0
773 1054 0
774 1054 0
775 1054 0
776 1054 0
777 1054 0
778 1054 0
779 1054 0
780 1054 0
781 1054 0
782 1054 0
783 1054 0
784 1054 0
785 1054 0
786 1054 0
787 1054 0
788 1054 0
789 1054 0
790 1054 0.99509004789631994
791 1054 0
792 1054 0
1449 1054 0
1450 1054 0
1451 1054 0
1452 1054 0
769 1055 0
770 1055 0
771 1055 0
772 1055 0
773 1055 0
774 1055 0
775 1055 0
776 1055 0
777 1055 0
778 1055 0
779 1055 0
780 1055 0
781 1055 0
782 1055 0
783 1055 0
784 1055 0
785 1055 0
786 1055 0
787 1055 0
788 1055 0
789 1055 0
790 1055 0
791 1055 0.99509004789631994
792 1055 0
1449 1055 0
1450 1055 0
1451 1055 0
1452 1055 0
769 1056 0
770 1056 0
771 1056 0
772 1056 0
773 1056 0
774 1056 0
775 1056 0
776 1056 0
777 1056 0
778 1056 0
779 1056 0
780 1056 0
781 1056 0
782 1056 0
783 1056 0
784 1056 0
785 1056 0
786 1056 0
787 1056 0
788 1056 0
789 1056 0
790 1056 0
791 1056 0
792 1056 0.99509004789631994
1449 1056 0
1450 1056 0
1451 1056 0
1452 1056 0
1445 1057 0
1446 1057 0
1447 1057 0
1448 1057 0
1657 1057 0
1445 1058 0.99878751991636638
1446 1058 0
1447 1058 0
1448 1058 0
1657 1058 0
1445 1059 0
1446 1059 0.99886974093913028
1447 1059 0
1448 1059 0
1657 1059 0
1445 1060 0
1446 1060 0
1447 1060 0.99859691322799182
1448 1060 0
1657 1060 0
1445 1061 0
1446 1061 0
1447 1061 0
1448 1061 0.99879118685427859
1657 1061 0
1445 1062 0
1446 1062 0
1447 1062 0
1448 1062 0
1657 1062 1
757 1063 -0.99509004789631994
758 1063 -0
759 1063 -0
760 1063 -0
761 1063 -0
762 1063 -0
763 1063 -0
764 1063 -0
765 1063 -0
766 1063 -0
767 1063 -0
768 1063 -0
769 1063 0
770 1063 0
771 1063 0
772 1063 0
773 1063 0
774 1063 0
775 1063 0
776 1063 0
777 1063 0
778 1063 0
779 1063 0
780 1063 0
1445 1063 -0.1803189598547551
1446 1063 -0.25584631152049064
1447 1063 -0.074765084896359371
1448 1063 -0.06244980534901011
757 1064 -0
758 1064 -0.99509004789631994
759 1064 -0
760 1064 -0
761 1064 -0
762 1064 -0
763 1064 -0
764 1064 -0
765 1064 -0
766 1064 -0
767 1064 -0
768 1064 -0
769 1064 0
770 1064 0
771 1064 0
772 1064 0
773 1064 0
774 1064 0
775 1064 0
776 1064 0
777 1064 0
778 1064 0
779 1064 0
780 1064 0
1445 1064 0.10820261428783474
1446 1064 0.080196783561304039
1447 1064 -0.016866001348705428
1448 1064 -0.17094248486675911
757 1065 -0
758 1065 -0
759 1065 -0.99509004789631994
760 1065 -0
761 1065 -0
762 1065 -0
763 1065 -0
764 1065 -0
765 1065 -0
766 1065 -0
767 1065 -0
768 1065 -0
769 1065 0
770 1065 0
771 1065 0
772 1065 0
773 1065 0
774 1065 0
775 1065 0
776 1065 0
777 1065 0
778 1065 0
779 1065 0
780 1065 0
1445 1065 0.021296203412182201
1446 1065 0.06379387941368389
1447 1065 0.33227429440027084
1448 1065 0.038055274961526345
757 1066 -0
758 1066 -0
759 1066 -0
760 1066 -0.99509004789631994
761 1066 -0
762 1066 -0
763 1066 -0
764 1066 -0
765 1066 -0
766 1066 -0
767 1066 -0
768 1066 -0
769 1066 0
770 1066 0
771 1066 0
772 1066 0
773 1066 0
774 1066 0
775 1066 0
776 1066 0
777 1066 0
778 1066 0
779 1066 0
780 1066 0
1445 1066 0.19846746771042395
1446 1066 0.13291349456905685
1447 1066 -0.11659569025066187
1448 1066 0.1709989853023412
757 1067 -0
758 1067 -0
759 1067 -0
760 1067 -0
761 1067 -0.99509004789631994
762 1067 -0
763 1067 -0
764 1067 -0
765 1067 -0
766 1067 -0
767 1067 -0
768 1067 -0
769 1067 0
770 1067 0
771 1067 0
772 1067 0
773 1067 0
774 1067 0
775 1067 0
776 1067 0
777 1067 0
778 1067 0
779 1067 0
780 1067 0
1445 1067 0.06406726430169403
1446 1067 0.0077975121873435499
1447 1067 -0.012888481757033089
1448 1067 0.1821584263174176
757 1068 -0
758 1068 -0
759 1068 -0
760 1068 -0
761 1068 -0
762 1068 -0.99509004789631994
763 1068 -0
764 1068 -0
765 1068 -0
766 1068 -0
767 1068 -0
768 1068 -0
769 1068 0
770 1068 0
771 1068 0
772 1068 0
773 1068 0
774 1068 0
775 1068 0
776 1068 0
777 1068 0
778 1068 0
779 1068 0
780 1068 0
1445 1068 0.14930176975937659
1446 1068 -0.1220518999462523
1447 1068 -0.21437482240798272
1448 1068 -0.27728111366749703
757 1069 -0
758 1069 -0
759 1069 -0
760 1069 -0
761 1069 -0
762 1069 -0
763 1069 -0.99509004789631994
764 1069 -0
765 1069 -0
766 1069 -0
767 1069 -0
768 1069 -0
769 1069 0
770 1069 0
771 1069 0
772 1069 0
773 1069 0
774 1069 0
775 1069 0
776 1069 0
777 1069 0
778 1069 0
779 1069 0
780 1069 0
1445 1069 -0.27832449100114248
1446 1069 -0.023030066571549251
1447 1069 0.085999904285044407
1448 1069 0.14042558666593874
757 1070 -0
758 1070 -0
759 1070 -0
760 1070 -0
761 1070 -0
762 1070 -0
763 1070 -0
764 1070 -0.99509004789631994
765 1070 -0
766 1070 -0
767 1070 -0
768 1070 -0
769 1070 0
770 1070 0
771 1070 0
772 1070 0
773 1070 0
774 1070 0
775 1070 0
776 1070 0
777 1070 0
778 1070 0
779 1070 0
780 1070 0
1445 1070 0.14426661227624929
1446 1070 0.019112219351713613
1447 1070 -0.3383340256558125
1448 1070 -0.26332006554483989
757 1071 -0
758 1071 -0
759 1071 -0
760 1071 -0
761 1071 -0
762 1071 -0
763 1071 -0
764 1071 -0
765 1071 -0.99509004789631994
766 1071 -0
767 1071 -0
768 1071 -0
769 1071 0
770 1071 0
771 1071 0
772 1071 0
773 1071 0
774 1071 0
775 1071 0
776 1071 0
777 1071 0
778 1071 0
779 1071 0
780 1071 0
1445 1071 -0.11462509557936003
1446 1071 -0.065598224589830417
1447 1071 0.12045547271290091
1448 1071 0.066735657880519217
757 1072 -0
758 1072 -0
759 1072 -0
760 1072 -0
761 1072 -0
762 1072 -0
763 1072 -0
764 1072 -0
765 1072 -0
766 1072 -0.99509004789631994
767 1072 -0
768 1072 -0
769 1072 0
770 1072 0
771 1072 0
772 1072 0
773 1072 0
774 1072 0
775 1072 0
776 1072 0
777 1072 0
778 1072 0
779 1072 0
780 1072 0
1445 1072 0.1112726701807888
1446 1072 -0.18163442438886057
1447 1072 -0.24934842404473068
1448 1072 0.087619788974651794
757 1073 -0
758 1073 -0
759 1073 -0
760 1073 -0
761 1073 -0
762 1073 -0
763 1073 -0
764 1073 -0
765 1073 -0
766 1073 -0
767 1073 -0.99509004789631994
768 1073 -0
769 1073 0
770 1073 0
771 1073 0
772 1073 0
773 1073 0
774 1073 0
775 1073 0
776 1073 0
777 1073 0
778 1073 0
779 1073 0
780 1073 0
1445 1073 0.0048220099123521959
1446 1073 -0.09230703811323461
1447 1073 -0.22028815111069383
1448 1073 -0.062540089363958593
757 1074 -0
758 1074 -0
759 1074 -0
760 1074 -0
761 1074 -0
762 1074 -0
763 1074 -0
764 1074 -0
765 1074 -0
766 1074 -0
767 1074 -0
768 1074 -0.99509004789631994
769 1074 0
770 1074 0
771 1074 0
772 1074 0
773 1074 0
774 1074 0
775 1074 0
776 1074 0
777 1074 0
778 1074 0
779 1074 0
780 1074 0
1445 1074 0.22589481330245723
1446 1074 0.085512196920050021
1447 1074 -0.209328877595194
1448 1074 0.014853171089538656
757 1075 0
758 1075 0
759 1075 0
760 1075 0
761 1075 0
762 1075 0
763 1075 0
764 1075 0
765 1075 0
766 1075 0
767 1075 0
768 1075 0
769 1075 0.99509004789631994
770 1075 0
771 1075 0
772 1075 0
773 1075 0
774 1075 0
775 1075 0
776 1075 0
777 1075 0
778 1075 0
779 1075 0
780 1075 0
1445 1075 0
1446 1075 0
1447 1075 0
1448 1075 0
757 1076 0
758 1076 0
759 1076 0
760 1076 0
761 1076 0
762 1076 0
763 1076 0
764 1076 0
765 1076 0
766 1076 0
767 1076 0
768 1076 0
769 1076 0
770 1076 0.99509004789631994
771 1076 0
772 1076 0
773 1076 0
774 1076 0
775 1076 0
776 1076 0
777 1076 0
778 1076 0
779 1076 0
780 1076 0
1445 1076 0
1446 1076 0
1447 1076 0
1448 1076 0
757 1077 0
758 1077 0
759 1077 0
760 1077 0
761 1077 0
762 1077 0
763 1077 0
764 1077 0
765 1077 0
766 1077 0
767 1077 0
768 1077 0
769 1077 0
770 1077 0
771 1077 0.99509004789631994
772 1077 0
773 1077 0
774 1077 0
775 1077 0
776 1077 0
777 1077 0
778 1077 0
779 1077 0
780 1077 0
1445 1077 0
1446 1077 0
1447 1077 0
1448 1077 0
757 1078 0
758 1078 0
759 1078 0
760 1078 0
761 1078 0
762 1078 0
763 1078 0
764 1078 0
765 1078 0
766 1078 0
767 1078 0
768 1078 0
769 1078 0
770 1078 0
771 1078 0
772 1078 0.99509004789631994
773 1078 0
774 1078 0
775 1078 0
776 1078 0
777 1078 0
778 1078 0
779 1078 0
780 1078 0
1445 1078 0
1446 1078 0
1447 1078 0
1448 1078 0
757 1079 0
758 1079 0
759 1079 0
760 1079 0
761 1079 0
762 1079 0
763 1079 0
764 1079 0
765 1079 0
766 1079 0
767 1079 0
768 1079 0
769 1079 0
770 1079 0
771 1079 0
772 1079 0
773 1079 0.99509004789631994
774 1079 0
775 1079 0
776 1079 0
777 1079 0
778 1079 0
779 1079 0
780 1079 0
1445 1079 0
1446 1079 0
1447 1079 0
1448 1079 0
757 1080 0
758 1080 0
759 1080 0
760 1080 0
761 1080 0
762 1080 0
763 1080 0
764 1080 0
765 1080 0
766 1080 0
767 1080 0
768 1080 0
769 1080 0
770 1080 0
771 1080 0
772 1080 0
773 1080 0
774 1080 0.99509004789631994
775 1080 0
776 1080 0
777 1080 0
778 1080 0
779 1080 0
780 1080 0
1445 1080 0
1446 1080 0
1447 1080 0
1448 1080 0
757 1081 0
758 1081 0
759 1081 0
760 1081 0
761 1081 0
762 1081 0
763 1081 0
764 1081 0
765 1081 0
766 1081 0
767 1081 0
768 1081 0
769 1081 0
770 1081 0
771 1081 0
772 1081 0
773 1081 0
774 1081 0
775 1081 0.99509004789631994
776 1081 0
777 1081 0
778 1081 0
779 1081 0
780 1081 0
1445 1081 0
1446 1081 0
1447 1081 0
1448 1081 0
757 1082 0
758 1082 0
759 1082 0
760 1082 0
761 1082 0
762 1082 0
763 1082 0
764 1082 0
765 1082 0
766 1082 0
767 1082 0
768 1082 0
769 1082 0
770 1082 0
771 1082 0
772 1082 0
773 1082 0
774 1082 0
775 1082 0
776 1082 0.99509004789631994
777 1082 0
778 1082 0
779 1082 0
780 1082 0
1445 1082 0
1446 1082 0
1447 1082 0
1448 1082 0
757 1083 0
758 1083 0
759 1083 0
760 1083 0
761 1083 0
762 1083 0
763 1083 0
764 1083 0
765 1083 0
766 1083 0
767 1083 0
768 1083 0
769 1083 0
770 1083 0
771 1083 0
772 1083 0
773 1083 0
774 1083 0
775 1083 0
776 1083 0
777 1083 0.99509004789631994
778 1083 0
779 1083 0
780 1083 0
1445 1083 0
1446 1083 0
1447 1083 0
1448 1083 0
757 1084 0
758 1084 0
759 1084 0
760 1084 0
761 1084 0
762 1084 0
763 1084 0
764 1084 0
765 1084 0
766 1084 0
767 1084 0
768 1084 0
769 1084 0
770 1084 0
771 1084 0
772 1084 0
773 1084 0
774 1084 0
775 1084 0
776 1084 0
777 1084 0
778 1084 0.99509004789631994
779 1084 0
780 1084 0
1445 1084 0
1446 1084 0
1447 1084 0
1448 1084 0
757 1085 0
758 1085 0
759 1085 0
760 1085 0
761 1085 0
762 1085 0
763 1085 0
764 1085 0
765 1085 0
766 1085 0
767 1085 0
768 1085 0
769 1085 0
770 1085 0
771 1085 0
772 1085 0
773 1085 0
774 1085 0
775 1085 0
776 1085 0
777 1085 0
778 1085 0
779 1085 0.99509004789631994
780 1085 0
1445 1085 0
1446 1085 0
1447 1085 0
1448 1085 0
757 1086 0
758 1086 0
759 1086 0
760 1086 0
761 1086 0
762 1086 0
763 1086 0
764 1086 0
765 1086 0
766 1086 0
767 1086 0
768 1086 0
769 1086 0
770 1086 0
771 1086 0
772 1086 0
773 1086 0
774 1086 0
775 1086 0
776 1086 0
777 1086 0
778 1086 0
779 1086 0
780 1086 0.99509004789631994
1445 1086 0
1446 1086 0
1447 1086 0
1448 1086 0
1441 1087 0
1442 1087 0
1443 1087 0
1444 1087 0
1656 1087 0
1441 1088 0.99878751991636638
1442 1088 0
1443 1088 0
1444 1088 0
1656 1088 0
1441 1089 0
1442 1089 0.99886974093913028
1443 1089 0
1444 1089 0
1656 1089 0
1441 1090 0
1442 1090 0
1443 1090 0.99859691322799182
1444 1090 0
1656 1090 0
1441 1091 0
1442 1091 0
1443 1091 0
1444 1091 0.99879118685427859
1656 1091 0
1441 1092 0
1442 1092 0
1443 1092 0
1444 1092 0
1656 1092 1
745 1093 -0.99509004789631994
746 1093 -0
747 1093 -0
748 1093 -0
749 1093 -0
750 1093 -0
751 1093 -0
752 1093 -0
753 1093 -0
754 1093 -0
755 1093 -0
756 1093 -0
757 1093 0
758 1093 0
759 1093 0
760 1093 0
761 1093 0
762 1093 0
763 1093 0
764 1093 0
765 1093 0
766 1093 0
767 1093 0
768 1093 0
1441 1093 -0.1803189598547551
1442 1093 -0.25584631152049064
1443 1093 -0.074765084896359371
1444 1093 -0.06244980534901011
745 1094 -0
746 1094 -0.99509004789631994
747 1094 -0
748 1094 -0
749 1094 -0
750 1094 -0
751 1094 -0
752 1094 -0
753 1094 -0
754 1094 -0
755 1094 -0
756 1094 -0
757 1094 0
758 1094 0
759 1094 0
760 1094 0
761 1094 0
762 1094 0
763 1094 0
764 1094 0
765 1094 0
766 1094 0
767 1094 0
768 1094 0
1441 1094 0.10820261428783474
1442 1094 0.080196783561304039
1443 1094 -0.016866001348705428
1444 1094 -0.17094248486675911
745 1095 -0
746 1095 -0
747 1095 -0.99509004789631994
748 1095 -0
749 1095 -0
750 1095 -0
751 1095 -0
752 1095 -0
753 1095 -0
754 1095 -0
755 1095 -0
756 1095 -0
757 1095 0
758 1095 0
759 1095 0
760 1095 0
761 1095 0
762 1095 0
763 1095 0
764 1095 0
765 1095 0
766 1095 0
767 1095 0
768 1095 0
1441 1095 0.021296203412182201
1442 1095 0.06379387941368389
1443 1095 0.33227429440027084
1444 1095 0.038055274961526345
745 1096 -0
746 1096 -0
747 1096 -0
748 1096 -0.99509004789631994
749 1096 -0
750 1096 -0
751 1096 -0
752 1096 -0
753 1096 -0
754 1096 -0
755 1096 -0
756 1096 -0
757 1096 0
758 1096 0
759 1096 0
760 1096 0
761 1096 0
762 1096 0
763 1096 0
764 1096 0
765 1096 0
766 1096 0
767 1096 0
768 1096 0
1441 1096 0.19846746771042395
1442 1096 0.13291349456905685
1443 1096 -0.11659569025066187
1444 1096 0.1709989853023412
745 1097 -0
746 1097 -0
747 1097 -0
748 1097 -0
749 1097 -0.99509004789631994
750 1097 -0
751 1097 -0
752 1097 -0
753 1097 -0
754 1097 -0
755 1097 -0
756 1097 -0
757 1097 0
758 1097 0
759 1097 0
760 1097 0
761 1097 0
762 1097 0
763 1097 0
764 1097 0
765 1097 0
766 1097 0
767 1097 0
768 1097 0
1441 1097 0.06406726430169403
1442 1097 0.0077975121873435499
1443 1097 -0.012888481757033089
1444 1097 0.1821584263174176
745 1098 -0
746 1098 -0
747 1098 -0
748 1098 -0
749 1098 -0
750 1098 -0.99509004789631994
751 1098 -0
752 1098 -0
753 1098 -0
754 1098 -0
755 1098 -0
756 1098 -0
757 1098 0
758 1098 0
759 1098 0
760 1098 0
761 1098 0
762 1098 0
763 1098 0
764 1098 0
765 1098 0
766 1098 0
767 1098 0
768 1098 0
1441 1098 0.14930176975937659
1442 1098 -0.1220518999462523
1443 1098 -0.21437482240798272
1444 1098 -0.27728111366749703
745 1099 -0
746 1099 -0
747 1099 -0
748 1099 -0
749 1099 -0
750 1099 -0
751 1099 -0.99509004789631994
752 1099 -0
753 1099 -0
754 1099 -0
755 1099 -0
756 1099 -0
757 1099 0
758 1099 0
759 1099 0
760 1099 0
761 1099 0
762 1099 0
763 1099 0
764 1099 0
765 1099 0
766 1099 0
767 1099 0
768 1099 0
1441 1099 -0.27832449100114248
1442 1099 -0.023030066571549251
1443 1099 0.085999904285044407
1444 1099 0.14042558666593874
745 1100 -0
746 1100 -0
747 1100 -0
748 1100 -0
749 1100 -0
750 1100 -0
751 1100 -0
752 1100 -0.99509004789631994
753 1100 -0
754 1100 -0
755 1100 -0
756 1100 -0
757 1100 0
758 1100 0
759 1100 0
760 1100 0
761 1100 0
762 1100 0
763 1100 0
764 1100 0
765 1100 0
766 1100 0
767 1100 0
768 1100 0
1441 1100 0.14426661227624929
1442 1100 0.019112219351713613
1443 1100 -0.3383340256558125
1444 1100 -0.26332006554483989
745 1101 -0
746 1101 -0
747 1101 -0
748 1101 -0
749 1101 -0
750 1101 -0
751 1101 -0
752 1101 -0
753 1101 -0.99509004789631994
754 1101 -0
755 1101 -0
756 1101 -0
757 1101 0
758 1101 0
759 1101 0
760 1101 0
761 1101 0
762 1101 0
763 1101 0
764 1101 0
765 1101 0
766 1101 0
767 1101 0
768 1101 0
1441 1101 -0.11462509557936003
1442 1101 -0.065598224589830417
1443 1101 0.12045547271290091
1444 1101 0.066735657880519217
745 1102 -0
746 1102 -0
747 1102 -0
748 1102 -0
749 1102 -0
750 1102 -0
751 1102 -0
752 1102 -0
753 1102 -0
754 1102 -0.99509004789631994
755 1102 -0
756 1102 -0
757 1102 0
758 1102 0
759 1102 0
760 1102 0
761 1102 0
762 1102 0
763 1102 0
764 1102 0
765 1102 0
766 1102 0
767 1102 0
768 1102 0
1441 1102 0.1112726701807888
1442 1102 -0.18163442438886057
1443 1102 -0.24934842404473068
1444 1102 0.087619788974651794
745 1103 -0
746 1103 -0
747 1103 -0
748 1103 -0
749 1103 -0
750 1103 -0
751 1103 -0
752 1103 -0
753 1103 -0
754 1103 -0
755 1103 -0.99509004789631994
756 1103 -0
757 1103 0
758 1103 0
759 1103 0
760 1103 0
761 1103 0
762 1103 0
763 1103 0
764 1103 0
765 1103 0
766 1103 0
767 1103 0
768 1103 0
1441 1103 0.0048220099123521959
1442 1103 -0.09230703811323461
1443 1103 -0.22028815111069383
1444 1103 -0.062540089363958593
745 1104 -0
746 1104 -0
747 1104 -0
748 1104 -0
749 1104 -0
750 1104 -0
751 1104 -0
752 1104 -0
753 1104 -0
754 1104 -0
755 1104 -0
756 1104 -0.99509004789631994
757 1104 0
758 1104 0
759 1104 0
760 1104 0
761 1104 0
762 1104 0
763 1104 0
764 1104 0
765 1104 0
766 1104 0
767 1104 0
768 1104 0
1441 1104 0.22589481330245723
1442 1104 0.085512196920050021
1443 1104 -0.209328877595194
1444 1104 0.014853171089538656
745 1105 0
746 1105 0
747 1105 0
748 1105 0
749 1105 0
750 1105 0
751 1105 0
752 1105 0
753 1105 0
754 1105 0
755 1105 0
756 1105 0
757 1105 0.99509004789631994
758 1105 0
759 1105 0
760 1105 0
761 1105 0
762 1105 0
763 1105 0
764 1105 0
765 1105 0
766 1105 0
767 1105 0
768 1105 0
1441 1105 0
1442 1105 0
1443 1105 0
1444 1105 0
745 1106 0
746 1106 0
747 1106 0
748 1106 0
749 1106 0
750 1106 0
751 1106 0
752 1106 0
753 1106 0
754 1106 0
755 1106 0
756 1106 0
757 1106 0
758 1106 0.99509004789631994
759 1106 0
760 1106 0
761 1106 0
762 1106 0
763 1106 0
764 1106 0
765 1106 0
766 1106 0
767 1106 0
768 1106 0
1441 1106 0
1442 1106 0
1443 1106 0
1444 1106 0
745 1107 0
746 1107 0
747 1107 0
748 1107 0
749 1107 0
750 1107 0
751 1107 0
752 1107 0
753 1107 0
754 1107 0
755 1107 0
756 1107 0
757 1107 0
758 1107 0
759 1107 0.99509004789631994
760 1107 0
761 1107 0
762 1107 0
763 1107 0
764 1107 0
765 1107 0
766 1107 0
767 1107 0
768 1107 0
1441 1107 0
1442 1107 0
1443 1107 0
1444 1107 0
745 1108 0
746 1108 0
747 1108 0
748 1108 0
749 1108 0
750 1108 0
751 1108 0
752 1108 0
753 1108 0
754 1108 0
755 1108 0
756 1108 0
757 1108 0
758 1108 0
759 1108 0
760 1108 0.99509004789631994
761 1108 0
762 1108 0
763 1108 0
764 1108 0
765 1108 0
766 1108 0
767 1108 0
768 1108 0
1441 1108 0
1442 1108 0
1443 1108 0
1444 1108 0
745 1109 0
746 1109 0
747 1109 0
748 1109 0
749 1109 0
750 1109 0
751 1109 0
752 1109 0
753 1109 0
754 1109 0
755 1109 0
756 1109 0
757 1109 0
758 1109 0
759 1109 0
760 1109 0
761 1109 0.99509004789631994
762 1109 0
763 1109 0
764 1109 0
765 1109 0
766 1109 0
767 1109 0
768 1109 0
1441 1109 0
1442 1109 0
1443 1109 0
1444 1109 0
745 1110 0
746 1110 0
747 1110 0
748 1110 0
749 1110 0
750 1110 0
751 1110 0
752 1110 0
753 1110 0
754 1110 0
755 1110 0
756 1110 0
757 1110 0
758 1110 0
759 1110 0
760 1110 0
761 1110 0
762 1110 0.99509004789631994
763 1110 0
764 1110 0
765 1110 0
766 1110 0
767 1110 0
768 1110 0
1441 1110 0
1442 1110 0
1443 1110 0
1444 1110 0
745 1111 0
746 1111 0
747 1111 0
748 1111 0
749 1111 0
750 1111 0
751 1111 0
752 1111 0
753 1111 0
754 1111 0
755 1111 0
756 1111 0
757 1111 0
758 1111 0
759 1111 0
760 1111 0
761 1111 0
762 1111 0
763 1111 0.99509004789631994
764 1111 0
765 1111 0
766 1111 0
767 1111 0
768 1111 0
1441 1111 0
1442 1111 0
1443 1111 0
1444 1111 0
745 1112 0
746 1112 0
747 1112 0
748 1112 0
749 1112 0
750 1112 0
751 1112 0
752 1112 0
753 1112 0
754 1112 0
755 1112 0
756 1112 0
757 1112 0
758 1112 0
759 1112 0
760 1112 0
761 1112 0
762 1112 0
763 1112 0
764 1112 0.99509004789631994
765 1112 0
766 1112 0
767 1112 0
768 1112 0
1441 1112 0
1442 1112 0
1443 1112 0
1444 1112 0
745 1113 0
746 1113 0
747 1113 0
748 1113 0
749 1113 0
750 1113 0
751 1113 0
752 1113 0
753 1113 0
754 1113 0
755 1113 0
756 1113 0
757 1113 0
758 1113 0
759 1113 0
760 1113 0
761 1113 0
762 1113 0
763 1113 0
764 1113 0
765 1113 0.99509004789631994
766 1113 0
767 1113 0
768 1113 0
1441 1113 0
1442 1113 0
1443 1113 0
1444 1113 0
745 1114 0
746 1114 0
747 1114 0
748 1114 0
749 1114 0
750 1114 0
751 1114 0
752 1114 0
753 1114 0
754 1114 0
755 1114 0
756 1114 0
757 1114 0
758 1114 0
759 1114 0
760 1114 0
761 1114 0
762 1114 0
763 1114 0
764 1114 0
765 1114 0
766 1114 0.99509004789631994
767 1114 0
768 1114 0
1441 1114 0
1442 1114 0
1443 1114 0
1444 1114 0
745 1115 0
746 1115 0
747 1115 0
748 1115 0
749 1115 0
750 1115 0
751 1115 0
752 1115 0
753 1115 0
754 1115 0
755 1115 0
756 1115 0
757 1115 0
758 1115 0
759 1115 0
760 1115 0
761 1115 0
762 1115 0
763 1115 0
764 1115 0
765 1115 0
766 1115 0
767 1115 0.99509004789631994
768 1115 0
1441 1115 0
1442 1115 0
1443 1115 0
1444 1115 0
745 1116 0
746 1116 0
747 1116 0
748 1116 0
749 1116 0
750 1116 0
751 1116 0
752 1116 0
753 1116 0
754 1116 0
755 1116 0
756 1116 0
757 1116 0
758 1116 0
759 1116 0
760 1116 0
761 1116 0
762 1116 0
763 1116 0
764 1116 0
765 1116 0
766 1116 0
767 1116 0
768 1116 0.99509004789631994
1441 1116 0
1442 1116 0
1443 1116 0
1444 1116 0
1437 1117 0
1438 1117 0
1439 1117 0
1440 1117 0
1655 1117 0
1437 1118 0.99878751991636638
1438 1118 0
1439 1118 0
1440 1118 0
1655 1118 0
1437 1119 0
1438 1119 0.99886974093913028
1439 1119 0
1440 1119 0
1655 1119 0
1437 1120 0
1438 1120 0
1439 1120 0.99859691322799182
1440 1120 0
1655 1120 0
1437 1121 0
1438 1121 0
1439 1121 0
1440 1121 0.99879118685427859
1655 1121 0
1437 1122 0
1438 1122 0
1439 1122 0
1440 1122 0
1655 1122 1
733 1123 -0.99509004789631994
734 1123 -0
735 1123 -0
736 1123 -0
737 1123 -0
738 1123 -0
739 1123 -0
740 1123 -0
741 1123 -0
742 1123 -0
743 1123 -0
744 1123 -0
745 1123 0
746 1123 0
747 1123 0
748 1123 0
749 1123 0
750 1123 0
751 1123 0
752 1123 0
753 1123 0
754 1123 0
755 1123 0
756 1123 0
1437 1123 -0.1803189598547551
1438 1123 -0.25584631152049064
1439 1123 -0.074765084896359371
1440 1123 -0.06244980534901011
733 1124 -0
734 1124 -0.99509004789631994
735 1124 -0
736 1124 -0
737 1124 -0
738 1124 -0
739 1124 -0
740 1124 -0
741 1124 -0
742 1124 -0
743 1124 -0
744 1124 -0
745 1124 0
746 1124 0
747 1124 0
748 1124 0
749 1124 0
750 1124 0
751 1124 0
752 1124 0
753 1124 0
754 1124 0
755 1124 0
756 1124 0
1437 1124 0.10820261428783474
1438 1124 0.080196783561304039
1439 1124 -0.016866001348705428
1440 1124 -0.17094248486675911
733 1125 -0
734 1125 -0
735 1125 -0.99509004789631994
736 1125 -0
737 1125 -0
738 1125 -0
739 1125 -0
740 1125 -0
741 1125 -0
742 1125 -0
743 1125 -0
744 1125 -0
745 1125 0
746 1125 0
747 1125 0
748 1125 0
749 1125 0
750 1125 0
751 1125 0
752 1125 0
753 1125 0
754 1125 0
755 1125 0
756 1125 0
1437 1125 0.021296203412182201
1438 1125 0.06379387941368389
1439 1125 0.33227429440027084
1440 1125 0.038055274961526345
733 1126 -0
734 1126 -0
735 1126 -0
736 1126 -0.99509004789631994
737 1126 -0
738 1126 -0
739 1126 -0
740 1126 -0
741 1126 -0
742 1126 -0
743 1126 -0
744 1126 -0
745 1126 0
746 1126 0
747 1126 0
748 1126 0
749 1126 0
750 1126 0
751 1126 0
752 1126 0
753 1126 0
754 1126 0
755 1126 0
756 1126 0
1437 1126 0.19846746771042395
1438 1126 0.13291349456905685
1439 1126 -0.11659569025066187
1440 1126 0.1709989853023412
733 1127 -0
734 1127 -0
735 1127 -0
736 1127 -0
737 1127 -0.99509004789631994
738 1127 -0
739 1127 -0
740 1127 -0
741 1127 -0
742 1127 -0
743 1127 -0
744 1127 -0
745 1127 0
746 1127 0
747 1127 0
748 1127 0
749 1127 0
750 1127 0
751 1127 0
752 1127 0
753 1127 0
754 1127 0
755 1127 0
756 1127 0
1437 1127 0.06406726430169403
1438 1127 0.0077975121873435499
1439 1127 -0.012888481757033089
1440 1127 0.1821584263174176
733 1128 -0
734 1128 -0
735 1128 -0
736 1128 -0
737 1128 -0
738 1128 -0.99509004789631994
739 1128 -0
740 1128 -0
741 1128 -0
742 1128 -0
743 1128 -0
744 1128 -0
745 1128 0
746 1128 0
747 1128 0
748 1128 0
749 1128 0
750 1128 0
751 1128 0
752 1128 0
753 1128 0
754 1128 0
755 1128 0
756 1128 0
1437 1128 0.14930176975937659
1438 1128 -0.1220518999462523
1439 1128 -0.21437482240798272
1440 1128 -0.27728111366749703
733 1129 -0
734 1129 -0
735 1129 -0
736 1129 -0
737 1129 -0
738 1129 -0
739 1129 -0.99509004789631994
740 1129 -0
741 1129 -0
742 1129 -0
743 1129 -0
744 1129 -0
745 1129 0
746 1129 0
747 1129 0
748 1129 0
749 1129 0
750 1129 0
751 1129 0
752 1129 0
753 1129 0
754 1129 0
755 1129 0
756 1129 0
1437 1129 -0.27832449100114248
1438 1129 -0.023030066571549251
1439 1129 0.085999904285044407
1440 1129 0.14042558666593874
733 1130 -0
734 1130 -0
735 1130 -0
736 1130 -0
737 1130 -0
738 1130 -0
739 1130 -0
740 1130 -0.99509004789631994
741 1130 -0
742 1130 -0
743 1130 -0
744 1130 -0
745 1130 0
746 1130 0
747 1130 0
748 1130 0
749 1130 0
750 1130 0
751 1130 0
752 1130 0
753 1130 0
754 1130 0
755 1130 0
756 1130 0
1437 1130 0.14426661227624929
1438 1130 0.019112219351713613
1439 1130 -0.3383340256558125
1440 1130 -0.26332006554483989
733 1131 -0
734 1131 -0
735 1131 -0
736 1131 -0
737 1131 -0
738 1131 -0
739 1131 -0
740 1131 -0
741 1131 -0.99509004789631994
742 1131 -0
743 1131 -0
744 1131 -0
745 1131 0
746 1131 0
747 1131 0
748 1131 0
749 1131 0
750 1131 0
751 1131 0
752 1131 0
753 1131 0
754 1131 0
755 1131 0
756 1131 0
1437 1131 -0.11462509557936003
1438 1131 -0.065598224589830417
1439 1131 0.12045547271290091
1440 1131 0.066735657880519217
733 1132 -0
734 1132 -0
735 1132 -0
736 1132 -0
737 1132 -0
738 1132 -0
739 1132 -0
740 1132 -0
741 1132 -0
742 1132 -0.99509004789631994
743 1132 -0
744 1132 -0
745 1132 0
746 1132 0
747 1132 0
748 1132 0
749 1132 0
750 1132 0
751 1132 0
752 1132 0
753 1132 0
754 1132 0
755 1132 0
756 1132 0
1437 1132 0.1112726701807888
1438 1132 -0.18163442438886057
1439 1132 -0.24934842404473068
1440 1132 0.087619788974651794
733 1133 -0
734 1133 -0
735 1133 -0
736 1133 -0
737 1133 -0
738 1133 -0
739 1133 -0
740 1133 -0
741 1133 -0
742 1133 -0
743 1133 -0.99509004789631994
744 1133 -0
745 1133 0
746 1133 0
747 1133 0
748 1133 0
749 1133 0
750 1133 0
751 1133 0
752 1133 0
753 1133 0
754 1133 0
755 1133 0
756 1133 0
1437 1133 0.0048220099123521959
1438 1133 -0.09230703811323461
1439 1133 -0.22028815111069383
1440 1133 -0.062540089363958593
733 1134 -0
734 1134 -0
735 1134 -0
736 1134 -0
737 1134 -0
738 1134 -0
739 1134 -0
740 1134 -0
741 1134 -0
742 1134 -0
743 1134 -0
744 1134 -0.99509004789631994
745 1134 0
746 1134 0
747 1134 0
748 1134 0
749 1134 0
750 1134 0
751 1134 0
752 1134 0
753 1134 0
754 1134 0
755 1134 0
756 1134 0
1437 1134 0.22589481330245723
1438 1134 0.085512196920050021
1439 1134 -0.209328877595194
1440 1134 0.014853171089538656
733 1135 0
734 1135 0
735 1135 0
736 1135 0
737 1135 0
738 1135 0
739 1135 0
740 1135 0
741 1135 0
742 1135 0
743 1135 0
744 1135 0
745 1135 0.99509004789631994
746 1135 0
747 1135 0
748 1135 0
749 1135 0
750 1135 0
751 1135 0
752 1135 0
753 1135 0
754 1135 0
755 1135 0
756 1135 0
1437 1135 0
1438 1135 0
1439 1135 0
1440 1135 0
733 1136 0
734 1136 0
735 1136 0
736 1136 0
737 1136 0
738 1136 0
739 1136 0
740 1136 0
741 1136 0
742 1136 0
743 1136 0
744 1136 0
745 1136 0
746 1136 0.99509004789631994
747 1136 0
748 1136 0
749 1136 0
750 1136 0
751 1136 0
752 1136 0
753 1136 0
754 1136 0
755 1136 0
756 1136 0
1437 1136 0
1438 1136 0
1439 1136 0
1440 1136 0
733 1137 0
734 1137 0
735 1137 0
736 1137 0
737 1137 0
738 1137 0
739 1137 0
740 1137 0
741 1137 0
742 1137 0
743 1137 0
744 1137 0
745 1137 0
746 1137 0
747 1137 0.99509004789631994
748 1137 0
749 1137 0
750 1137 0
751 1137 0
752 1137 0
753 1137 0
754 1137 0
755 1137 0
756 1137 0
1437 1137 0
1438 1137 0
1439 1137 0
1440 1137 0
733 1138 0
734 1138 0
735 1138 0
736 1138 0
737 1138 0
738 1138 0
739 1138 0
740 1138 0
741 1138 0
742 1138 0
743 1138 0
744 1138 0
745 1138 0
746 1138 0
747 1138 0
748 1138 0.99509004789631994
749 1138 0
750 1138 0
751 1138 0
752 1138 0
753 1138 0
754 1138 0
755 1138 0
756 1138 0
1437 1138 0
1438 1138 0
1439 1138 0
1440 1138 0
733 1139 0
734 1139 0
735 1139 0
736 1139 0
737 1139 0
738 1139 0
739 1139 0
740 1139 0
741 1139 0
742 1139 0
743 1139 0
744 1139 0
745 1139 0
746 1139 0
747 1139 0
748 1139 0
749 1139 0.99509004789631994
750 1139 0
751 1139 0
752 1139 0
753 1139 0
754 1139 0
755 1139 0
756 1139 0
1437 1139 0
1438 1139 0
1439 1139 0
1440 1139 0
733 1140 0
734 1140 0
735 1140 0
736 1140 0
737 1140 0
738 1140 0
739 1140 0
740 1140 0
741 1140 0
742 1140 0
743 1140 0
744 1140 0
745 1140 0
746 1140 0
747 1140 0
748 1140 0
749 1140 0
750 1140 0.99509004789631994
751 1140 0
752 1140 0
753 1140 0
754 1140 0
755 1140 0
756 1140 0
1437 1140 0
1438 1140 0
1439 1140 0
1440 1140 0
733 1141 0
734 1141 0
735 1141 0
736 1141 0
737 1141 0
738 1141 0
739 1141 0
740 1141 0
741 1141 0
742 1141 0
743 1141 0
744 1141 0
745 1141 0
746 1141 0
747 1141 0
748 1141 0
749 1141 0
750 1141 0
751 1141 0.99509004789631994
752 1141 0
753 1141 0
754 1141 0
755 1141 0
756 1141 0
1437 1141 0
1438 1141 0
1439 1141 0
1440 1141 0
733 1142 0
734 1142 0
735 1142 0
736 1142 0
737 1142 0
738 1142 0
739 1142 0
740 1142 0
741 1142 0
742 1142 0
743 1142 0
744 1142 0
745 1142 0
746 1142 0
747 1142 0
748 1142 0
749 1142 0
750 1142 0
751 1142 0
752 1142 0.99509004789631994
753 1142 0
754 1142 0
755 1142 0
756 1142 0
1437 1142 0
1438 1142 0
1439 1142 0
1440 1142 0
733 1143 0
734 1143 0
735 1143 0
736 1143 0
737 1143 0
738 1143 0
739 1143 0
740 1143 0
741 1143 0
742 1143 0
743 1143 0
744 1143 0
745 1143 0
746 1143 0
747 1143 0
748 1143 0
749 1143 0
750 1143 0
751 1143 0
752 1143 0
753 1143 0.99509004789631994
754 1143 0
755 1143 0
756 1143 0
1437 1143 0
1438 1143 0
1439 1143 0
1440 1143 0
733 1144 0
734 1144 0
735 1144 0
736 1144 0
737 1144 0
738 1144 0
739 1144 0
740 1144 0
741 1144 0
742 1144 0
743 1144 0
744 1144 0
745 1144 0
746 1144 0
747 1144 0
748 1144 0
749 1144 0
750 1144 0
751 1144 0
752 1144 0
753 1144 0
754 1144 0.99509004789631994
755 1144 0
756 1144 0
1437 1144 0
1438 1144 0
1439 1144 0
1440 1144 0
733 1145 0
734 1145 0
735 1145 0
736 1145 0
737 1145 0
738 1145 0
739 1145 0
740 1145 0
741 1145 0
742 1145 0
743 1145 0
744 1145 0
745 1145 0
746 1145 0
747 1145 0
748 1145 0
749 1145 0
750 1145 0
751 1145 0
752 1145 0
753 1145 0
754 1145 0
755 1145 0.99509004789631994
756 1145 0
1437 1145 0
1438 1145 0
1439 1145 0
1440 1145 0
733 1146 0
734 1146 0
735 1146 0
736 1146 0
737 1146 0
738 1146 0
739 1146 0
740 1146 0
741 1146 0
742 1146 0
743 1146 0
744 1146 0
745 1146 0
746 1146 0
747 1146 0
748 1146 0
749 1146 0
750 1146 0
751 1146 0
752 1146 0
753 1146 0
754 1146 0
755 1146 0
756 1146 0.99509004789631994
1437 1146 0
1438 1146 0
1439 1146 0
1440 1146 0
1433 1147 0
1434 1147 0
1435 1147 0
1436 1147 0
1654 1147 0
1433 1148 0.99878751991636638
1434 1148 0
1435 1148 0
1436 1148 0
1654 1148 0
1433 1149 0
1434 1149 0.99886974093913028
1435 1149 0
1436 1149 0
1654 1149 0
1433 1150 0
1434 1150 0
1435 1150 0.99859691322799182
1436 1150 0
1654 1150 0
1433 1151 0
1434 1151 0
1435 1151 0
1436 1151 0.99879118685427859
1654 1151 0
1433 1152 0
1434 1152 0
1435 1152 0
1436 1152 0
1654 1152 1
721 1153 -0.99509004789631994
722 1153 -0
723 1153 -0
724 1153 -0
725 1153 -0
726 1153 -0
727 1153 -0
728 1153 -0
729 1153 -0
730 1153 -0
731 1153 -0
732 1153 -0
733 1153 0
734 1153 0
735 1153 0
736 1153 0
737 1153 0
738 1153 0
739 1153 0
740 1153 0
741 1153 0
742 1153 0
743 1153 0
744 1153 0
1433 1153 -0.1803189598547551
1434 1153 -0.25584631152049064
1435 1153 -0.074765084896359371
1436 1153 -0.06244980534901011
721 1154 -0
722 1154 -0.99509004789631994
723 1154 -0
724 1154 -0
725 1154 -0
726 1154 -0
727 1154 -0
728 1154 -0
729 1154 -0
730 1154 -0
731 1154 -0
732 1154 -0
733 1154 0
734 1154 0
735 1154 0
736 1154 0
737 1154 0
738 1154 0
739 1154 0
740 1154 0
741 1154 0
742 1154 0
743 1154 0
744 1154 0
1433 1154 0.10820261428783474
1434 1154 0.080196783561304039
1435 1154 -0.016866001348705428
1436 1154 -0.17094248486675911
721 1155 -0
722 1155 -0
723 1155 -0.99509004789631994
724 1155 -0
725 1155 -0
726 1155 -0
727 1155 -0
728 1155 -0
729 1155 -0
730 1155 -0
731 1155 -0
732 1155 -0
733 1155 0
734 1155 0
735 1155 0
736 1155 0
737 1155 0
738 1155 0
739 1155 0
740 1155 0
741 1155 0
742 1155 0
743 1155 0
744 1155 0
1433 1155 0.021296203412182201
1434 1155 0.06379387941368389
1435 1155 0.33227429440027084
1436 1155 0.038055274961526345
721 1156 -0
722 1156 -0
723 1156 -0
724 1156 -0.99509004789631994
725 1156 -0
726 1156 -0
727 1156 -0
728 1156 -0
729 1156 -0
730 1156 -0
731 1156 -0
732 1156 -0
733 1156 0
734 1156 0
735 1156 0
736 1156 0
737 1156 0
738 1156 0
739 1156 0
740 1156 0
741 1156 0
742 1156 0
743 1156 0
744 1156 0
1433 1156 0.19846746771042395
1434 1156 0.13291349456905685
1435 1156 -0.11659569025066187
1436 1156 0.1709989853023412
721 1157 -0
722 1157 -0
723 1157 -0
724 1157 -0
725 1157 -0.99509004789631994
726 1157 -0
727 1157 -0
728 1157 -0
729 1157 -0
730 1157 -0
731 1157 -0
732 1157 -0
733 1157 0
734 1157 0
735 1157 0
736 1157 0
737 1157 0
738 1157 0
739 1157 0
740 1157 0
741 1157 0
742 1157 0
743 1157 0
744 1157 0
1433 1157 0.06406726430169403
1434 1157 0.0077975121873435499
1435 1157 -0.012888481757033089
1436 1157 0.1821584263174176
721 1158 -0
722 1158 -0
723 1158 -0
724 1158 -0
725 1158 -0
726 1158 -0.99509004789631994
727 1158 -0
728 1158 -0
729 1158 -0
730 1158 -0
731 1158 -0
732 1158 -0
733 1158 0
734 1158 0
735 1158 0
736 1158 0
737 1158 0
738 1158 0
739 1158 0
740 1158 0
741 1158 0
742 1158 0
743 1158 0
744 1158 0
1433 1158 0.14930176975937659
1434 1158 -0.1220518999462523
1435 1158 -0.21437482240798272
1436 1158 -0.27728111366749703
721 1159 -0
722 1159 -0
723 1159 -0
724 1159 -0
725 1159 -0
726 1159 -0
727 1159 -0.99509004789631994
728 1159 -0
729 1159 -0
730 1159 -0
731 1159 -0
732 1159 -0
733 1159 0
734 1159 0
735 1159 0
736 1159 0
737 1159 0
738 1159 0
739 1159 0
740 1159 0
741 1159 0
742 1159 0
743 1159 0
744 1159 0
1433 1159 -0.27832449100114248
1434 1159 -0.023030066571549251
1435 1159 0.085999904285044407
1436 1159 0.14042558666593874
721 1160 -0
722 1160 -0
723 1160 -0
724 1160 -0
725 1160 -0
726 1160 -0
727 1160 -0
728 1160 -0.99509004789631994
729 1160 -0
730 1160 -0
731 1160 -0
732 1160 -0
733 1160 0
734 1160 0
735 1160 0
736 1160 0
737 1160 0
738 1160 0
739 1160 0
740 1160 0
741 1160 0
742 1160 0
743 1160 0
744 1160 0
1433 1160 0.14426661227624929
1434 1160 0.019112219351713613
1435 1160 -0.3383340256558125
1436 1160 -0.26332006554483989
721 1161 -0
722 1161 -0
723 1161 -0
724 1161 -0
725 1161 -0
726 1161 -0
727 1161 -0
728 1161 -0
729 1161 -0.99509004789631994
730 1161 -0
731 1161 -0
732 1161 -0
733 1161 0
734 1161 0
735 1161 0
736 1161 0
737 1161 0
738 1161 0
739 1161 0
740 1161 0
741 1161 0
742 1161 0
743 1161 0
744 1161 0
1433 1161 -0.11462509557936003
1434 1161 -0.065598224589830417
1435 1161 0.12045547271290091
1436 1161 0.066735657880519217
721 1162 -0
722 1162 -0
723 1162 -0
724 1162 -0
725 1162 -0
726 1162 -0
727 1162 -0
728 1162 -0
729 1162 -0
730 1162 -0.99509004789631994
731 1162 -0
732 1162 -0
733 1162 0
734 1162 0
735 1162 0
736 1162 0
737 1162 0
738 1162 0
739 1162 0
740 1162 0
741 1162 0
742 1162 0
743 1162 0
744 1162 0
1433 1162 0.1112726701807888
1434 1162 -0.18163442438886057
1435 1162 -0.24934842404473068
1436 1162 0.087619788974651794
721 1163 -0
722 1163 -0
723 1163 -0
724 1163 -0
725 1163 -0
726 1163 -0
727 1163 -0
728 1163 -0
729 1163 -0
730 1163 -0
731 1163 -0.99509004789631994
732 1163 -0
733 1163 0
734 1163 0
735 1163 0
736 1163 0
737 1163 0
738 1163 0
739 1163 0
740 1163 0
741 1163 0
742 1163 0
743 1163 0
744 1163 0
1433 1163 0.0048220099123521959
1434 1163 -0.09230703811323461
1435 1163 -0.22028815111069383
1436 1163 -0.062540089363958593
721 1164 -0
722 1164 -0
723 1164 -0
724 1164 -0
725 1164 -0
726 1164 -0
727 1164 -0
728 1164 -0
729 1164 -0
730 1164 -0
731 1164 -0
732 1164 -0.99509004789631994
733 1164 0
734 1164 0
735 1164 0
736 1164 0
737 1164 0
738 1164 0
739 1164 0
740 1164 0
741 1164 0
742 1164 0
743 1164 0
744 1164 0
1433 1164 0.22589481330245723
1434 1164 0.085512196920050021
1435 1164 -0.209328877595194
1436 1164 0.014853171089538656
721 1165 0
722 1165 0
723 1165 0
724 1165 0
725 1165 0
726 1165 0
727 1165 0
728 1165 0
729 1165 0
730 1165 0
731 1165 0
732 1165 0
733 1165 0.99509004789631994
734 1165 0
735 1165 0
736 1165 0
737 1165 0
738 1165 0
739 1165 0
740 1165 0
741 1165 0
742 1165 0
743 1165 0
744 1165 0
1433 1165 0
1434 1165 0
1435 1165 0
1436 1165 0
721 1166 0
722 1166 0
723 1166 0
724 1166 0
725 1166 0
726 1166 0
727 1166 0
728 1166 0
729 1166 0
730 1166 0
731 1166 0
732 1166 0
733 1166 0
734 1166 0.99509004789631994
735 1166 0
736 1166 0
737 1166 0
738 1166 0
739 1166 0
740 1166 0
741 1166 0
742 1166 0
743 1166 0
744 1166 0
1433 1166 0
1434 1166 0
1435 1166 0
1436 1166 0
721 1167 0
722 1167 0
723 1167 0
724 1167 0
725 1167 0
726 1167 0
727 1167 0
728 1167 0
729 1167 0
730 1167 0
731 1167 0
732 1167 0
733 1167 0
734 1167 0
735 1167 0.99509004789631994
736 1167 0
737 1167 0
738 1167 0
739 1167 0
740 1167 0
741 1167 0
742 1167 0
743 1167 0
744 1167 0
1433 1167 0
1434 1167 0
1435 1167 0
1436 1167 0
721 1168 0
722 1168 0
723 1168 0
724 1168 0
725 1168 0
726 1168 0
727 1168 0
728 1168 0
729 1168 0
730 1168 0
731 1168 0
732 1168 0
733 1168 0
734 1168 0
735 1168 0
736 1168 0.99509004789631994
737 1168 0
738 1168 0
739 1168 0
740 1168 0
741 1168 0
742 1168 0
743 1168 0
744 1168 0
1433 1168 0
1434 1168 0
1435 1168 0
1436 1168 0
721 1169 0
722 1169 0
723 1169 0
724 1169 0
725 1169 0
726 1169 0
727 1169 0
728 1169 0
729 1169 0
730 1169 0
731 1169 0
732 1169 0
733 1169 0
734 1169 0
735 1169 0
736 1169 0
737 1169 0.99509004789631994
738 1169 0
739 1169 0
740 1169 0
741 1169 0
742 1169 0
743 1169 0
744 1169 0
1433 1169 0
1434 1169 0
1435 1169 0
1436 1169 0
721 1170 0
722 1170 0
723 1170 0
724 1170 0
725 1170 0
726 1170 0
727 1170 0
728 1170 0
729 1170 0
730 1170 0
731 1170 0
732 1170 0
733 1170 0
734 1170 0
735 1170 0
736 1170 0
737 1170 0
738 1170 0.99509004789631994
739 1170 0
740 1170 0
741 1170 0
742 1170 0
743 1170 0
744 1170 0
1433 1170 0
1434 1170 0
1435 1170 0
1436 1170 0
721 1171 0
722 1171 0
723 1171 0
724 1171 0
725 1171 0
726 1171 0
727 1171 0
728 1171 0
729 1171 0
730 1171 0
731 1171 0
732 1171 0
733 1171 0
734 1171 0
735 1171 0
736 1171 0
737 1171 0
738 1171 0
739 1171 0.99509004789631994
740 1171 0
741 1171 0
742 1171 0
743 1171 0
744 1171 0
1433 1171 0
1434 1171 0
1435 1171 0
1436 1171 0
721 1172 0
722 1172 0
723 1172 0
724 1172 0
725 1172 0
726 1172 0
727 1172 0
728 1172 0
729 1172 0
730 1172 0
731 1172 0
732 1172 0
733 1172 0
734 1172 0
735 1172 0
736 1172 0
737 1172 0
738 1172 0
739 1172 0
740 1172 0.99509004789631994
741 1172 0
742 1172 0
743 1172 0
744 1172 0
1433 1172 0
1434 1172 0
1435 1172 0
1436 1172 0
721 1173 0
722 1173 0
723 1173 0
724 1173 0
725 1173 0
726 1173 0
727 1173 0
728 1173 0
729 1173 0
730 1173 0
731 1173 0
732 1173 0
733 1173 0
734 1173 0
735 1173 0
736 1173 0
737 1173 0
738 1173 0
739 1173 0
740 1173 0
741 1173 0.99509004789631994
742 1173 0
743 1173 0
744 1173 0
1433 1173 0
1434 1173 0
1435 1173 0
1436 1173 0
721 1174 0
722 1174 0
723 1174 0
724 1174 0
725 1174 0
726 1174 0
727 1174 0
728 1174 0
729 1174 0
730 1174 0
731 1174 0
732 1174 0
733 1174 0
734 1174 0
735 1174 0
736 1174 0
737 1174 0
738 1174 0
739 1174 0
740 1174 0
741 1174 0
742 1174 0.99509004789631994
743 1174 0
744 1174 0
1433 1174 0
1434 1174 0
1435 1174 0
1436 1174 0
721 1175 0
722 1175 0
723 1175 0
724 1175 0
725 1175 0
726 1175 0
727 1175 0
728 1175 0
729 1175 0
730 1175 0
731 1175 0
732 1175 0
733 1175 0
734 1175 0
735 1175 0
736 1175 0
737 1175 0
738 1175 0
739 1175 0
740 1175 0
741 1175 0
742 1175 0
743 1175 0.99509004789631994
744 1175 0
1433 1175 0
1434 1175 0
1435 1175 0
1436 1175 0
721 1176 0
722 1176 0
723 1176 0
724 1176 0
725 1176 0
726 1176 0
727 1176 0
728 1176 0
729 1176 0
730 1176 0
731 1176 0
732 1176 0
733 1176 0
734 1176 0
735 1176 0
736 1176 0
737 1176 0
738 1176 0
739 1176 0
740 1176 0
741 1176 0
742 1176 0
743 1176 0
744 1176 0.99509004789631994
1433 1176 0
1434 1176 0
1435 1176 0
1436 1176 0
1429 1177 0
1430 1177 0
1431 1177 0
1432 1177 0
1653 1177 0
1429 1178 0.99878751991636638
1430 1178 0
1431 1178 0
1432 1178 0
1653 1178 0
1429 1179 0
1430 1179 0.99886974093913028
1431 1179 0
1432 1179 0
1653 1179 0
1429 1180 0
1430 1180 0
1431 1180 0.99859691322799182
1432 1180 0
1653 1180 0
1429 1181 0
1430 1181 0
1431 1181 0
1432 1181 0.99879118685427859
1653 1181 0
1429 1182 0
1430 1182 0
1431 1182 0
1432 1182 0
1653 1182 1
709 1183 -0.99509004789631994
710 1183 -0
711 1183 -0
712 1183 -0
713 1183 -0
714 1183 -0
715 1183 -0
716 1183 -0
717 1183 -0
718 1183 -0
719 1183 -0
720 1183 -0
721 1183 0
722 1183 0
723 1183 0
724 1183 0
725 1183 0
726 1183 0
727 1183 0
728 1183 0
729 1183 0
730 1183 0
731 1183 0
732 1183 0
1429 1183 -0.1803189598547551
1430 1183 -0.25584631152049064
1431 1183 -0.074765084896359371
1432 1183 -0.06244980534901011
709 1184 -0
710 1184 -0.99509004789631994
711 1184 -0
712 1184 -0
713 1184 -0
714 1184 -0
715 1184 -0
716 1184 -0
717 1184 -0
718 1184 -0
719 1184 -0
720 1184 -0
721 1184 0
722 1184 0
723 1184 0
724 1184 0
725 1184 0
726 1184 0
727 1184 0
728 1184 0
729 1184 0
730 1184 0
731 1184 0
732 1184 0
1429 1184 0.10820261428783474
1430 1184 0.080196783561304039
1431 1184 -0.016866001348705428
1432 1184 -0.17094248486675911
709 1185 -0
710 1185 -0
711 1185 -0.99509004789631994
712 1185 -0
713 1185 -0
714 1185 -0
715 1185 -0
716 1185 -0
717 1185 -0
718 1185 -0
719 1185 -0
720 1185 -0
721 1185 0
722 1185 0
723 1185 0
724 1185 0
725 1185 0
726 1185 0
727 1185 0
728 1185 0
729 1185 0
730 1185 0
731 1185 0
732 1185 0
1429 1185 0.021296203412182201
1430 1185 0.06379387941368389
1431 1185 0.33227429440027084
1432 1185 0.038055274961526345
709 1186 -0
710 1186 -0
711 1186 -0
712 1186 -0.99509004789631994
713 1186 -0
714 1186 -0
715 1186 -0
716 1186 -0
717 1186 -0
718 1186 -0
719 1186 -0
720 1186 -0
721 1186 0
722 1186 0
723 1186 0
724 1186 0
725 1186 0
726 1186 0
727 1186 0
728 1186 0
729 1186 0
730 1186 0
731 1186 0
732 1186 0
1429 1186 0.19846746771042395
1430 1186 0.13291349456905685
1431 1186 -0.11659569025066187
1432 1186 0.1709989853023412
709 1187 -0
710 1187 -0
711 1187 -0
712 1187 -0
713 1187 -0.99509004789631994
714 1187 -0
715 1187 -0
716 1187 -0
717 1187 -0
718 1187 -0
719 1187 -0
720 1187 -0
721 1187 0
722 1187 0
723 1187 0
724 1187 0
725 1187 0
726 1187 0
727 1187 0
728 1187 0
729 1187 0
730 1187 0
731 1187 0
732 1187 0
1429 1187 0.06406726430169403
1430 1187 0.0077975121873435499
1431 1187 -0.012888481757033089
1432 1187 0.1821584263174176
709 1188 -0
710 1188 -0
711 1188 -0
712 1188 -0
713 1188 -0
714 1188 -0.99509004789631994
715 1188 -0
716 1188 -0
717 1188 -0
718 1188 -0
719 1188 -0
720 1188 -0
721 1188 0
722 1188 0
723 1188 0
724 1188 0
725 1188 0
726 1188 0
727 1188 0
728 1188 0
729 1188 0
730 1188 0
731 1188 0
732 1188 0
1429 1188 0.14930176975937659
1430 1188 -0.1220518999462523
1431 1188 -0.21437482240798272
1432 1188 -0.27728111366749703
709 1189 -0
710 1189 -0
711 1189 -0
712 1189 -0
713 1189 -0
714 1189 -0
715 1189 -0.99509004789631994
716 1189 -0
717 1189 -0
718 1189 -0
719 1189 -0
720 1189 -0
721 1189 0
722 1189 0
723 1189 0
724 1189 0
725 1189 0
726 1189 0
727 1189 0
728 1189 0
729 1189 0
730 1189 0
731 1189 0
732 1189 0
1429 1189 -0.27832449100114248
1430 1189 -0.023030066571549251
1431 1189 0.085999904285044407
1432 1189 0.14042558666593874
709 1190 -0
710 1190 -0
711 1190 -0
712 1190 -0
713 1190 -0
714 1190 -0
715 1190 -0
716 1190 -0.99509004789631994
717 1190 -0
718 1190 -0
719 1190 -0
720 1190 -0
721 1190 0
722 1190 0
723 1190 0
724 1190 0
725 1190 0
726 1190 0
727 1190 0
728 1190 0
729 1190 0
730 1190 0
731 1190 0
732 1190 0
1429 1190 0.14426661227624929
1430 1190 0.019112219351713613
1431 1190 -0.3383340256558125
1432 1190 -0.26332006554483989
709 1191 -0
710 1191 -0
711 1191 -0
712 1191 -0
713 1191 -0
714 1191 -0
715 1191 -0
716 1191 -0
717 1191 -0.99509004789631994
718 1191 -0
719 1191 -0
720 1191 -0
721 1191 0
722 1191 0
723 1191 0
724 1191 0
725 1191 0
726 1191 0
727 1191 0
728 1191 0
729 1191 0
730 1191 0
731 1191 0
732 1191 0
1429 1191 -0.11462509557936003
1430 1191 -0.065598224589830417
1431 1191 0.12045547271290091
1432 1191 0.066735657880519217
709 1192 -0
710 1192 -0
711 1192 -0
712 1192 -0
713 1192 -0
714 1192 -0
715 1192 -0
716 1192 -0
717 1192 -0
718 1192 -0.99509004789631994
719 1192 -0
720 1192 -0
721 1192 0
722 1192 0
723 1192 0
724 1192 0
725 1192 0
726 1192 0
727 1192 0
728 1192 0
729 1192 0
730 1192 0
731 1192 0
732 1192 0
1429 1192 0.1112726701807888
1430 1192 -0.18163442438886057
1431 1192 -0.24934842404473068
1432 1192 0.087619788974651794
709 1193 -0
710 1193 -0
711 1193 -0
712 1193 -0
713 1193 -0
714 1193 -0
715 1193 -0
716 1193 -0
717 1193 -0
718 1193 -0
719 1193 -0.99509004789631994
720 1193 -0
721 1193 0
722 1193 0
723 1193 0
724 1193 0
725 1193 0
726 1193 0
727 1193 0
728 1193 0
729 1193 0
730 1193 0
731 1193 0
732 1193 0
1429 1193 0.0048220099123521959
1430 1193 -0.09230703811323461
1431 1193 -0.22028815111069383
1432 1193 -0.062540089363958593
709 1194 -0
710 1194 -0
711 1194 -0
712 1194 -0
713 1194 -0
714 1194 -0
715 1194 -0
716 1194 -0
717 1194 -0
718 1194 -0
719 1194 -0
720 1194 -0.99509004789631994
721 1194 0
722 1194 0
723 1194 0
724 1194 0
725 1194 0
726 1194 0
727 1194 0
728 1194 0
729 1194 0
730 1194 0
731 1194 0
732 1194 0
1429 1194 0.22589481330245723
1430 1194 0.085512196920050021
1431 1194 -0.209328877595194
1432 1194 0.014853171089538656
709 1195 0
710 1195 0
711 1195 0
712 1195 0
713 1195 0
714 1195 0
715 1195 0
716 1195 0
717 1195 0
718 1195 0
719 1195 0
720 1195 0
721 1195 0.99509004789631994
722 1195 0
723 1195 0
724 1195 0
725 1195 0
726 1195 0
727 1195 0
728 1195 0
729 1195 0
730 1195 0
731 1195 0
732 1195 0
1429 1195 0
1430 1195 0
1431 1195 0
1432 1195 0
709 1196 0
710 1196 0
711 1196 0
712 1196 0
713 1196 0
714 1196 0
715 1196 0
716 1196 0
717 1196 0
718 1196 0
719 1196 0
720 1196 0
721 1196 0
722 1196 0.99509004789631994
723 1196 0
724 1196 0
725 1196 0
726 1196 0
727 1196 0
728 1196 0
729 1196 0
730 1196 0
731 1196 0
732 1196 0
1429 1196 0
1430 1196 0
1431 1196 0
1432 1196 0
709 1197 0
710 1197 0
711 1197 0
712 1197 0
713 1197 0
714 1197 0
715 1197 0
716 1197 0
717 1197 0
718 1197 0
719 1197 0
720 1197 0
721 1197 0
722 1197 0
723 1197 0.99509004789631994
724 1197 0
725 1197 0
726 1197 0
727 1197 0
728 1197 0
729 1197 0
730 1197 0
731 1197 0
732 1197 0
1429 1197 0
1430 1197 0
1431 1197 0
1432 1197 0
709 1198 0
710 1198 0
711 1198 0
712 1198 0
713 1198 0
714 1198 0
715 1198 0
716 1198 0
717 1198 0
718 1198 0
719 1198 0
720 1198 0
721 1198 0
722 1198 0
723 1198 0
724 1198 0.99509004789631994
725 1198 0
726 1198 0
727 1198 0
728 1198 0
729 1198 0
730 1198 0
731 1198 0
732 1198 0
1429 1198 0
1430 1198 0
1431 1198 0
1432 1198 0
709 1199 0
710 1199 0
711 1199 0
712 1199 0
713 1199 0
714 1199 0
715 1199 0
716 1199 0
717 1199 0
718 1199 0
719 1199 0
720 1199 0
721 1199 0
722 1199 0
723 1199 0
724 1199 0
725 1199 0.99509004789631994
726 1199 0
727 1199 0
728 1199 0
729 1199 0
730 1199 0
731 1199 0
732 1199 0
1429 1199 0
1430 1199 0
1431 1199 0
1432 1199 0
709 1200 0
710 1200 0
711 1200 0
712 1200 0
713 1200 0
714 1200 0
715 1200 0
716 1200 0
717 1200 0
718 1200 0
719 1200 0
720 1200 0
721 1200 0
722 1200 0
723 1200 0
724 1200 0
725 1200 0
726 1200 0.99509004789631994
727 1200 0
728 1200 0
729 1200 0
730 1200 0
731 1200 0
732 1200 0
1429 1200 0
1430 1200 0
1431 1200 0
1432 1200 0
709 1201 0
710 1201 0
711 1201 0
712 1201 0
713 1201 0
714 1201 0
715 1201 0
716 1201 0
717 1201 0
718 1201 0
719 1201 0
720 1201 0
721 1201 0
722 1201 0
723 1201 0
724 1201 0
725 1201 0
726 1201 0
727 1201 0.99509004789631994
728 1201 0
729 1201 0
730 1201 0
731 1201 0
732 1201 0
1429 1201 0
1430 1201 0
1431 1201 0
1432 1201 0
709 1202 0
710 1202 0
711 1202 0
712 1202 0
713 1202 0
714 1202 0
715 1202 0
716 1202 0
717 1202 0
718 1202 0
719 1202 0
720 1202 0
721 1202 0
722 1202 0
723 1202 0
724 1202 0
725 1202 0
726 1202 0
727 1202 0
728 1202 0.99509004789631994
729 1202 0
730 1202 0
731 1202 0
732 1202 0
1429 1202 0
1430 1202 0
1431 1202 0
1432 1202 0
709 1203 0
710 1203 0
711 1203 0
712 1203 0
713 1203 0
714 1203 0
715 1203 0
716 1203 0
717 1203 0
718 1203 0
719 1203 0
720 1203 0
721 1203 0
722 1203 0
723 1203 0
724 1203 0
725 1203 0
726 1203 0
727 1203 0
728 1203 0
729 1203 0.99509004789631994
730 1203 0
731 1203 0
732 1203 0
1429 1203 0
1430 1203 0
1431 1203 0
1432 1203 0
709 1204 0
710 1204 0
711 1204 0
712 1204 0
713 1204 0
714 1204 0
715 1204 0
716 1204 0
717 1204 0
718 1204 0
719 1204 0
720 1204 0
721 1204 0
722 1204 0
723 1204 0
724 1204 0
725 1204 0
726 1204 0
727 1204 0
728 1204 0
729 1204 0
730 1204 0.99509004789631994
731 1204 0
732 1204 0
1429 1204 0
1430 1204 0
1431 1204 0
1432 1204 0
709 1205 0
710 1205 0
711 1205 0
712 1205 0
713 1205 0
714 1205 0
715 1205 0
716 1205 0
717 1205 0
718 1205 0
719 1205 0
720 1205 0
721 1205 0
722 1205 0
723 1205 0
724 1205 0
725 1205 0
726 1205 0
727 1205 0
728 1205 0
729 1205 0
730 1205 0
731 1205 0.99509004789631994
732 1205 0
1429 1205 0
1430 1205 0
1431 1205 0
1432 1205 0
709 1206 0
710 1206 0
711 1206 0
712 1206 0
713 1206 0
714 1206 0
715 1206 0
716 1206 0
717 1206 0
718 1206 0
719 1206 0
720 1206 0
721 1206 0
722 1206 0
723 1206 0
724 1206 0
725 1206 0
726 1206 0
727 1206 0
728 1206 0
729 1206 0
730 1206 0
731 1206 0
732 1206 0.99509004789631994
1429 1206 0
1430 1206 0
1431 1206 0
1432 1206 0
1425 1207 0
1426 1207 0
1427 1207 0
1428 1207 0
1652 1207 0
1425 1208 0.99878751991636638
1426 1208 0
1427 1208 0
1428 1208 0
1652 1208 0
1425 1209 0
1426 1209 0.99886974093913028
1427 1209 0
1428 1209 0
1652 1209 0
1425 1210 0
1426 1210 0
1427 1210 0.99859691322799182
1428 1210 0
1652 1210 0
1425 1211 0
1426 1211 0
1427 1211 0
1428 1211 0.99879118685427859
1652 1211 0
1425 1212 0
1426 1212 0
1427 1212 0
1428 1212 0
1652 1212 1
697 1213 -0.99509004789631994
698 1213 -0
699 1213 -0
700 1213 -0
701 1213 -0
702 1213 -0
703 1213 -0
704 1213 -0
705 1213 -0
706 1213 -0
707 1213 -0
708 1213 -0
709 1213 0
710 1213 0
711 1213 0
712 1213 0
713 1213 0
714 1213 0
715 1213 0
716 1213 0
717 1213 0
718 1213 0
719 1213 0
720 1213 0
1425 1213 -0.1803189598547551
1426 1213 -0.25584631152049064
1427 1213 -0.074765084896359371
1428 1213 -0.06244980534901011
697 1214 -0
698 1214 -0.99509004789631994
699 1214 -0
700 1214 -0
701 1214 -0
702 1214 -0
703 1214 -0
704 1214 -0
705 1214 -0
706 1214 -0
707 1214 -0
708 1214 -0
709 1214 0
710 1214 0
711 1214 0
712 1214 0
713 1214 0
714 1214 0
715 1214 0
716 1214 0
717 1214 0
718 1214 0
719 1214 0
720 1214 0
1425 1214 0.10820261428783474
1426 1214 0.080196783561304039
1427 1214 -0.016866001348705428
1428 1214 -0.17094248486675911
697 1215 -0
698 1215 -0
699 1215 -0.99509004789631994
700 1215 -0
701 1215 -0
702 1215 -0
703 1215 -0
704 1215 -0
705 1215 -0
706 1215 -0
707 1215 -0
708 1215 -0
709 1215 0
710 1215 0
711 1215 0
712 1215 0
713 1215 0
714 1215 0
715 1215 0
716 1215 0
717 1215 0
718 1215 0
719 1215 0
720 1215 0
1425 1215 0.021296203412182201
1426 1215 0.06379387941368389
1427 1215 0.33227429440027084
1428 1215 0.038055274961526345
697 1216 -0
698 1216 -0
699 1216 -0
700 1216 -0.99509004789631994
701 1216 -0
702 1216 -0
703 1216 -0
704 1216 -0
705 1216 -0
706 1216 -0
707 1216 -0
708 1216 -0
709 1216 0
710 1216 0
711 1216 0
712 1216 0
713 1216 0
714 1216 0
715 1216 0
716 1216 0
717 1216 0
718 1216 0
719 1216 0
720 1216 0
1425 1216 0.19846746771042395
1426 1216 0.13291349456905685
1427 1216 -0.11659569025066187
1428 1216 0.1709989853023412
697 1217 -0
698 1217 -0
699 1217 -0
700 1217 -0
701 1217 -0.99509004789631994
702 1217 -0
703 1217 -0
704 1217 -0
705 1217 -0
706 1217 -0
707 1217 -0
708 1217 -0
709 1217 0
710 1217 0
711 1217 0
712 1217 0
713 1217 0
714 1217 0
715 1217 0
716 1217 0
717 1217 0
718 1217 0
719 1217 0
720 1217 0
1425 1217 0.06406726430169403
1426 1217 0.0077975121873435499
1427 1217 -0.012888481757033089
1428 1217 0.1821584263174176
697 1218 -0
698 1218 -0
699 1218 -0
700 1218 -0
701 1218 -0
702 1218 -0.99509004789631994
703 1218 -0
704 1218 -0
705 1218 -0
706 1218 -0
707 1218 -0
708 1218 -0
709 1218 0
710 1218 0
711 1218 0
712 1218 0
713 1218 0
714 1218 0
715 1218 0
716 1218 0
717 1218 0
718 1218 0
719 1218 0
720 1218 0
1425 1218 0.14930176975937659
1426 1218 -0.1220518999462523
1427 1218 -0.21437482240798272
1428 1218 -0.27728111366749703
697 1219 -0
698 1219 -0
699 1219 -0
700 1219 -0
701 1219 -0
702 1219 -0
703 1219 -0.99509004789631994
704 1219 -0
705 1219 -0
706 1219 -0
707 1219 -0
708 1219 -0
709 1219 0
710 1219 0
711 1219 0
712 1219 0
713 1219 0
714 1219 0
715 1219 0
716 1219 0
717 1219 0
718 1219 0
719 1219 0
720 1219 0
1425 1219 -0.27832449100114248
1426 1219 -0.023030066571549251
1427 1219 0.085999904285044407
1428 1219 0.14042558666593874
697 1220 -0
698 1220 -0
699 1220 -0
700 1220 -0
701 1220 -0
702 1220 -0
703 1220 -0
704 1220 -0.99509004789631994
705 1220 -0
706 1220 -0
707 1220 -0
708 1220 -0
709 1220 0
710 1220 0
711 1220 0
712 1220 0
713 1220 0
714 1220 0
715 1220 0
716 1220 0
717 1220 0
718 1220 0
719 1220 0
720 1220 0
1425 1220 0.14426661227624929
1426 1220 0.019112219351713613
1427 1220 -0.3383340256558125
1428 1220 -0.26332006554483989
697 1221 -0
698 1221 -0
699 1221 -0
700 1221 -0
701 1221 -0
702 1221 -0
703 1221 -0
704 1221 -0
705 1221 -0.99509004789631994
706 1221 -0
707 1221 -0
708 1221 -0
709 1221 0
710 1221 0
711 1221 0
712 1221 0
713 1221 0
714 1221 0
715 1221 0
716 1221 0
717 1221 0
718 1221 0
719 1221 0
720 1221 0
1425 1221 -0.11462509557936003
1426 1221 -0.065598224589830417
1427 1221 0.12045547271290091
1428 1221 0.066735657880519217
697 1222 -0
698 1222 -0
699 1222 -0
700 1222 -0
701 1222 -0
702 1222 -0
703 1222 -0
704 1222 -0
705 1222 -0
706 1222 -0.99509004789631994
707 1222 -0
708 1222 -0
709 1222 0
710 1222 0
711 1222 0
712 1222 0
713 1222 0
714 1222 0
715 1222 0
716 1222 0
717 1222 0
718 1222 0
719 1222 0
720 1222 0
1425 1222 0.1112726701807888
1426 1222 -0.18163442438886057
1427 1222 -0.24934842404473068
1428 1222 0.087619788974651794
697 1223 -0
698 1223 -0
699 1223 -0
700 1223 -0
701 1223 -0
702 1223 -0
703 1223 -0
704 1223 -0
705 1223 -0
706 1223 -0
707 1223 -0.99509004789631994
708 1223 -0
709 1223 0
710 1223 0
711 1223 0
712 1223 0
713 1223 0
714 1223 0
715 1223 0
716 1223 0
717 1223 0
718 1223 0
719 1223 0
720 1223 0
1425 1223 0.0048220099123521959
1426 1223 -0.09230703811323461
1427 1223 -0.22028815111069383
1428 1223 -0.062540089363958593
697 1224 -0
698 1224 -0
699 1224 -0
700 1224 -0
701 1224 -0
702 1224 -0
703 1224 -0
704 1224 -0
705 1224 -0
706 1224 -0
707 1224 -0
708 1224 -0.99509004789631994
709 1224 0
710 1224 0
711 1224 0
712 1224 0
713 1224 0
714 1224 0
715 1224 0
716 1224 0
717 1224 0
718 1224 0
719 1224 0
720 1224 0
1425 1224 0.22589481330245723
1426 1224 0.085512196920050021
1427 1224 -0.209328877595194
1428 1224 0.014853171089538656
697 1225 0
698 1225 0
699 1225 0
700 1225 0
701 1225 0
702 1225 0
703 1225 0
704 1225 0
705 1225 0
706 1225 0
707 1225 0
708 1225 0
709 1225 0.99509004789631994
710 1225 0
711 1225 0
712 1225 0
713 1225 0
714 1225 0
715 1225 0
716 1225 0
717 1225 0
718 1225 0
719 1225 0
720 1225 0
1425 1225 0
1426 1225 0
1427 1225 0
1428 1225 0
697 1226 0
698 1226 0
699 1226 0
700 1226 0
701 1226 0
702 1226 0
703 1226 0
704 1226 0
705 1226 0
706 1226 0
707 1226 0
708 1226 0
709 1226 0
710 1226 0.99509004789631994
711 1226 0
712 1226 0
713 1226 0
714 1226 0
715 1226 0
716 1226 0
717 1226 0
718 1226 0
719 1226 0
720 1226 0
1425 1226 0
1426 1226 0
1427 1226 0
1428 1226 0
697 1227 0
698 1227 0
699 1227 0
700 1227 0
701 1227 0
702 1227 0
703 1227 0
704 1227 0
705 1227 0
706 1227 0
707 1227 0
708 1227 0
709 1227 0
710 1227 0
711 1227 0.99509004789631994
712 1227 0
713 1227 0
714 1227 0
715 1227 0
716 1227 0
717 1227 0
718 1227 0
719 1227 0
720 1227 0
1425 1227 0
1426 1227 0
1427 1227 0
1428 1227 0
697 1228 0
698 1228 0
699 1228 0
700 1228 0
701 1228 0
702 1228 0
703 1228 0
704 1228 0
705 1228 0
706 1228 0
707 1228 0
708 1228 0
709 1228 0
710 1228 0
711 1228 0
712 1228 0.99509004789631994
713 1228 0
714 1228 0
715 1228 0
716 1228 0
717 1228 0
718 1228 0
719 1228 0
720 1228 0
1425 1228 0
1426 1228 0
1427 1228 0
1428 1228 0
697 1229 0
698 1229 0
699 1229 0
700 1229 0
701 1229 0
702 1229 0
703 1229 0
704 1229 0
705 1229 0
706 1229 0
707 1229 0
708 1229 0
709 1229 0
710 1229 0
711 1229 0
712 1229 0
713 1229 0.99509004789631994
714 1229 0
715 1229 0
716 1229 0
717 1229 0
718 1229 0
719 1229 0
720 1229 0
1425 1229 0
1426 1229 0
1427 1229 0
1428 1229 0
697 1230 0
698 1230 0
699 1230 0
700 1230 0
701 1230 0
702 1230 0
703 1230 0
704 1230 0
705 1230 0
706 1230 0
707 1230 0
708 1230 0
709 1230 0
710 1230 0
711 1230 0
712 1230 0
713 1230 0
714 1230 0.99509004789631994
715 1230 0
716 1230 0
717 1230 0
718 1230 0
719 1230 0
720 1230 0
1425 1230 0
1426 1230 0
1427 1230 0
1428 1230 0
697 1231 0
698 1231 0
699 1231 0
700 1231 0
701 1231 0
702 1231 0
703 1231 0
704 1231 0
705 1231 0
706 1231 0
707 1231 0
708 1231 0
709 1231 0
710 1231 0
711 1231 0
712 1231 0
713 1231 0
714 1231 0
715 1231 0.99509004789631994
716 1231 0
717 1231 0
718 1231 0
719 1231 0
720 1231 0
1425 1231 0
1426 1231 0
1427 1231 0
1428 1231 0
697 1232 0
698 1232 0
699 1232 0
700 1232 0
701 1232 0
702 1232 0
703 1232 0
704 1232 0
705 1232 0
706 1232 0
707 1232 0
708 1232 0
709 1232 0
710 1232 0
711 1232 0
712 1232 0
713 1232 0
714 1232 0
715 1232 0
716 1232 0.99509004789631994
717 1232 0
718 1232 0
719 1232 0
720 1232 0
1425 1232 0
1426 1232 0
1427 1232 0
1428 1232 0
697 1233 0
698 1233 0
699 1233 0
700 1233 0
701 1233 0
702 1233 0
703 1233 0
704 1233 0
705 1233 0
706 1233 0
707 1233 0
708 1233 0
709 1233 0
710 1233 0
711 1233 0
712 1233 0
713 1233 0
714 1233 0
715 1233 0
716 1233 0
717 1233 0.99509004789631994
718 1233 0
719 1233 0
720 1233 0
1425 1233 0
1426 1233 0
1427 1233 0
1428 1233 0
697 1234 0
698 1234 0
699 1234 0
700 1234 0
701 1234 0
702 1234 0
703 1234 0
704 1234 0
705 1234 0
706 1234 0
707 1234 0
708 1234 0
709 1234 0
710 1234 0
711 1234 0
712 1234 0
713 1234 0
714 1234 0
715 1234 0
716 1234 0
717 1234 0
718 1234 0.99509004789631994
719 1234 0
720 1234 0
1425 1234 0
1426 1234 0
1427 1234 0
1428 1234 0
697 1235 0
698 1235 0
699 1235 0
700 1235 0
701 1235 0
702 1235 0
703 1235 0
704 1235 0
705 1235 0
706 1235 0
707 1235 0
708 1235 0
709 1235 0
710 1235 0
711 1235 0
712 1235 0
713 1235 0
714 1235 0
715 1235 0
716 1235 0
717 1235 0
718 1235 0
719 1235 0.99509004789631994
720 1235 0
1425 1235 0
1426 1235 0
1427 1235 0
1428 1235 0
697 1236 0
698 1236 0
699 1236 0
700 1236 0
701 1236 0
702 1236 0
703 1236 0
704 1236 0
705 1236 0
706 1236 0
707 1236 0
708 1236 0
709 1236 0
710 1236 0
711 1236 0
712 1236 0
713 1236 0
714 1236 0
715 1236 0
716 1236 0
717 1236 0
718 1236 0
719 1236 0
720 1236 0.99509004789631994
1425 1236 0
1426 1236 0
1427 1236 0
1428 1236 0
1421 1237 0
1422 1237 0
1423 1237 0
1424 1237 0
1651 1237 0
1421 1238 0.99878751991636638
1422 1238 0
1423 1238 0
1424 1238 0
1651 1238 0
1421 1239 0
1422 1239 0.99886974093913028
1423 1239 0
1424 1239 0
1651 1239 0
1421 1240 0
1422 1240 0
1423 1240 0.99859691322799182
1424 1240 0
1651 1240 0
1421 1241 0
1422 1241 0
1423 1241 0
1424 1241 0.99879118685427859
1651 1241 0
1421 1242 0
1422 1242 0
1423 1242 0
1424 1242 0
1651 1242 1
685 1243 -0.99509004789631994
686 1243 -0
687 1243 -0
688 1243 -0
689 1243 -0
690 1243 -0
691 1243 -0
692 1243 -0
693 1243 -0
694 1243 -0
695 1243 -0
696 1243 -0
697 1243 0
698 1243 0
699 1243 0
700 1243 0
701 1243 0
702 1243 0
703 1243 0
704 1243 0
705 1243 0
706 1243 0
707 1243 0
708 1243 0
1421 1243 -0.1803189598547551
1422 1243 -0.25584631152049064
1423 1243 -0.074765084896359371
1424 1243 -0.06244980534901011
685 1244 -0
686 1244 -0.99509004789631994
687 1244 -0
688 1244 -0
689 1244 -0
690 1244 -0
691 1244 -0
692 1244 -0
693 1244 -0
694 1244 -0
695 1244 -0
696 1244 -0
697 1244 0
698 1244 0
699 1244 0
700 1244 0
701 1244 0
702 1244 0
703 1244 0
704 1244 0
705 1244 0
706 1244 0
707 1244 0
708 1244 0
1421 1244 0.10820261428783474
1422 1244 0.080196783561304039
1423 1244 -0.016866001348705428
1424 1244 -0.17094248486675911
685 1245 -0
686 1245 -0
687 1245 -0.99509004789631994
688 1245 -0
689 1245 -0
690 1245 -0
691 1245 -0
692 1245 -0
693 1245 -0
694 1245 -0
695 1245 -0
696 1245 -0
697 1245 0
698 1245 0
699 1245 0
700 1245 0
701 1245 0
702 1245 0
703 1245 0
704 1245 0
705 1245 0
706 1245 0
707 1245 0
708 1245 0
1421 1245 0.021296203412182201
1422 1245 0.06379387941368389
1423 1245 0.33227429440027084
1424 1245 0.038055274961526345
685 1246 -0
686 1246 -0
687 1246 -0
688 1246 -0.99509004789631994
689 1246 -0
690 1246 -0
691 1246 -0
692 1246 -0
693 1246 -0
694 1246 -0
695 1246 -0
696 1246 -0
697 1246 0
698 1246 0
699 1246 0
700 1246 0
701 1246 0
702 1246 0
703 1246 0
704 1246 0
705 1246 0
706 1246 0
707 1246 0
708 1246 0
1421 1246 0.19846746771042395
1422 1246 0.13291349456905685
1423 1246 -0.11659569025066187
1424 1246 0.1709989853023412
685 1247 -0
686 1247 -0
687 1247 -0
688 1247 -0
689 1247 -0.99509004789631994
690 1247 -0
691 1247 -0
692 1247 -0
693 1247 -0
694 1247 -0
695 1247 -0
696 1247 -0
697 1247 0
698 1247 0
699 1247 0
700 1247 0
701 1247 0
702 1247 0
703 1247 0
704 1247 0
705 1247 0
706 1247 0
707 1247 0
708 1247 0
1421 1247 0.06406726430169403
1422 1247 0.0077975121873435499
1423 1247 -0.012888481757033089
1424 1247 0.1821584263174176
685 1248 -0
686 1248 -0
687 1248 -0
688 1248 -0
689 1248 -0
690 1248 -0.99509004789631994
691 1248 -0
692 1248 -0
693 1248 -0
694 1248 -0
695 1248 -0
696 1248 -0
697 1248 0
698 1248 0
699 1248 0
700 1248 0
701 1248 0
702 1248 0
703 1248 0
704 1248 0
705 1248 0
706 1248 0
707 1248 0
708 1248 0
1421 1248 0.14930176975937659
1422 1248 -0.1220518999462523
1423 1248 -0.21437482240798272
1424 1248 -0.27728111366749703
685 1249 -0
686 1249 -0
687 1249 -0
688 1249 -0
689 1249 -0
690 1249 -0
691 1249 -0.99509004789631994
692 1249 -0
693 1249 -0
694 1249 -0
695 1249 -0
696 1249 -0
697 1249 0
698 1249 0
699 1249 0
700 1249 0
701 1249 0
702 1249 0
703 1249 0
704 1249 0
705 1249 0
706 1249 0
707 1249 0
708 1249 0
1421 1249 -0.27832449100114248
1422 1249 -0.023030066571549251
1423 1249 0.085999904285044407
1424 1249 0.14042558666593874
685 1250 -0
686 1250 -0
687 1250 -0
688 1250 -0
689 1250 -0
690 1250 -0
691 1250 -0
692 1250 -0.99509004789631994
693 1250 -0
694 1250 -0
695 1250 -0
696 1250 -0
697 1250 0
698 1250 0
699 1250 0
700 1250 0
701 1250 0
702 1250 0
703 1250 0
704 1250 0
705 1250 0
706 1250 0
707 1250 0
708 1250 0
1421 1250 0.14426661227624929
1422 1250 0.019112219351713613
1423 1250 -0.3383340256558125
1424 1250 -0.26332006554483989
685 1251 -0
686 1251 -0
687 1251 -0
688 1251 -0
689 1251 -0
690 1251 -0
691 1251 -0
692 1251 -0
693 1251 -0.99509004789631994
694 1251 -0
695 1251 -0
696 1251 -0
697 1251 0
698 1251 0
699 1251 0
700 1251 0
701 1251 0
702 1251 0
703 1251 0
704 1251 0
705 1251 0
706 1251 0
707 1251 0
708 1251 0
1421 1251 -0.11462509557936003
1422 1251 -0.065598224589830417
1423 1251 0.12045547271290091
1424 1251 0.066735657880519217
685 1252 -0
686 1252 -0
687 1252 -0
688 1252 -0
689 1252 -0
690 1252 -0
691 1252 -0
692 1252 -0
693 1252 -0
694 1252 -0.99509004789631994
695 1252 -0
696 1252 -0
697 1252 0
698 1252 0
699 1252 0
700 1252 0
701 1252 0
702 1252 0
703 1252 0
704 1252 0
705 1252 0
706 1252 0
707 1252 0
708 1252 0
1421 1252 0.1112726701807888
1422 1252 -0.18163442438886057
1423 1252 -0.24934842404473068
1424 1252 0.087619788974651794
685 1253 -0
686 1253 -0
687 1253 -0
688 1253 -0
689 1253 -0
690 1253 -0
691 1253 -0
692 1253 -0
693 1253 -0
694 1253 -0
695 1253 -0.99509004789631994
696 1253 -0
697 1253 0
698 1253 0
699 1253 0
700 1253 0
701 1253 0
702 1253 0
703 1253 0
704 1253 0
705 1253 0
706 1253 0
707 1253 0
708 1253 0
1421 1253 0.0048220099123521959
1422 1253 -0.09230703811323461
1423 1253 -0.22028815111069383
1424 1253 -0.062540089363958593
685 1254 -0
686 1254 -0
687 1254 -0
688 1254 -0
689 1254 -0
690 1254 -0
691 1254 -0
692 1254 -0
693 1254 -0
694 1254 -0
695 1254 -0
696 1254 -0.99509004789631994
697 1254 0
698 1254 0
699 1254 0
700 1254 0
701 1254 0
702 1254 0
703 1254 0
704 1254 0
705 1254 0
706 1254 0
707 1254 0
708 1254 0
1421 1254 0.22589481330245723
1422 1254 0.085512196920050021
1423 1254 -0.209328877595194
1424 1254 0.014853171089538656
685 1255 0
686 1255 0
687 1255 0
688 1255 0
689 1255 0
690 1255 0
691 1255 0
692 1255 0
693 1255 0
694 1255 0
695 1255 0
696 1255 0
697 1255 0.99509004789631994
698 1255 0
699 1255 0
700 1255 0
701 1255 0
702 1255 0
703 1255 0
704 1255 0
705 1255 0
706 1255 0
707 1255 0
708 1255 0
1421 1255 0
1422 1255 0
1423 1255 0
1424 1255 0
685 1256 0
686 1256 0
687 1256 0
688 1256 0
689 1256 0
690 1256 0
691 1256 0
692 1256 0
693 1256 0
694 1256 0
695 1256 0
696 1256 0
697 1256 0
698 1256 0.99509004789631994
699 1256 0
700 1256 0
701 1256 0
702 1256 0
703 1256 0
704 1256 0
705 1256 0
706 1256 0
707 1256 0
708 1256 0
1421 1256 0
1422 1256 0
1423 1256 0
1424 1256 0
685 1257 0
686 1257 0
687 1257 0
688 1257 0
689 1257 0
690 1257 0
691 1257 0
692 1257 0
693 1257 0
694 1257 0
695 1257 0
696 1257 0
697 1257 0
698 1257 0
699 1257 0.99509004789631994
700 1257 0
701 1257 0
702 1257 0
703 1257 0
704 1257 0
705 1257 0
706 1257 0
707 1257 0
708 1257 0
1421 1257 0
1422 1257 0
1423 1257 0
1424 1257 0
685 1258 0
686 1258 0
687 1258 0
688 1258 0
689 1258 0
690 1258 0
691 1258 0
692 1258 0
693 1258 0
694 1258 0
695 1258 0
696 1258 0
697 1258 0
698 1258 0
699 1258 0
700 1258 0.99509004789631994
701 1258 0
702 1258 0
703 1258 0
704 1258 0
705 1258 0
706 1258 0
707 1258 0
708 1258 0
1421 1258 0
1422 1258 0
1423 1258 0
1424 1258 0
685 1259 0
686 1259 0
687 1259 0
688 1259 0
689 1259 0
690 1259 0
691 1259 0
692 1259 0
693 1259 0
694 1259 0
695 1259 0
696 1259 0
697 1259 0
698 1259 0
699 1259 0
700 1259 0
701 1259 0.99509004789631994
702 1259 0
703 1259 0
704 1259 0
705 1259 0
706 1259 0
707 1259 0
708 1259 0
1421 1259 0
1422 1259 0
1423 1259 0
1424 1259 0
685 1260 0
686 1260 0
687 1260 0
688 1260 0
689 1260 0
690 1260 0
691 1260 0
692 1260 0
693 1260 0
694 1260 0
695 1260 0
696 1260 0
697 1260 0
698 1260 0
699 1260 0
700 1260 0
701 1260 0
702 1260 0.99509004789631994
703 1260 0
704 1260 0
705 1260 0
706 1260 0
707 1260 0
708 1260 0
1421 1260 0
1422 1260 0
1423 1260 0
1424 1260 0
685 1261 0
686 1261 0
687 1261 0
688 1261 0
689 1261 0
690 1261 0
691 1261 0
692 1261 0
693 1261 0
694 1261 0
695 1261 0
696 1261 0
697 1261 0
698 1261 0
699 1261 0
700 1261 0
701 1261 0
702 1261 0
703 1261 0.99509004789631994
704 1261 0
705 1261 0
706 1261 0
707 1261 0
708 1261 0
1421 1261 0
1422 1261 0
1423 1261 0
1424 1261 0
685 1262 0
686 1262 0
687 1262 0
688 1262 0
689 1262 0
690 1262 0
691 1262 0
692 1262 0
693 1262 0
694 1262 0
695 1262 0
696 1262 0
697 1262 0
698 1262 0
699 1262 0
700 1262 0
701 1262 0
702 1262 0
703 1262 0
704 1262 0.99509004789631994
705 1262 0
706 1262 0
707 1262 0
708 1262 0
1421 1262 0
1422 1262 0
1423 1262 0
1424 1262 0
685 1263 0
686 1263 0
687 1263 0
688 1263 0
689 1263 0
690 1263 0
691 1263 0
692 1263 0
693 1263 0
694 1263 0
695 1263 0
696 1263 0
697 1263 0
698 1263 0
699 1263 0
700 1263 0
701 1263 0
702 1263 0
703 1263 0
704 1263 0
705 1263 0.99509004789631994
706 1263 0
707 1263 0
708 1263 0
1421 1263 0
1422 1263 0
1423 1263 0
1424 1263 0
685 1264 0
686 1264 0
687 1264 0
688 1264 0
689 1264 0
690 1264 0
691 1264 0
692 1264 0
693 1264 0
694 1264 0
695 1264 0
696 1264 0
697 1264 0
698 1264 0
699 1264 0
700 1264 0
701 1264 0
702 1264 0
703 1264 0
704 1264 0
705 1264 0
706 1264 0.99509004789631994
707 1264 0
708 1264 0
1421 1264 0
1422 1264 0
1423 1264 0
1424 1264 0
685 1265 0
686 1265 0
687 1265 0
688 1265 0
689 1265 0
690 1265 0
691 1265 0
692 1265 0
693 1265 0
694 1265 0
695 1265 0
696 1265 0
697 1265 0
698 1265 0
699 1265 0
700 1265 0
701 1265 0
702 1265 0
703 1265 0
704 1265 0
705 1265 0
706 1265 0
707 1265 0.99509004789631994
708 1265 0
1421 1265 0
1422 1265 0
1423 1265 0
1424 1265 0
685 1266 0
686 1266 0
687 1266 0
688 1266 0
689 1266 0
690 1266 0
691 1266 0
692 1266 0
693 1266 0
694 1266 0
695 1266 0
696 1266 0
697 1266 0
698 1266 0
699 1266 0
700 1266 0
701 1266 0
702 1266 0
703 1266 0
704 1266 0
705 1266 0
706 1266 0
707 1266 0
708 1266 0.99509004789631994
1421 1266 0
1422 1266 0
1423 1266 0
1424 1266 0
1417 1267 0
1418 1267 0
1419 1267 0
1420 1267 0
1650 1267 0
1417 1268 0.99878751991636638
1418 1268 0
1419 1268 0
1420 1268 0
1650 1268 0
1417 1269 0
1418 1269 0.99886974093913028
1419 1269 0
1420 1269 0
1650 1269 0
1417 1270 0
1418 1270 0
1419 1270 0.99859691322799182
1420 1270 0
1650 1270 0
1417 1271 0
1418 1271 0
1419 1271 0
1420 1271 0.99879118685427859
1650 1271 0
1417 1272 0
1418 1272 0
1419 1272 0
1420 1272 0
1650 1272 1
673 1273 -0.99509004789631994
674 1273 -0
675 1273 -0
676 1273 -0
677 1273 -0
678 1273 -0
679 1273 -0
680 1273 -0
681 1273 -0
682 1273 -0
683 1273 -0
684 1273 -0
685 1273 0
686 1273 0
687 1273 0
688 1273 0
689 1273 0
690 1273 0
691 1273 0
692 1273 0
693 1273 0
694 1273 0
695 1273 0
696 1273 0
1417 1273 -0.1803189598547551
1418 1273 -0.25584631152049064
1419 1273 -0.074765084896359371
1420 1273 -0.06244980534901011
673 1274 -0
674 1274 -0.99509004789631994
675 1274 -0
676 1274 -0
677 1274 -0
678 1274 -0
679 1274 -0
680 1274 -0
681 1274 -0
682 1274 -0
683 1274 -0
684 1274 -0
685 1274 0
686 1274 0
687 1274 0
688 1274 0
689 1274 0
690 1274 0
691 1274 0
692 1274 0
693 1274 0
694 1274 0
695 1274 0
696 1274 0
1417 1274 0.10820261428783474
1418 1274 0.080196783561304039
1419 1274 -0.016866001348705428
1420 1274 -0.17094248486675911
673 1275 -0
674 1275 -0
675 1275 -0.99509004789631994
676 1275 -0
677 1275 -0
678 1275 -0
679 1275 -0
680 1275 -0
681 1275 -0
682 1275 -0
683 1275 -0
684 1275 -0
685 1275 0
686 1275 0
687 1275 0
688 1275 0
689 1275 0
690 1275 0
691 1275 0
692 1275 0
693 1275 0
694 1275 0
695 1275 0
696 1275 0
1417 1275 0.021296203412182201
1418 1275 0.06379387941368389
1419 1275 0.33227429440027084
1420 1275 0.038055274961526345
673 1276 -0
674 1276 -0
675 1276 -0
676 1276 -0.99509004789631994
677 1276 -0
678 1276 -0
679 1276 -0
680 1276 -0
681 1276 -0
682 1276 -0
683 1276 -0
684 1276 -0
685 1276 0
686 1276 0
687 1276 0
688 1276 0
689 1276 0
690 1276 0
691 1276 0
692 1276 0
693 1276 0
694 1276 0
695 1276 0
696 1276 0
1417 1276 0.19846746771042395
1418 1276 0.13291349456905685
1419 1276 -0.11659569025066187
1420 1276 0.1709989853023412
673 1277 -0
674 1277 -0
675 1277 -0
676 1277 -0
677 1277 -0.99509004789631994
678 1277 -0
679 1277 -0
680 1277 -0
681 1277 -0
682 1277 -0
683 1277 -0
684 1277 -0
685 1277 0
686 1277 0
687 1277 0
688 1277 0
689 1277 0
690 1277 0
691 1277 0
692 1277 0
693 1277 0
694 1277 0
695 1277 0
696 1277 0
1417 1277 0.06406726430169403
1418 1277 0.0077975121873435499
1419 1277 -0.012888481757033089
1420 1277 0.1821584263174176
673 1278 -0
674 1278 -0
675 1278 -0
676 1278 -0
677 1278 -0
678 1278 -0.99509004789631994
679 1278 -0
680 1278 -0
681 1278 -0
682 1278 -0
683 1278 -0
684 1278 -0
685 1278 0
686 1278 0
687 1278 0
688 1278 0
689 1278 0
690 1278 0
691 1278 0
692 1278 0
693 1278 0
694 1278 0
695 1278 0
696 1278 0
1417 1278 0.14930176975937659
1418 1278 -0.1220518999462523
1419 1278 -0.21437482240798272
1420 1278 -0.27728111366749703
673 1279 -0
674 1279 -0
675 1279 -0
676 1279 -0
677 1279 -0
678 1279 -0
679 1279 -0.99509004789631994
680 1279 -0
681 1279 -0
682 1279 -0
683 1279 -0
684 1279 -0
685 1279 0
686 1279 0
687 1279 0
688 1279 0
689 1279 0
690 1279 0
691 1279 0
692 1279 0
693 1279 0
694 1279 0
695 1279 0
696 1279 0
1417 1279 -0.27832449100114248
1418 1279 -0.023030066571549251
1419 1279 0.085999904285044407
1420 1279 0.14042558666593874
673 1280 -0
674 1280 -0
675 1280 -0
676 1280 -0
677 1280 -0
678 1280 -0
679 1280 -0
680 1280 -0.99509004789631994
681 1280 -0
682 1280 -0
683 1280 -0
684 1280 -0
685 1280 0
686 1280 0
687 1280 0
688 1280 0
689 1280 0
690 1280 0
691 1280 0
692 1280 0
693 1280 0
694 1280 0
695 1280 0
696 1280 0
1417 1280 0.14426661227624929
1418 1280 0.019112219351713613
1419 1280 -0.3383340256558125
1420 1280 -0.26332006554483989
673 1281 -0
674 1281 -0
675 1281 -0
676 1281 -0
677 1281 -0
678 1281 -0
679 1281 -0
680 1281 -0
681 1281 -0.99509004789631994
682 1281 -0
683 1281 -0
684 1281 -0
685 1281 0
686 1281 0
687 1281 0
688 1281 0
689 1281 0
690 1281 0
691 1281 0
692 1281 0
693 1281 0
694 1281 0
695 1281 0
696 1281 0
1417 1281 -0.11462509557936003
1418 1281 -0.065598224589830417
1419 1281 0.12045547271290091
1420 1281 0.066735657880519217
673 1282 -0
674 1282 -0
675 1282 -0
676 1282 -0
677 1282 -0
678 1282 -0
679 1282 -0
680 1282 -0
681 1282 -0
682 1282 -0.99509004789631994
683 1282 -0
684 1282 -0
685 1282 0
686 1282 0
687 1282 0
688 1282 0
689 1282 0
690 1282 0
691 1282 0
692 1282 0
693 1282 0
694 1282 0
695 1282 0
696 1282 0
1417 1282 0.1112726701807888
1418 1282 -0.18163442438886057
1419 1282 -0.24934842404473068
1420 1282 0.087619788974651794
673 1283 -0
674 1283 -0
675 1283 -0
676 1283 -0
677 1283 -0
678 1283 -0
679 1283 -0
680 1283 -0
681 1283 -0
682 1283 -0
683 1283 -0.99509004789631994
684 1283 -0
685 1283 0
686 1283 0
687 1283 0
688 1283 0
689 1283 0
690 1283 0
691 1283 0
692 1283 0
693 1283 0
694 1283 0
695 1283 0
696 1283 0
1417 1283 0.0048220099123521959
1418 1283 -0.09230703811323461
1419 1283 -0.22028815111069383
1420 1283 -0.062540089363958593
673 1284 -0
674 1284 -0
675 1284 -0
676 1284 -0
677 1284 -0
678 1284 -0
679 1284 -0
680 1284 -0
681 1284 -0
682 1284 -0
683 1284 -0
684 1284 -0.99509004789631994
685 1284 0
686 1284 0
687 1284 0
688 1284 0
689 1284 0
690 1284 0
691 1284 0
692 1284 0
693 1284 0
694 1284 0
695 1284 0
696 1284 0
1417 1284 0.22589481330245723
1418 1284 0.085512196920050021
1419 1284 -0.209328877595194
1420 1284 0.014853171089538656
673 1285 0
674 1285 0
675 1285 0
676 1285 0
677 1285 0
678 1285 0
679 1285 0
680 1285 0
681 1285 0
682 1285 0
683 1285 0
684 1285 0
685 1285 0.99509004789631994
686 1285 0
687 1285 0
688 1285 0
689 1285 0
690 1285 0
691 1285 0
692 1285 0
693 1285 0
694 1285 0
695 1285 0
696 1285 0
1417 1285 0
1418 1285 0
1419 1285 0
1420 1285 0
673 1286 0
674 1286 0
675 1286 0
676 1286 0
677 1286 0
678 1286 0
679 1286 0
680 1286 0
681 1286 0
682 1286 0
683 1286 0
684 1286 0
685 1286 0
686 1286 0.99509004789631994
687 1286 0
688 1286 0
689 1286 0
690 1286 0
691 1286 0
692 1286 0
693 1286 0
694 1286 0
695 1286 0
696 1286 0
1417 1286 0
1418 1286 0
1419 1286 0
1420 1286 0
673 1287 0
674 1287 0
675 1287 0
676 1287 0
677 1287 0
678 1287 0
679 1287 0
680 1287 0
681 1287 0
682 1287 0
683 1287 0
684 1287 0
685 1287 0
686 1287 0
687 1287 0.99509004789631994
688 1287 0
689 1287 0
690 1287 0
691 1287 0
692 1287 0
693 1287 0
694 1287 0
695 1287 0
696 1287 0
1417 1287 0
1418 1287 0
1419 1287 0
1420 1287 0
673 1288 0
674 1288 0
675 1288 0
676 1288 0
677 1288 0
678 1288 0
679 1288 0
680 1288 0
681 1288 0
682 1288 0
683 1288 0
684 1288 0
685 1288 0
686 1288 0
687 1288 0
688 1288 0.99509004789631994
689 1288 0
690 1288 0
691 1288 0
692 1288 0
693 1288 0
694 1288 0
695 1288 0
696 1288 0
1417 1288 0
1418 1288 0
1419 1288 0
1420 1288 0
673 1289 0
674 1289 0
675 1289 0
676 1289 0
677 1289 0
678 1289 0
679 1289 0
680 1289 0
681 1289 0
682 1289 0
683 1289 0
684 1289 0
685 1289 0
686 1289 0
687 1289 0
688 1289 0
689 1289 0.99509004789631994
690 1289 0
691 1289 0
692 1289 0
693 1289 0
694 1289 0
695 1289 0
696 1289 0
1417 1289 0
1418 1289 0
1419 1289 0
1420 1289 0
673 1290 0
674 1290 0
675 1290 0
676 1290 0
677 1290 0
678 1290 0
679 1290 0
680 1290 0
681 1290 0
682 1290 0
683 1290 0
684 1290 0
685 1290 0
686 1290 0
687 1290 0
688 1290 0
689 1290 0
690 1290 0.99509004789631994
691 1290 0
692 1290 0
693 1290 0
694 1290 0
695 1290 0
696 1290 0
1417 1290 0
1418 1290 0
1419 1290 0
1420 1290 0
673 1291 0
674 1291 0
675 1291 0
676 1291 0
677 1291 0
678 1291 0
679 1291 0
680 1291 0
681 1291 0
682 1291 0
683 1291 0
684 1291 0
685 1291 0
686 1291 0
687 1291 0
688 1291 0
689 1291 0
690 1291 0
691 1291 0.99509004789631994
692 1291 0
693 1291 0
694 1291 0
695 1291 0
696 1291 0
1417 1291 0
1418 1291 0
1419 1291 0
1420 1291 0
673 1292 0
674 1292 0
675 1292 0
676 1292 0
677 1292 0
678 1292 0
679 1292 0
680 1292 0
681 1292 0
682 1292 0
683 1292 0
684 1292 0
685 1292 0
686 1292 0
687 1292 0
688 1292 0
689 1292 0
690 1292 0
691 1292 0
692 1292 0.99509004789631994
693 1292 0
694 1292 0
695 1292 0
696 1292 0
1417 1292 0
1418 1292 0
1419 1292 0
1420 1292 0
673 1293 0
674 1293 0
675 1293 0
676 1293 0
677 1293 0
678 1293 0
679 1293 0
680 1293 0
681 1293 0
682 1293 0
683 1293 0
684 1293 0
685 1293 0
686 1293 0
687 1293 0
688 1293 0
689 1293 0
690 1293 0
691 1293 0
692 1293 0
693 1293 0.99509004789631994
694 1293 0
695 1293 0
696 1293 0
1417 1293 0
1418 1293 0
1419 1293 0
1420 1293 0
673 1294 0
674 1294 0
675 1294 0
676 1294 0
677 1294 0
678 1294 0
679 1294 0
680 1294 0
681 1294 0
682 1294 0
683 1294 0
684 1294 0
685 1294 0
686 1294 0
687 1294 0
688 1294 0
689 1294 0
690 1294 0
691 1294 0
692 1294 0
693 1294 0
694 1294 0.99509004789631994
695 1294 0
696 1294 0
1417 1294 0
1418 1294 0
1419 1294 0
1420 1294 0
673 1295 0
674 1295 0
675 1295 0
676 1295 0
677 1295 0
678 1295 0
679 1295 0
680 1295 0
681 1295 0
682 1295 0
683 1295 0
684 1295 0
685 1295 0
686 1295 0
687 1295 0
688 1295 0
689 1295 0
690 1295 0
691 1295 0
692 1295 0
693 1295 0
694 1295 0
695 1295 0.99509004789631994
696 1295 0
1417 1295 0
1418 1295 0
1419 1295 0
1420 1295 0
673 1296 0
674 1296 0
675 1296 0
676 1296 0
677 1296 0
678 1296 0
679 1296 0
680 1296 0
681 1296 0
682 1296 0
683 1296 0
684 1296 0
685 1296 0
686 1296 0
687 1296 0
688 1296 0
689 1296 0
690 1296 0
691 1296 0
692 1296 0
693 1296 0
694 1296 0
695 1296 0
696 1296 0.99509004789631994
1417 1296 0
1418 1296 0
1419 1296 0
1420 1296 0
1413 1297 0
1414 1297 0
1415 1297 0
1416 1297 0
1649 1297 0
1413 1298 0.99878751991636638
1414 1298 0
1415 1298 0
1416 1298 0
1649 1298 0
1413 1299 0
1414 1299 0.99886974093913028
1415 1299 0
1416 1299 0
1649 1299 0
1413 1300 0
1414 1300 0
1415 1300 0.99859691322799182
1416 1300 0
1649 1300 0
1413 1301 0
1414 1301 0
1415 1301 0
1416 1301 0.99879118685427859
1649 1301 0
1413 1302 0
1414 1302 0
1415 1302 0
1416 1302 0
1649 1302 1
661 1303 -0.99509004789631994
662 1303 -0
663 1303 -0
664 1303 -0
665 1303 -0
666 1303 -0
667 1303 -0
668 1303 -0
669 1303 -0
670 1303 -0
671 1303 -0
672 1303 -0
673 1303 0
674 1303 0
675 1303 0
676 1303 0
677 1303 0
678 1303 0
679 1303 0
680 1303 0
681 1303 0
682 1303 0
683 1303 0
684 1303 0
1413 1303 -0.1803189598547551
1414 1303 -0.25584631152049064
1415 1303 -0.074765084896359371
1416 1303 -0.06244980534901011
661 1304 -0
662 1304 -0.99509004789631994
663 1304 -0
664 1304 -0
665 1304 -0
666 1304 -0
667 1304 -0
668 1304 -0
669 1304 -0
670 1304 -0
671 1304 -0
672 1304 -0
673 1304 0
674 1304 0
675 1304 0
676 1304 0
677 1304 0
678 1304 0
679 1304 0
680 1304 0
681 1304 0
682 1304 0
683 1304 0
684 1304 0
1413 1304 0.10820261428783474
1414 1304 0.080196783561304039
1415 1304 -0.016866001348705428
1416 1304 -0.17094248486675911
661 1305 -0
662 1305 -0
663 1305 -0.99509004789631994
664 1305 -0
665 1305 -0
666 1305 -0
667 1305 -0
668 1305 -0
669 1305 -0
670 1305 -0
671 1305 -0
672 1305 -0
673 1305 0
674 1305 0
675 1305 0
676 1305 0
677 1305 0
678 1305 0
679 1305 0
680 1305 0
681 1305 0
682 1305 0
683 1305 0
684 1305 0
1413 1305 0.021296203412182201
1414 1305 0.06379387941368389
1415 1305 0.33227429440027084
1416 1305 0.038055274961526345
661 1306 -0
662 1306 -0
663 1306 -0
664 1306 -0.99509004789631994
665 1306 -0
666 1306 -0
667 1306 -0
668 1306 -0
669 1306 -0
670 1306 -0
671 1306 -0
672 1306 -0
673 1306 0
674 1306 0
675 1306 0
676 1306 0
677 1306 0
678 1306 0
679 1306 0
680 1306 0
681 1306 0
682 1306 0
683 1306 0
684 1306 0
1413 1306 0.19846746771042395
1414 1306 0.13291349456905685
1415 1306 -0.11659569025066187
1416 1306 0.1709989853023412
661 1307 -0
662 1307 -0
663 1307 -0
664 1307 -0
665 1307 -0.99509004789631994
666 1307 -0
667 1307 -0
668 1307 -0
669 1307 -0
670 1307 -0
671 1307 -0
672 1307 -0
673 1307 0
674 1307 0
675 1307 0
676 1307 0
677 1307 0
678 1307 0
679 1307 0
680 1307 0
681 1307 0
682 1307 0
683 1307 0
684 1307 0
1413 1307 0.06406726430169403
1414 1307 0.0077975121873435499
1415 1307 -0.012888481757033089
1416 1307 0.1821584263174176
661 1308 -0
662 1308 -0
663 1308 -0
664 1308 -0
665 1308 -0
666 1308 -0.99509004789631994
667 1308 -0
668 1308 -0
669 1308 -0
670 1308 -0
671 1308 -0
672 1308 -0
673 1308 0
674 1308 0
675 1308 0
676 1308 0
677 1308 0
678 1308 0
679 1308 0
680 1308 0
681 1308 0
682 1308 0
683 1308 0
684 1308 0
1413 1308 0.14930176975937659
1414 1308 -0.1220518999462523
1415 1308 -0.21437482240798272
1416 1308 -0.27728111366749703
661 1309 -0
662 1309 -0
663 1309 -0
664 1309 -0
665 1309 -0
666 1309 -0
667 1309 -0.99509004789631994
668 1309 -0
669 1309 -0
670 1309 -0
671 1309 -0
672 1309 -0
673 1309 0
674 1309 0
675 1309 0
676 1309 0
677 1309 0
678 1309 0
679 1309 0
680 1309 0
681 1309 0
682 1309 0
683 1309 0
684 1309 0
1413 1309 -0.27832449100114248
1414 1309 -0.023030066571549251
1415 1309 0.085999904285044407
1416 1309 0.14042558666593874
661 1310 -0
662 1310 -0
663 1310 -0
664 1310 -0
665 1310 -0
666 1310 -0
667 1310 -0
668 1310 -0.99509004789631994
669 1310 -0
670 1310 -0
671 1310 -0
672 1310 -0
673 1310 0
674 1310 0
675 1310 0
676 1310 0
677 1310 0
678 1310 0
679 1310 0
680 1310 0
681 1310 0
682 1310 0
683 1310 0
684 1310 0
1413 1310 0.14426661227624929
1414 1310 0.019112219351713613
1415 1310 -0.3383340256558125
1416 1310 -0.26332006554483989
661 1311 -0
662 1311 -0
663 1311 -0
664 1311 -0
665 1311 -0
666 1311 -0
667 1311 -0
668 1311 -0
669 1311 -0.99509004789631994
670 1311 -0
671 1311 -0
672 1311 -0
673 1311 0
674 1311 0
675 1311 0
676 1311 0
677 1311 0
678 1311 0
679 1311 0
680 1311 0
681 1311 0
682 1311 0
683 1311 0
684 1311 0
1413 1311 -0.11462509557936003
1414 1311 -0.065598224589830417
1415 1311 0.12045547271290091
1416 1311 0.066735657880519217
661 1312 -0
662 1312 -0
663 1312 -0
664 1312 -0
665 1312 -0
666 1312 -0
667 1312 -0
668 1312 -0
669 1312 -0
670 1312 -0.99509004789631994
671 1312 -0
672 1312 -0
673 1312 0
674 1312 0
675 1312 0
676 1312 0
677 1312 0
678 1312 0
679 1312 0
680 1312 0
681 1312 0
682 1312 0
683 1312 0
684 1312 0
1413 1312 0.1112726701807888
1414 1312 -0.18163442438886057
1415 1312 -0.24934842404473068
1416 1312 0.087619788974651794
661 1313 -0
662 1313 -0
663 1313 -0
664 1313 -0
665 1313 -0
666 1313 -0
667 1313 -0
668 1313 -0
669 1313 -0
670 1313 -0
671 1313 -0.99509004789631994
672 1313 -0
673 1313 0
674 1313 0
675 1313 0
676 1313 0
677 1313 0
678 1313 0
679 1313 0
680 1313 0
681 1313 0
682 1313 0
683 1313 0
684 1313 0
1413 1313 0.0048220099123521959
1414 1313 -0.09230703811323461
1415 1313 -0.22028815111069383
1416 1313 -0.062540089363958593
661 1314 -0
662 1314 -0
663 1314 -0
664 1314 -0
665 1314 -0
666 1314 -0
667 1314 -0
668 1314 -0
669 1314 -0
670 1314 -0
671 1314 -0
672 1314 -0.99509004789631994
673 1314 0
674 1314 0
675 1314 0
676 1314 0
677 1314 0
678 1314 0
679 1314 0
680 1314 0
681 1314 0
682 1314 0
683 1314 0
684 1314 0
1413 1314 0.22589481330245723
1414 1314 0.085512196920050021
1415 1314 -0.209328877595194
1416 1314 0.014853171089538656
661 1315 0
662 1315 0
663 1315 0
664 1315 0
665 1315 0
666 1315 0
667 1315 0
668 1315 0
669 1315 0
670 1315 0
671 1315 0
672 1315 0
673 1315 0.99509004789631994
674 1315 0
675 1315 0
676 1315 0
677 1315 0
678 1315 0
679 1315 0
680 1315 0
681 1315 0
682 1315 0
683 1315 0
684 1315 0
1413 1315 0
1414 1315 0
1415 1315 0
1416 1315 0
661 1316 0
662 1316 0
663 1316 0
664 1316 0
665 1316 0
666 1316 0
667 1316 0
668 1316 0
669 1316 0
670 1316 0
671 1316 0
672 1316 0
673 1316 0
674 1316 0.99509004789631994
675 1316 0
676 1316 0
677 1316 0
678 1316 0
679 1316 0
680 1316 0
681 1316 0
682 1316 0
683 1316 0
684 1316 0
1413 1316 0
1414 1316 0
1415 1316 0
1416 1316 0
661 1317 0
662 1317 0
663 1317 0
664 1317 0
665 1317 0
666 1317 0
667 1317 0
668 1317 0
669 1317 0
670 1317 0
671 1317 0
672 1317 0
673 1317 0
674 1317 0
675 1317 0.99509004789631994
676 1317 0
677 1317 0
678 1317 0
679 1317 0
680 1317 0
681 1317 0
682 1317 0
683 1317 0
684 1317 0
1413 1317 0
1414 1317 0
1415 1317 0
1416 1317 0
661 1318 0
662 1318 0
663 1318 0
664 1318 0
665 1318 0
666 1318 0
667 1318 0
668 1318 0
669 1318 0
670 1318 0
671 1318 0
672 1318 0
673 1318 0
674 1318 0
675 1318 0
676 1318 0.99509004789631994
677 1318 0
678 1318 0
679 1318 0
680 1318 0
681 1318 0
682 1318 0
683 1318 0
684 1318 0
1413 1318 0
1414 1318 0
1415 1318 0
1416 1318 0
661 1319 0
662 1319 0
663 1319 0
664 1319 0
665 1319 0
666 1319 0
667 1319 0
668 1319 0
669 1319 0
670 1319 0
671 1319 0
672 1319 0
673 1319 0
674 1319 0
675 1319 0
676 1319 0
677 1319 0.99509004789631994
678 1319 0
679 1319 0
680 1319 0
681 1319 0
682 1319 0
683 1319 0
684 1319 0
1413 1319 0
1414 1319 0
1415 1319 0
1416 1319 0
661 1320 0
662 1320 0
663 1320 0
664 1320 0
665 1320 0
666 1320 0
667 1320 0
668 1320 0
669 1320 0
670 1320 0
671 1320 0
672 1320 0
673 1320 0
674 1320 0
675 1320 0
676 1320 0
677 1320 0
678 1320 0.99509004789631994
679 1320 0
680 1320 0
681 1320 0
682 1320 0
683 1320 0
684 1320 0
1413 1320 0
1414 1320 0
1415 1320 0
1416 1320 0
661 1321 0
662 1321 0
663 1321 0
664 1321 0
665 1321 0
666 1321 0
667 1321 0
668 1321 0
669 1321 0
670 1321 0
671 1321 0
672 1321 0
673 1321 0
674 1321 0
675 1321 0
676 1321 0
677 1321 0
678 1321 0
679 1321 0.99509004789631994
680 1321 0
681 1321 0
682 1321 0
683 1321 0
684 1321 0
1413 1321 0
1414 1321 0
1415 1321 0
1416 1321 0
661 1322 0
662 1322 0
663 1322 0
664 1322 0
665 1322 0
666 1322 0
667 1322 0
668 1322 0
669 1322 0
670 1322 0
671 1322 0
672 1322 0
673 1322 0
674 1322 0
675 1322 0
676 1322 0
677 1322 0
678 1322 0
679 1322 0
680 1322 0.99509004789631994
681 1322 0
682 1322 0
683 1322 0
684 1322 0
1413 1322 0
1414 1322 0
1415 1322 0
1416 1322 0
661 1323 0
662 1323 0
663 1323 0
664 1323 0
665 1323 0
666 1323 0
667 1323 0
668 1323 0
669 1323 0
670 1323 0
671 1323 0
672 1323 0
673 1323 0
674 1323 0
675 1323 0
676 1323 0
677 1323 0
678 1323 0
679 1323 0
680 1323 0
681 1323 0.99509004789631994
682 1323 0
683 1323 0
684 1323 0
1413 1323 0
1414 1323 0
1415 1323 0
1416 1323 0
661 1324 0
662 1324 0
663 1324 0
664 1324 0
665 1324 0
666 1324 0
667 1324 0
668 1324 0
669 1324 0
670 1324 0
671 1324 0
672 1324 0
673 1324 0
674 1324 0
675 1324 0
676 1324 0
677 1324 0
678 1324 0
679 1324 0
680 1324 0
681 1324 0
682 1324 0.99509004789631994
683 1324 0
684 1324 0
1413 1324 0
1414 1324 0
1415 1324 0
1416 1324 0
661 1325 0
662 1325 0
663 1325 0
664 1325 0
665 1325 0
666 1325 0
667 1325 0
668 1325 0
669 1325 0
670 1325 0
671 1325 0
672 1325 0
673 1325 0
674 1325 0
675 1325 0
676 1325 0
677 1325 0
678 1325 0
679 1325 0
680 1325 0
681 1325 0
682 1325 0
683 1325 0.99509004789631994
684 1325 0
1413 1325 0
1414 1325 0
1415 1325 0
1416 1325 0
661 1326 0
662 1326 0
663 1326 0
664 1326 0
665 1326 0
666 1326 0
667 1326 0
668 1326 0
669 1326 0
670 1326 0
671 1326 0
672 1326 0
673 1326 0
674 1326 0
675 1326 0
676 1326 0
677 1326 0
678 1326 0
679 1326 0
680 1326 0
681 1326 0
682 1326 0
683 1326 0
684 1326 0.99509004789631994
1413 1326 0
1414 1326 0
1415 1326 0
1416 1326 0
1409 1327 0
1410 1327 0
1411 1327 0
1412 1327 0
1648 1327 0
1409 1328 0.99878751991636638
1410 1328 0
1411 1328 0
1412 1328 0
1648 1328 0
1409 1329 0
1410 1329 0.99886974093913028
1411 1329 0
1412 1329 0
1648 1329 0
1409 1330 0
1410 1330 0
1411 1330 0.99859691322799182
1412 1330 0
1648 1330 0
1409 1331 0
1410 1331 0
1411 1331 0
1412 1331 0.99879118685427859
1648 1331 0
1409 1332 0
1410 1332 0
1411 1332 0
1412 1332 0
1648 1332 1
649 1333 -0.99509004789631994
650 1333 -0
651 1333 -0
652 1333 -0
653 1333 -0
654 1333 -0
655 1333 -0
656 1333 -0
657 1333 -0
658 1333 -0
659 1333 -0
660 1333 -0
661 1333 0
662 1333 0
663 1333 0
664 1333 0
665 1333 0
666 1333 0
667 1333 0
668 1333 0
669 1333 0
670 1333 0
671 1333 0
672 1333 0
1409 1333 -0.1803189598547551
1410 1333 -0.25584631152049064
1411 1333 -0.074765084896359371
1412 1333 -0.06244980534901011
649 1334 -0
650 1334 -0.99509004789631994
651 1334 -0
652 1334 -0
653 1334 -0
654 1334 -0
655 1334 -0
656 1334 -0
657 1334 -0
658 1334 -0
659 1334 -0
660 1334 -0
661 1334 0
662 1334 0
663 1334 0
664 1334 0
665 1334 0
666 1334 0
667 1334 0
668 1334 0
669 1334 0
670 1334 0
671 1334 0
672 1334 0
1409 1334 0.10820261428783474
1410 1334 0.080196783561304039
1411 1334 -0.016866001348705428
1412 1334 -0.17094248486675911
649 1335 -0
650 1335 -0
651 1335 -0.99509004789631994
652 1335 -0
653 1335 -0
654 1335 -0
655 1335 -0
656 1335 -0
657 1335 -0
658 1335 -0
659 1335 -0
660 1335 -0
661 1335 0
662 1335 0
663 1335 0
664 1335 0
665 1335 0
666 1335 0
667 1335 0
668 1335 0
669 1335 0
670 1335 0
671 1335 0
672 1335 0
1409 1335 0.021296203412182201
1410 1335 0.06379387941368389
1411 1335 0.33227429440027084
1412 1335 0.038055274961526345
649 1336 -0
650 1336 -0
651 1336 -0
652 1336 -0.99509004789631994
653 1336 -0
654 1336 -0
655 1336 -0
656 1336 -0
657 1336 -0
658 1336 -0
659 1336 -0
660 1336 -0
661 1336 0
662 1336 0
663 1336 0
664 1336 0
665 1336 0
666 1336 0
667 1336 0
668 1336 0
669 1336 0
670 1336 0
671 1336 0
672 1336 0
1409 1336 0.19846746771042395
1410 1336 0.13291349456905685
1411 1336 -0.11659569025066187
1412 1336 0.1709989853023412
649 1337 -0
650 1337 -0
651 1337 -0
652 1337 -0
653 1337 -0.99509004789631994
654 1337 -0
655 1337 -0
656 1337 -0
657 1337 -0
658 1337 -0
659 1337 -0
660 1337 -0
661 1337 0
662 1337 0
663 1337 0
664 1337 0
665 1337 0
666 1337 0
667 1337 0
668 1337 0
669 1337 0
670 1337 0
671 1337 0
672 1337 0
1409 1337 0.06406726430169403
1410 1337 0.0077975121873435499
1411 1337 -0.012888481757033089
1412 1337 0.1821584263174176
649 1338 -0
650 1338 -0
651 1338 -0
652 1338 -0
653 1338 -0
654 1338 -0.99509004789631994
655 1338 -0
656 1338 -0
657 1338 -0
658 1338 -0
659 1338 -0
660 1338 -0
661 1338 0
662 1338 0
663 1338 0
664 1338 0
665 1338 0
666 1338 0
667 1338 0
668 1338 0
669 1338 0
670 1338 0
671 1338 0
672 1338 0
1409 1338 0.14930176975937659
1410 1338 -0.1220518999462523
1411 1338 -0.21437482240798272
1412 1338 -0.27728111366749703
649 1339 -0
650 1339 -0
651 1339 -0
652 1339 -0
653 1339 -0
654 1339 -0
655 1339 -0.99509004789631994
656 1339 -0
657 1339 -0
658 1339 -0
659 1339 -0
660 1339 -0
661 1339 0
662 1339 0
663 1339 0
664 1339 0
665 1339 0
666 1339 0
667 1339 0
668 1339 0
669 1339 0
670 1339 0
671 1339 0
672 1339 0
1409 1339 -0.27832449100114248
1410 1339 -0.023030066571549251
1411 1339 0.085999904285044407
1412 1339 0.14042558666593874
649 1340 -0
650 1340 -0
651 1340 -0
652 1340 -0
653 1340 -0
654 1340 -0
655 1340 -0
656 1340 -0.99509004789631994
657 1340 -0
658 1340 -0
659 1340 -0
660 1340 -0
661 1340 0
662 1340 0
663 1340 0
664 1340 0
665 1340 0
666 1340 0
667 1340 0
668 1340 0
669 1340 0
670 1340 0
671 1340 0
672 1340 0
1409 1340 0.14426661227624929
1410 1340 0.019112219351713613
1411 1340 -0.3383340256558125
1412 1340 -0.26332006554483989
649 1341 -0
650 1341 -0
651 1341 -0
652 1341 -0
653 1341 -0
654 1341 -0
655 1341 -0
656 1341 -0
657 1341 -0.99509004789631994
658 1341 -0
659 1341 -0
660 1341 -0
661 1341 0
662 1341 0
663 1341 0
664 1341 0
665 1341 0
666 1341 0
667 1341 0
668 1341 0
669 1341 0
670 1341 0
671 1341 0
672 1341 0
1409 1341 -0.11462509557936003
1410 1341 -0.065598224589830417
1411 1341 0.12045547271290091
1412 1341 0.066735657880519217
649 1342 -0
650 1342 -0
651 1342 -0
652 1342 -0
653 1342 -0
654 1342 -0
655 1342 -0
656 1342 -0
657 1342 -0
658 1342 -0.99509004789631994
659 1342 -0
660 1342 -0
661 1342 0
662 1342 0
663 1342 0
664 1342 0
665 1342 0
666 1342 0
667 1342 0
668 1342 0
669 1342 0
670 1342 0
671 1342 0
672 1342 0
1409 1342 0.1112726701807888
1410 1342 -0.18163442438886057
1411 1342 -0.24934842404473068
1412 1342 0.087619788974651794
649 1343 -0
650 1343 -0
651 1343 -0
652 1343 -0
653 1343 -0
654 1343 -0
655 1343 -0
656 1343 -0
657 1343 -0
658 1343 -0
659 1343 -0.99509004789631994
660 1343 -0
661 1343 0
662 1343 0
663 1343 0
664 1343 0
665 1343 0
666 1343 0
667 1343 0
668 1343 0
669 1343 0
670 1343 0
671 1343 0
672 1343 0
1409 1343 0.0048220099123521959
1410 1343 -0.09230703811323461
1411 1343 -0.22028815111069383
1412 1343 -0.062540089363958593
649 1344 -0
650 1344 -0
651 1344 -0
652 1344 -0
653 1344 -0
654 1344 -0
655 1344 -0
656 1344 -0
657 1344 -0
658 1344 -0
659 1344 -0
660 1344 -0.99509004789631994
661 1344 0
662 1344 0
663 1344 0
664 1344 0
665 1344 0
666 1344 0
667 1344 0
668 1344 0
669 1344 0
670 1344 0
671 1344 0
672 1344 0
1409 1344 0.22589481330245723
1410 1344 0.085512196920050021
1411 1344 -0.209328877595194
1412 1344 0.014853171089538656
649 1345 0
650 1345 0
651 1345 0
652 1345 0
653 1345 0
654 1345 0
655 1345 0
656 1345 0
657 1345 0
658 1345 0
659 1345 0
660 1345 0
661 1345 0.99509004789631994
662 1345 0
663 1345 0
664 1345 0
665 1345 0
666 1345 0
667 1345 0
668 1345 0
669 1345 0
670 1345 0
671 1345 0
672 1345 0
1409 1345 0
1410 1345 0
1411 1345 0
1412 1345 0
649 1346 0
650 1346 0
651 1346 0
652 1346 0
653 1346 0
654 1346 0
655 1346 0
656 1346 0
657 1346 0
658 1346 0
659 1346 0
660 1346 0
661 1346 0
662 1346 0.99509004789631994
663 1346 0
664 1346 0
665 1346 0
666 1346 0
667 1346 0
668 1346 0
669 1346 0
670 1346 0
671 1346 0
672 1346 0
1409 1346 0
1410 1346 0
1411 1346 0
1412 1346 0
649 1347 0
650 1347 0
651 1347 0
652 1347 0
653 1347 0
654 1347 0
655 1347 0
656 1347 0
657 1347 0
658 1347 0
659 1347 0
660 1347 0
661 1347 0
662 1347 0
663 1347 0.99509004789631994
664 1347 0
665 1347 0
666 1347 0
667 1347 0
668 1347 0
669 1347 0
670 1347 0
671 1347 0
672 1347 0
1409 1347 0
1410 1347 0
1411 1347 0
1412 1347 0
649 1348 0
650 1348 0
651 1348 0
652 1348 0
653 1348 0
654 1348 0
655 1348 0
656 1348 0
657 1348 0
658 1348 0
659 1348 0
660 1348 0
661 1348 0
662 1348 0
663 1348 0
664 1348 0.99509004789631994
665 1348 0
666 1348 0
667 1348 0
668 1348 0
669 1348 0
670 1348 0
671 1348 0
672 1348 0
1409 1348 0
1410 1348 0
1411 1348 0
1412 1348 0
649 1349 0
650 1349 0
651 1349 0
652 1349 0
653 1349 0
654 1349 0
655 1349 0
656 1349 0
657 1349 0
658 1349 0
659 1349 0
660 1349 0
661 1349 0
662 1349 0
663 1349 0
664 1349 0
665 1349 0.99509004789631994
666 1349 0
667 1349 0
668 1349 0
669 1349 0
670 1349 0
671 1349 0
672 1349 0
1409 1349 0
1410 1349 0
1411 1349 0
1412 1349 0
649 1350 0
650 1350 0
651 1350 0
652 1350 0
653 1350 0
654 1350 0
655 1350 0
656 1350 0
657 1350 0
658 1350 0
659 1350 0
660 1350 0
661 1350 0
662 1350 0
663 1350 0
664 1350 0
665 1350 0
666 1350 0.99509004789631994
667 1350 0
668 1350 0
669 1350 0
670 1350 0
671 1350 0
672 1350 0
1409 1350 0
1410 1350 0
1411 1350 0
1412 1350 0
649 1351 0
650 1351 0
651 1351 0
652 1351 0
653 1351 0
654 1351 0
655 1351 0
656 1351 0
657 1351 0
658 1351 0
659 1351 0
660 1351 0
661 1351 0
662 1351 0
663 1351 0
664 1351 0
665 1351 0
666 1351 0
667 1351 0.99509004789631994
668 1351 0
669 1351 0
670 1351 0
671 1351 0
672 1351 0
1409 1351 0
1410 1351 0
1411 1351 0
1412 1351 0
649 1352 0
650 1352 0
651 1352 0
652 1352 0
653 1352 0
654 1352 0
655 1352 0
656 1352 0
657 1352 0
658 1352 0
659 1352 0
660 1352 0
661 1352 0
662 1352 0
663 1352 0
664 1352 0
665 1352 0
666 1352 0
667 1352 0
668 1352 0.99509004789631994
669 1352 0
670 1352 0
671 1352 0
672 1352 0
1409 1352 0
1410 1352 0
1411 1352 0
1412 1352 0
649 1353 0
650 1353 0
651 1353 0
652 1353 0
653 1353 0
654 1353 0
655 1353 0
656 1353 0
657 1353 0
658 1353 0
659 1353 0
660 1353 0
661 1353 0
662 1353 0
663 1353 0
664 1353 0
665 1353 0
666 1353 0
667 1353 0
668 1353 0
669 1353 0.99509004789631994
670 1353 0
671 1353 0
672 1353 0
1409 1353 0
1410 1353 0
1411 1353 0
1412 1353 0
649 1354 0
650 1354 0
651 1354 0
652 1354 0
653 1354 0
654 1354 0
655 1354 0
656 1354 0
657 1354 0
658 1354 0
659 1354 0
660 1354 0
661 1354 0
662 1354 0
663 1354 0
664 1354 0
665 1354 0
666 1354 0
667 1354 0
668 1354 0
669 1354 0
670 1354 0.99509004789631994
671 1354 0
672 1354 0
1409 1354 0
1410 1354 0
1411 1354 0
1412 1354 0
649 1355 0
650 1355 0
651 1355 0
652 1355 0
653 1355 0
654 1355 0
655 1355 0
656 1355 0
657 1355 0
658 1355 0
659 1355 0
660 1355 0
661 1355 0
662 1355 0
663 1355 0
664 1355 0
665 1355 0
666 1355 0
667 1355 0
668 1355 0
669 1355 0
670 1355 0
671 1355 0.99509004789631994
672 1355 0
1409 1355 0
1410 1355 0
1411 1355 0
1412 1355 0
649 1356 0
650 1356 0
651 1356 0
652 1356 0
653 1356 0
654 1356 0
655 1356 0
656 1356 0
657 1356 0
658 1356 0
659 1356 0
660 1356 0
661 1356 0
662 1356 0
663 1356 0
664 1356 0
665 1356 0
666 1356 0
667 1356 0
668 1356 0
669 1356 0
670 1356 0
671 1356 0
672 1356 0.99509004789631994
1409 1356 0
1410 1356 0
1411 1356 0
1412 1356 0
1405 1357 0
1406 1357 0
1407 1357 0
1408 1357 0
1647 1357 0
1405 1358 0.99878751991636638
1406 1358 0
1407 1358 0
1408 1358 0
1647 1358 0
1405 1359 0
1406 1359 0.99886974093913028
1407 1359 0
1408 1359 0
1647 1359 0
1405 1360 0
1406 1360 0
1407 1360 0.99859691322799182
1408 1360 0
1647 1360 0
1405 1361 0
1406 1361 0
1407 1361 0
1408 1361 0.99879118685427859
1647 1361 0
1405 1362 0
1406 1362 0
1407 1362 0
1408 1362 0
1647 1362 1
637 1363 -0.99509004789631994
638 1363 -0
639 1363 -0
640 1363 -0
641 1363 -0
642 1363 -0
643 1363 -0
644 1363 -0
645 1363 -0
646 1363 -0
647 1363 -0
648 1363 -0
649 1363 0
650 1363 0
651 1363 0
652 1363 0
653 1363 0
654 1363 0
655 1363 0
656 1363 0
657 1363 0
658 1363 0
659 1363 0
660 1363 0
1405 1363 -0.1803189598547551
1406 1363 -0.25584631152049064
1407 1363 -0.074765084896359371
1408 1363 -0.06244980534901011
637 1364 -0
638 1364 -0.99509004789631994
639 1364 -0
640 1364 -0
641 1364 -0
642 1364 -0
643 1364 -0
644 1364 -0
645 1364 -0
646 1364 -0
647 1364 -0
648 1364 -0
649 1364 0
650 1364 0
651 1364 0
652 1364 0
653 1364 0
654 1364 0
655 1364 0
656 1364 0
657 1364 0
658 1364 0
659 1364 0
660 1364 0
1405 1364 0.10820261428783474
1406 1364 0.080196783561304039
1407 1364 -0.016866001348705428
1408 1364 -0.17094248486675911
637 1365 -0
638 1365 -0
639 1365 -0.99509004789631994
640 1365 -0
641 1365 -0
642 1365 -0
643 1365 -0
644 1365 -0
645 1365 -0
646 1365 -0
647 1365 -0
648 1365 -0
649 1365 0
650 1365 0
651 1365 0
652 1365 0
653 1365 0
654 1365 0
655 1365 0
656 1365 0
657 1365 0
658 1365 0
659 1365 0
660 1365 0
1405 1365 0.021296203412182201
1406 1365 0.06379387941368389
1407 1365 0.33227429440027084
1408 1365 0.038055274961526345
637 1366 -0
638 1366 -0
639 1366 -0
640 1366 -0.99509004789631994
641 1366 -0
642 1366 -0
643 1366 -0
644 1366 -0
645 1366 -0
646 1366 -0
647 1366 -0
648 1366 -0
649 1366 0
650 1366 0
651 1366 0
652 1366 0
653 1366 0
654 1366 0
655 1366 0
656 1366 0
657 1366 0
658 1366 0
659 1366 0
660 1366 0
1405 1366 0.19846746771042395
1406 1366 0.13291349456905685
1407 1366 -0.11659569025066187
1408 1366 0.1709989853023412
637 1367 -0
638 1367 -0
639 1367 -0
640 1367 -0
641 1367 -0.99509004789631994
642 1367 -0
643 1367 -0
644 1367 -0
645 1367 -0
646 1367 -0
647 1367 -0
648 1367 -0
649 1367 0
650 1367 0
651 1367 0
652 1367 0
653 1367 0
654 1367 0
655 1367 0
656 1367 0
657 1367 0
658 1367 0
659 1367 0
660 1367 0
1405 1367 0.06406726430169403
1406 1367 0.0077975121873435499
1407 1367 -0.012888481757033089
1408 1367 0.1821584263174176
637 1368 -0
638 1368 -0
639 1368 -0
640 1368 -0
641 1368 -0
642 1368 -0.99509004789631994
643 1368 -0
644 1368 -0
645 1368 -0
646 1368 -0
647 1368 -0
648 1368 -0
649 1368 0
650 1368 0
651 1368 0
652 1368 0
653 1368 0
654 1368 0
655 1368 0
656 1368 0
657 1368 0
658 1368 0
659 1368 0
660 1368 0
1405 1368 0.14930176975937659
1406 1368 -0.1220518999462523
1407 1368 -0.21437482240798272
1408 1368 -0.27728111366749703
637 1369 -0
638 1369 -0
639 1369 -0
640 1369 -0
641 1369 -0
642 1369 -0
643 1369 -0.99509004789631994
644 1369 -0
645 1369 -0
646 1369 -0
647 1369 -0
648 1369 -0
649 1369 0
650 1369 0
651 1369 0
652 1369 0
653 1369 0
654 1369 0
655 1369 0
656 1369 0
657 1369 0
658 1369 0
659 1369 0
660 1369 0
1405 1369 -0.27832449100114248
1406 1369 -0.023030066571549251
1407 1369 0.085999904285044407
1408 1369 0.14042558666593874
637 1370 -0
638 1370 -0
639 1370 -0
640 1370 -0
641 1370 -0
642 1370 -0
643 1370 -0
644 1370 -0.99509004789631994
645 1370 -0
646 1370 -0
647 1370 -0
648 1370 -0
649 1370 0
650 1370 0
651 1370 0
652 1370 0
653 1370 0
654 1370 0
655 1370 0
656 1370 0
657 1370 0
658 1370 0
659 1370 0
660 1370 0
1405 1370 0.14426661227624929
1406 1370 0.019112219351713613
1407 1370 -0.3383340256558125
1408 1370 -0.26332006554483989
637 1371 -0
638 1371 -0
639 1371 -0
640 1371 -0
641 1371 -0
642 1371 -0
643 1371 -0
644 1371 -0
645 1371 -0.99509004789631994
646 1371 -0
647 1371 -0
648 1371 -0
649 1371 0
650 1371 0
651 1371 0
652 1371 0
653 1371 0
654 1371 0
655 1371 0
656 1371 0
657 1371 0
658 1371 0
659 1371 0
660 1371 0
1405 1371 -0.11462509557936003
1406 1371 -0.065598224589830417
1407 1371 0.12045547271290091
1408 1371 0.066735657880519217
637 1372 -0
638 1372 -0
639 1372 -0
640 1372 -0
641 1372 -0
642 1372 -0
643 1372 -0
644 1372 -0
645 1372 -0
646 1372 -0.99509004789631994
647 1372 -0
648 1372 -0
649 1372 0
650 1372 0
651 1372 0
652 1372 0
653 1372 0
654 1372 0
655 1372 0
656 1372 0
657 1372 0
658 1372 0
659 1372 0
660 1372 0
1405 1372 0.1112726701807888
1406 1372 -0.18163442438886057
1407 1372 -0.24934842404473068
1408 1372 0.087619788974651794
637 1373 -0
638 1373 -0
639 1373 -0
640 1373 -0
641 1373 -0
642 1373 -0
643 1373 -0
644 1373 -0
645 1373 -0
646 1373 -0
647 1373 -0.99509004789631994
648 1373 -0
649 1373 0
650 1373 0
651 1373 0
652 1373 0
653 1373 0
654 1373 0
655 1373 0
656 1373 0
657 1373 0
658 1373 0
659 1373 0
660 1373 0
1405 1373 0.0048220099123521959
1406 1373 -0.09230703811323461
1407 1373 -0.22028815111069383
1408 1373 -0.062540089363958593
637 1374 -0
638 1374 -0
639 1374 -0
640 1374 -0
641 1374 -0
642 1374 -0
643 1374 -0
644 1374 -0
645 1374 -0
646 1374 -0
647 1374 -0
648 1374 -0.99509004789631994
649 1374 0
650 1374 0
651 1374 0
652 1374 0
653 1374 0
654 1374 0
655 1374 0
656 1374 0
657 1374 0
658 1374 0
659 1374 0
660 1374 0
1405 1374 0.22589481330245723
1406 1374 0.085512196920050021
1407 1374 -0.209328877595194
1408 1374 0.014853171089538656
637 1375 0
638 1375 0
639 1375 0
640 1375 0
641 1375 0
642 1375 0
643 1375 0
644 1375 0
645 1375 0
646 1375 0
647 1375 0
648 1375 0
649 1375 0.99509004789631994
650 1375 0
651 1375 0
652 1375 0
653 1375 0
654 1375 0
655 1375 0
656 1375 0
657 1375 0
658 1375 0
659 1375 0
660 1375 0
1405 1375 0
1406 1375 0
1407 1375 0
1408 1375 0
637 1376 0
638 1376 0
639 1376 0
640 1376 0
641 1376 0
642 1376 0
643 1376 0
644 1376 0
645 1376 0
646 1376 0
647 1376 0
648 1376 0
649 1376 0
650 1376 0.99509004789631994
651 1376 0
652 1376 0
653 1376 0
654 1376 0
655 1376 0
656 1376 0
657 1376 0
658 1376 0
659 1376 0
660 1376 0
1405 1376 0
1406 1376 0
1407 1376 0
1408 1376 0
637 1377 0
638 1377 0
639 1377 0
640 1377 0
641 1377 0
642 1377 0
643 1377 0
644 1377 0
645 1377 0
646 1377 0
647 1377 0
648 1377 0
649 1377 0
650 1377 0
651 1377 0.99509004789631994
652 1377 0
653 1377 0
654 1377 0
655 1377 0
656 1377 0
657 1377 0
658 1377 0
659 1377 0
660 1377 0
1405 1377 0
1406 1377 0
1407 1377 0
1408 1377 0
637 1378 0
638 1378 0
639 1378 0
640 1378 0
641 1378 0
642 1378 0
643 1378 0
644 1378 0
645 1378 0
646 1378 0
647 1378 0
648 1378 0
649 1378 0
650 1378 0
651 1378 0
652 1378 0.99509004789631994
653 1378 0
654 1378 0
655 1378 0
656 1378 0
657 1378 0
658 1378 0
659 1378 0
660 1378 0
1405 1378 0
1406 1378 0
1407 1378 0
1408 1378 0
637 1379 0
638 1379 0
639 1379 0
640 1379 0
641 1379 0
642 1379 0
643 1379 0
644 1379 0
645 1379 0
646 1379 0
647 1379 0
648 1379 0
649 1379 0
650 1379 0
651 1379 0
652 1379 0
653 1379 0.99509004789631994
654 1379 0
655 1379 0
656 1379 0
657 1379 0
658 1379 0
659 1379 0
660 1379 0
1405 1379 0
1406 1379 0
1407 1379 0
1408 1379 0
637 1380 0
638 1380 0
639 1380 0
640 1380 0
641 1380 0
642 1380 0
643 1380 0
644 1380 0
645 1380 0
646 1380 0
647 1380 0
648 1380 0
649 1380 0
650 1380 0
651 1380 0
652 1380 0
653 1380 0
654 1380 0.99509004789631994
655 1380 0
656 1380 0
657 1380 0
658 1380 0
659 1380 0
660 1380 0
1405 1380 0
1406 1380 0
1407 1380 0
1408 1380 0
637 1381 0
638 1381 0
639 1381 0
640 1381 0
641 1381 0
642 1381 0
643 1381 0
644 1381 0
645 1381 0
646 1381 0
647 1381 0
648 1381 0
649 1381 0
650 1381 0
651 1381 0
652 1381 0
653 1381 0
654 1381 0
655 1381 0.99509004789631994
656 1381 0
657 1381 0
658 1381 0
659 1381 0
660 1381 0
1405 1381 0
1406 1381 0
1407 1381 0
1408 1381 0
637 1382 0
638 1382 0
639 1382 0
640 1382 0
641 1382 0
642 1382 0
643 1382 0
644 1382 0
645 1382 0
646 1382 0
647 1382 0
648 1382 0
649 1382 0
650 1382 0
651 1382 0
652 1382 0
653 1382 0
654 1382 0
655 1382 0
656 1382 0.99509004789631994
657 1382 0
658 1382 0
659 1382 0
660 1382 0
1405 1382 0
1406 1382 0
1407 1382 0
1408 1382 0
637 1383 0
638 1383 0
639 1383 0
640 1383 0
641 1383 0
642 1383 0
643 1383 0
644 1383 0
645 1383 0
646 1383 0
647 1383 0
648 1383 0
649 1383 0
650 1383 0
651 1383 0
652 1383 0
653 1383 0
654 1383 0
655 1383 0
656 1383 0
657 1383 0.99509004789631994
658 1383 0
659 1383 0
660 1383 0
1405 1383 0
1406 1383 0
1407 1383 0
1408 1383 0
637 1384 0
638 1384 0
639 1384 0
640 1384 0
641 1384 0
642 1384 0
643 1384 0
644 1384 0
645 1384 0
646 1384 0
647 1384 0
648 1384 0
649 1384 0
650 1384 0
651 1384 0
652 1384 0
653 1384 0
654 1384 0
655 1384 0
656 1384 0
657 1384 0
658 1384 0.99509004789631994
659 1384 0
660 1384 0
1405 1384 0
1406 1384 0
1407 1384 0
1408 1384 0
637 1385 0
638 1385 0
639 1385 0
640 1385 0
641 1385 0
642 1385 0
643 1385 0
644 1385 0
645 1385 0
646 1385 0
647 1385 0
648 1385 0
649 1385 0
650 1385 0
651 1385 0
652 1385 0
653 1385 0
654 1385 0
655 1385 0
656 1385 0
657 1385 0
658 1385 0
659 1385 0.99509004789631994
660 1385 0
1405 1385 0
1406 1385 0
1407 1385 0
1408 1385 0
637 1386 0
638 1386 0
639 1386 0
640 1386 0
641 1386 0
642 1386 0
643 1386 0
644 1386 0
645 1386 0
646 1386 0
647 1386 0
648 1386 0
649 1386 0
650 1386 0
651 1386 0
652 1386 0
653 1386 0
654 1386 0
655 1386 0
656 1386 0
657 1386 0
658 1386 0
659 1386 0
660 1386 0.99509004789631994
1405 1386 0
1406 1386 0
1407 1386 0
1408 1386 0
1401 1387 0
1402 1387 0
1403 1387 0
1404 1387 0
1646 1387 0
1401 1388 0.99878751991636638
1402 1388 0
1403 1388 0
1404 1388 0
1646 1388 0
1401 1389 0
1402 1389 0.99886974093913028
1403 1389 0
1404 1389 0
1646 1389 0
1401 1390 0
1402 1390 0
1403 1390 0.99859691322799182
1404 1390 0
1646 1390 0
1401 1391 0
1402 1391 0
1403 1391 0
1404 1391 0.99879118685427859
1646 1391 0
1401 1392 0
1402 1392 0
1403 1392 0
1404 1392 0
1646 1392 1
625 1393 -0.99509004789631994
626 1393 -0
627 1393 -0
628 1393 -0
629 1393 -0
630 1393 -0
631 1393 -0
632 1393 -0
633 1393 -0
634 1393 -0
635 1393 -0
636 1393 -0
637 1393 0
638 1393 0
639 1393 0
640 1393 0
641 1393 0
642 1393 0
643 1393 0
644 1393 0
645 1393 0
646 1393 0
647 1393 0
648 1393 0
1401 1393 -0.1803189598547551
1402 1393 -0.25584631152049064
1403 1393 -0.074765084896359371
1404 1393 -0.06244980534901011
625 1394 -0
626 1394 -0.99509004789631994
627 1394 -0
628 1394 -0
629 1394 -0
630 1394 -0
631 1394 -0
632 1394 -0
633 1394 -0
634 1394 -0
635 1394 -0
636 1394 -0
637 1394 0
638 1394 0
639 1394 0
640 1394 0
641 1394 0
642 1394 0
643 1394 0
644 1394 0
645 1394 0
646 1394 0
647 1394 0
648 1394 0
1401 1394 0.10820261428783474
1402 1394 0.080196783561304039
1403 1394 -0.016866001348705428
1404 1394 -0.17094248486675911
625 1395 -0
626 1395 -0
627 1395 -0.99509004789631994
628 1395 -0
629 1395 -0
630 1395 -0
631 1395 -0
632 1395 -0
633 1395 -0
634 1395 -0
635 1395 -0
636 1395 -0
637 1395 0
638 1395 0
639 1395 0
640 1395 0
641 1395 0
642 1395 0
643 1395 0
644 1395 0
645 1395 0
646 1395 0
647 1395 0
648 1395 0
1401 1395 0.021296203412182201
1402 1395 0.06379387941368389
1403 1395 0.33227429440027084
1404 1395 0.038055274961526345
625 1396 -0
626 1396 -0
627 1396 -0
628 1396 -0.99509004789631994
629 1396 -0
630 1396 -0
631 1396 -0
632 1396 -0
633 1396 -0
634 1396 -0
635 1396 -0
636 1396 -0
637 1396 0
638 1396 0
639 1396 0
640 1396 0
641 1396 0
642 1396 0
643 1396 0
644 1396 0
645 1396 0
646 1396 0
647 1396 0
648 1396 0
1401 1396 0.19846746771042395
1402 1396 0.13291349456905685
1403 1396 -0.11659569025066187
1404 1396 0.1709989853023412
625 1397 -0
626 1397 -0
627 1397 -0
628 1397 -0
629 1397 -0.99509004789631994
630 1397 -0
631 1397 -0
632 1397 -0
633 1397 -0
634 1397 -0
635 1397 -0
636 1397 -0
637 1397 0
638 1397 0
639 1397 0
640 1397 0
641 1397 0
642 1397 0
643 1397 0
644 1397 0
645 1397 0
646 1397 0
647 1397 0
648 1397 0
1401 1397 0.06406726430169403
1402 1397 0.0077975121873435499
1403 1397 -0.012888481757033089
1404 1397 0.1821584263174176
625 1398 -0
626 1398 -0
627 1398 -0
628 1398 -0
629 1398 -0
630 1398 -0.99509004789631994
631 1398 -0
632 1398 -0
633 1398 -0
634 1398 -0
635 1398 -0
636 1398 -0
637 1398 0
638 1398 0
639 1398 0
640 1398 0
641 1398 0
642 1398 0
643 1398 0
644 1398 0
645 1398 0
646 1398 0
647 1398 0
648 1398 0
1401 1398 0.14930176975937659
1402 1398 -0.1220518999462523
1403 1398 -0.21437482240798272
1404 1398 -0.27728111366749703
625 1399 -0
626 1399 -0
627 1399 -0
628 1399 -0
629 1399 -0
630 1399 -0
631 1399 -0.99509004789631994
632 1399 -0
633 1399 -0
634 1399 -0
635 1399 -0
636 1399 -0
637 1399 0
638 1399 0
639 1399 0
640 1399 0
641 1399 0
642 1399 0
643 1399 0
644 1399 0
645 1399 0
646 1399 0
647 1399 0
648 1399 0
1401 1399 -0.27832449100114248
1402 1399 -0.023030066571549251
1403 1399 0.085999904285044407
1404 1399 0.14042558666593874
625 1400 -0
626 1400 -0
627 1400 -0
628 1400 -0
629 1400 -0
630 1400 -0
631 1400 -0
632 1400 -0.99509004789631994
633 1400 -0
634 1400 -0
635 1400 -0
636 1400 -0
637 1400 0
638 1400 0
639 1400 0
640 1400 0
641 1400 0
642 1400 0
643 1400 0
644 1400 0
645 1400 0
646 1400 0
647 1400 0
648 1400 0
1401 1400 0.14426661227624929
1402 1400 0.019112219351713613
1403 1400 -0.3383340256558125
1404 1400 -0.26332006554483989
625 1401 -0
626 1401 -0
627 1401 -0
628 1401 -0
629 1401 -0
630 1401 -0
631 1401 -0
632 1401 -0
633 1401 -0.99509004789631994
634 1401 -0
635 1401 -0
636 1401 -0
637 1401 0
638 1401 0
639 1401 0
640 1401 0
641 1401 0
642 1401 0
643 1401 0
644 1401 0
645 1401 0
646 1401 0
647 1401 0
648 1401 0
1401 1401 -0.11462509557936003
1402 1401 -0.065598224589830417
1403 1401 0.12045547271290091
1404 1401 0.066735657880519217
625 1402 -0
626 1402 -0
627 1402 -0
628 1402 -0
629 1402 -0
630 1402 -0
631 1402 -0
632 1402 -0
633 1402 -0
634 1402 -0.99509004789631994
635 1402 -0
636 1402 -0
637 1402 0
638 1402 0
639 1402 0
640 1402 0
641 1402 0
642 1402 0
643 1402 0
644 1402 0
645 1402 0
646 1402 0
647 1402 0
648 1402 0
1401 1402 0.1112726701807888
1402 1402 -0.18163442438886057
1403 1402 -0.24934842404473068
1404 1402 0.087619788974651794
625 1403 -0
626 1403 -0
627 1403 -0
628 1403 -0
629 1403 -0
630 1403 -0
631 1403 -0
632 1403 -0
633 1403 -0
634 1403 -0
635 1403 -0.99509004789631994
636 1403 -0
637 1403 0
638 1403 0
639 1403 0
640 1403 0
641 1403 0
642 1403 0
643 1403 0
644 1403 0
645 1403 0
646 1403 0
647 1403 0
648 1403 0
1401 1403 0.0048220099123521959
1402 1403 -0.09230703811323461
1403 1403 -0.22028815111069383
1404 1403 -0.062540089363958593
625 1404 -0
626 1404 -0
627 1404 -0
628 1404 -0
629 1404 -0
630 1404 -0
631 1404 -0
632 1404 -0
633 1404 -0
634 1404 -0
635 1404 -0
636 1404 -0.99509004789631994
637 1404 0
638 1404 0
639 1404 0
640 1404 0
641 1404 0
642 1404 0
643 1404 0
644 1404 0
645 1404 0
646 1404 0
647 1404 0
648 1404 0
1401 1404 0.22589481330245723
1402 1404 0.085512196920050021
1403 1404 -0.209328877595194
1404 1404 0.014853171089538656
625 1405 0
626 1405 0
627 1405 0
628 1405 0
629 1405 0
630 1405 0
631 1405 0
632 1405 0
633 1405 0
634 1405 0
635 1405 0
636 1405 0
637 1405 0.99509004789631994
638 1405 0
639 1405 0
640 1405 0
641 1405 0
642 1405 0
643 1405 0
644 1405 0
645 1405 0
646 1405 0
647 1405 0
648 1405 0
1401 1405 0
1402 1405 0
1403 1405 0
1404 1405 0
625 1406 0
626 1406 0
627 1406 0
628 1406 0
629 1406 0
630 1406 0
631 1406 0
632 1406 0
633 1406 0
634 1406 0
635 1406 0
636 1406 0
637 1406 0
638 1406 0.99509004789631994
639 1406 0
640 1406 0
641 1406 0
642 1406 0
643 1406 0
644 1406 0
645 1406 0
646 1406 0
647 1406 0
648 1406 0
1401 1406 0
1402 1406 0
1403 1406 0
1404 1406 0
625 1407 0
626 1407 0
627 1407 0
628 1407 0
629 1407 0
630 1407 0
631 1407 0
632 1407 0
633 1407 0
634 1407 0
635 1407 0
636 1407 0
637 1407 0
638 1407 0
639 1407 0.99509004789631994
640 1407 0
641 1407 0
642 1407 0
643 1407 0
644 1407 0
645 1407 0
646 1407 0
647 1407 0
648 1407 0
1401 1407 0
1402 1407 0
1403 1407 0
1404 1407 0
625 1408 0
626 1408 0
627 1408 0
628 1408 0
629 1408 0
630 1408 0
631 1408 0
632 1408 0
633 1408 0
634 1408 0
635 1408 0
636 1408 0
637 1408 0
638 1408 0
639 1408 0
640 1408 0.99509004789631994
641 1408 0
642 1408 0
643 1408 0
644 1408 0
645 1408 0
646 1408 0
647 1408 0
648 1408 0
1401 1408 0
1402 1408 0
1403 1408 0
1404 1408 0
625 1409 0
626 1409 0
627 1409 0
628 1409 0
629 1409 0
630 1409 0
631 1409 0
632 1409 0
633 1409 0
634 1409 0
635 1409 0
636 1409 0
637 1409 0
638 1409 0
639 1409 0
640 1409 0
641 1409 0.99509004789631994
642 1409 0
643 1409 0
644 1409 0
645 1409 0
646 1409 0
647 1409 0
648 1409 0
1401 1409 0
1402 1409 0
1403 1409 0
1404 1409 0
625 1410 0
626 1410 0
627 1410 0
628 1410 0
629 1410 0
630 1410 0
631 1410 0
632 1410 0
633 1410 0
634 1410 0
635 1410 0
636 1410 0
637 1410 0
638 1410 0
639 1410 0
640 1410 0
641 1410 0
642 1410 0.99509004789631994
643 1410 0
644 1410 0
645 1410 0
646 1410 0
647 1410 0
648 1410 0
1401 1410 0
1402 1410 0
1403 1410 0
1404 1410 0
625 1411 0
626 1411 0
627 1411 0
628 1411 0
629 1411 0
630 1411 0
631 1411 0
632 1411 0
633 1411 0
634 1411 0
635 1411 0
636 1411 0
637 1411 0
638 1411 0
639 1411 0
640 1411 0
641 1411 0
642 1411 0
643 1411 0.99509004789631994
644 1411 0
645 1411 0
646 1411 0
647 1411 0
648 1411 0
1401 1411 0
1402 1411 0
1403 1411 0
1404 1411 0
625 1412 0
626 1412 0
627 1412 0
628 1412 0
629 1412 0
630 1412 0
631 1412 0
632 1412 0
633 1412 0
634 1412 0
635 1412 0
636 1412 0
637 1412 0
638 1412 0
639 1412 0
640 1412 0
641 1412 0
642 1412 0
643 1412 0
644 1412 0.99509004789631994
645 1412 0
646 1412 0
647 1412 0
648 1412 0
1401 1412 0
1402 1412 0
1403 1412 0
1404 1412 0
625 1413 0
626 1413 0
627 1413 0
628 1413 0
629 1413 0
630 1413 0
631 1413 0
632 1413 0
633 1413 0
634 1413 0
635 1413 0
636 1413 0
637 1413 0
638 1413 0
639 1413 0
640 1413 0
641 1413 0
642 1413 0
643 1413 0
644 1413 0
645 1413 0.99509004789631994
646 1413 0
647 1413 0
648 1413 0
1401 1413 0
1402 1413 0
1403 1413 0
1404 1413 0
625 1414 0
626 1414 0
627 1414 0
628 1414 0
629 1414 0
630 1414 0
631 1414 0
632 1414 0
633 1414 0
634 1414 0
635 1414 0
636 1414 0
637 1414 0
638 1414 0
639 1414 0
640 1414 0
641 1414 0
642 1414 0
643 1414 0
644 1414 0
645 1414 0
646 1414 0.99509004789631994
647 1414 0
648 1414 0
1401 1414 0
1402 1414 0
1403 1414 0
1404 1414 0
625 1415 0
626 1415 0
627 1415 0
628 1415 0
629 1415 0
630 1415 0
631 1415 0
632 1415 0
633 1415 0
634 1415 0
635 1415 0
636 1415 0
637 1415 0
638 1415 0
639 1415 0
640 1415 0
641 1415 0
642 1415 0
643 1415 0
644 1415 0
645 1415 0
646 1415 0
647 1415 0.99509004789631994
648 1415 0
1401 1415 0
1402 1415 0
1403 1415 0
1404 1415 0
625 1416 0
626 1416 0
627 1416 0
628 1416 0
629 1416 0
630 1416 0
631 1416 0
632 1416 0
633 1416 0
634 1416 0
635 1416 0
636 1416 0
637 1416 0
638 1416 0
639 1416 0
640 1416 0
641 1416 0
642 1416 0
643 1416 0
644 1416 0
645 1416 0
646 1416 0
647 1416 0
648 1416 0.99509004789631994
1401 1416 0
1402 1416 0
1403 1416 0
1404 1416 0
1397 1417 0
1398 1417 0
1399 1417 0
1400 1417 0
1645 1417 0
1397 1418 0.99878751991636638
1398 1418 0
1399 1418 0
1400 1418 0
1645 1418 0
1397 1419 0
1398 1419 0.99886974093913028
1399 1419 0
1400 1419 0
1645 1419 0
1397 1420 0
1398 1420 0
1399 1420 0.99859691322799182
1400 1420 0
1645 1420 0
1397 1421 0
1398 1421 0
1399 1421 0
1400 1421 0.99879118685427859
1645 1421 0
1397 1422 0
1398 1422 0
1399 1422 0
1400 1422 0
1645 1422 1
613 1423 -0.99509004789631994
614 1423 -0
615 1423 -0
616 1423 -0
617 1423 -0
618 1423 -0
619 1423 -0
620 1423 -0
621 1423 -0
622 1423 -0
623 1423 -0
624 1423 -0
625 1423 0
626 1423 0
627 1423 0
628 1423 0
629 1423 0
630 1423 0
631 1423 0
632 1423 0
633 1423 0
634 1423 0
635 1423 0
636 1423 0
1397 1423 -0.1803189598547551
1398 1423 -0.25584631152049064
1399 1423 -0.074765084896359371
1400 1423 -0.06244980534901011
613 1424 -0
614 1424 -0.99509004789631994
615 1424 -0
616 1424 -0
617 1424 -0
618 1424 -0
619 1424 -0
620 1424 -0
621 1424 -0
622 1424 -0
623 1424 -0
624 1424 -0
625 1424 0
626 1424 0
627 1424 0
628 1424 0
629 1424 0
630 1424 0
631 1424 0
632 1424 0
633 1424 0
634 1424 0
635 1424 0
636 1424 0
1397 1424 0.10820261428783474
1398 1424 0.080196783561304039
1399 1424 -0.016866001348705428
1400 1424 -0.17094248486675911
613 1425 -0
614 1425 -0
615 1425 -0.99509004789631994
616 1425 -0
617 1425 -0
618 1425 -0
619 1425 -0
620 1425 -0
621 1425 -0
622 1425 -0
623 1425 -0
624 1425 -0
625 1425 0
626 1425 0
627 1425 0
628 1425 0
629 1425 0
630 1425 0
631 1425 0
632 1425 0
633 1425 0
634 1425 0
635 1425 0
636 1425 0
1397 1425 0.021296203412182201
1398 1425 0.06379387941368389
1399 1425 0.33227429440027084
1400 1425 0.038055274961526345
613 1426 -0
614 1426 -0
615 1426 -0
616 1426 -0.99509004789631994
617 1426 -0
618 1426 -0
619 1426 -0
620 1426 -0
621 1426 -0
622 1426 -0
623 1426 -0
624 1426 -0
625 1426 0
626 1426 0
627 1426 0
628 1426 0
629 1426 0
630 1426 0
631 1426 0
632 1426 0
633 1426 0
634 1426 0
635 1426 0
636 1426 0
1397 1426 0.19846746771042395
1398 1426 0.13291349456905685
1399 1426 -0.11659569025066187
1400 1426 0.1709989853023412
613 1427 -0
614 1427 -0
615 1427 -0
616 1427 -0
617 1427 -0.99509004789631994
618 1427 -0
619 1427 -0
620 1427 -0
621 1427 -0
622 1427 -0
623 1427 -0
624 1427 -0
625 1427 0
626 1427 0
627 1427 0
628 1427 0
629 1427 0
630 1427 0
631 1427 0
632 1427 0
633 1427 0
634 1427 0
635 1427 0
636 1427 0
1397 1427 0.06406726430169403
1398 1427 0.0077975121873435499
1399 1427 -0.012888481757033089
1400 1427 0.1821584263174176
613 1428 -0
614 1428 -0
615 1428 -0
616 1428 -0
617 1428 -0
618 1428 -0.99509004789631994
619 1428 -0
620 1428 -0
621 1428 -0
622 1428 -0
623 1428 -0
624 1428 -0
625 1428 0
626 1428 0
627 1428 0
628 1428 0
629 1428 0
630 1428 0
631 1428 0
632 1428 0
633 1428 0
634 1428 0
635 1428 0
636 1428 0
1397 1428 0.14930176975937659
1398 1428 -0.1220518999462523
1399 1428 -0.21437482240798272
1400 1428 -0.27728111366749703
613 1429 -0
614 1429 -0
615 1429 -0
616 1429 -0
617 1429 -0
618 1429 -0
619 1429 -0.99509004789631994
620 1429 -0
621 1429 -0
622 1429 -0
623 1429 -0
624 1429 -0
625 1429 0
626 1429 0
627 1429 0
628 1429 0
629 1429 0
630 1429 0
631 1429 0
632 1429 0
633 1429 0
634 1429 0
635 1429 0
636 1429 0
1397 1429 -0.27832449100114248
1398 1429 -0.023030066571549251
1399 1429 0.085999904285044407
1400 1429 0.14042558666593874
613 1430 -0
614 1430 -0
615 1430 -0
616 1430 -0
617 1430 -0
618 1430 -0
619 1430 -0
620 1430 -0.99509004789631994
621 1430 -0
622 1430 -0
623 1430 -0
624 1430 -0
625 1430 0
626 1430 0
627 1430 0
628 1430 0
629 1430 0
630 1430 0
631 1430 0
632 1430 0
633 1430 0
634 1430 0
635 1430 0
636 1430 0
1397 1430 0.14426661227624929
1398 1430 0.019112219351713613
1399 1430 -0.3383340256558125
1400 1430 -0.26332006554483989
613 1431 -0
614 1431 -0
615 1431 -0
616 1431 -0
617 1431 -0
618 1431 -0
619 1431 -0
620 1431 -0
621 1431 -0.99509004789631994
622 1431 -0
623 1431 -0
624 1431 -0
625 1431 0
626 1431 0
627 1431 0
628 1431 0
629 1431 0
630 1431 0
631 1431 0
632 1431 0
633 1431 0
634 1431 0
635 1431 0
636 1431 0
1397 1431 -0.11462509557936003
1398 1431 -0.065598224589830417
1399 1431 0.12045547271290091
1400 1431 0.066735657880519217
613 1432 -0
614 1432 -0
615 1432 -0
616 1432 -0
617 1432 -0
618 1432 -0
619 1432 -0
620 1432 -0
621 1432 -0
622 1432 -0.99509004789631994
623 1432 -0
624 1432 -0
625 1432 0
626 1432 0
627 1432 0
628 1432 0
629 1432 0
630 1432 0
631 1432 0
632 1432 0
633 1432 0
634 1432 0
635 1432 0
636 1432 0
1397 1432 0.1112726701807888
1398 1432 -0.18163442438886057
1399 1432 -0.24934842404473068
1400 1432 0.087619788974651794
613 1433 -0
614 1433 -0
615 1433 -0
616 1433 -0
617 1433 -0
618 1433 -0
619 1433 -0
620 1433 -0
621 1433 -0
622 1433 -0
623 1433 -0.99509004789631994
624 1433 -0
625 1433 0
626 1433 0
627 1433 0
628 1433 0
629 1433 0
630 1433 0
631 1433 0
632 1433 0
633 1433 0
634 1433 0
635 1433 0
636 1433 0
1397 1433 0.0048220099123521959
1398 1433 -0.09230703811323461
1399 1433 -0.22028815111069383
1400 1433 -0.062540089363958593
613 1434 -0
614 1434 -0
615 1434 -0
616 1434 -0
617 1434 -0
618 1434 -0
619 1434 -0
620 1434 -0
621 1434 -0
622 1434 -0
623 1434 -0
624 1434 -0.99509004789631994
625 1434 0
626 1434 0
627 1434 0
628 1434 0
629 1434 0
630 1434 0
631 1434 0
632 1434 0
633 1434 0
634 1434 0
635 1434 0
636 1434 0
1397 1434 0.22589481330245723
1398 1434 0.085512196920050021
1399 1434 -0.209328877595194
1400 1434 0.014853171089538656
613 1435 0
614 1435 0
615 1435 0
616 1435 0
617 1435 0
618 1435 0
619 1435 0
620 1435 0
621 1435 0
622 1435 0
623 1435 0
624 1435 0
625 1435 0.99509004789631994
626 1435 0
627 1435 0
628 1435 0
629 1435 0
630 1435 0
631 1435 0
632 1435 0
633 1435 0
634 1435 0
635 1435 0
636 1435 0
1397 1435 0
1398 1435 0
1399 1435 0
1400 1435 0
613 1436 0
614 1436 0
615 1436 0
616 1436 0
617 1436 0
618 1436 0
619 1436 0
620 1436 0
621 1436 0
622 1436 0
623 1436 0
624 1436 0
625 1436 0
626 1436 0.99509004789631994
627 1436 0
628 1436 0
629 1436 0
630 1436 0
631 1436 0
632 1436 0
633 1436 0
634 1436 0
635 1436 0
636 1436 0
1397 1436 0
1398 1436 0
1399 1436 0
1400 1436 0
613 1437 0
614 1437 0
615 1437 0
616 1437 0
617 1437 0
618 1437 0
619 1437 0
620 1437 0
621 1437 0
622 1437 0
623 1437 0
624 1437 0
625 1437 0
626 1437 0
627 1437 0.99509004789631994
628 1437 0
629 1437 0
630 1437 0
631 1437 0
632 1437 0
633 1437 0
634 1437 0
635 1437 0
636 1437 0
1397 1437 0
1398 1437 0
1399 1437 0
1400 1437 0
613 1438 0
614 1438 0
615 1438 0
616 1438 0
617 1438 0
618 1438 0
619 1438 0
620 1438 0
621 1438 0
622 1438 0
623 1438 0
624 1438 0
625 1438 0
626 1438 0
627 1438 0
628 1438 0.99509004789631994
629 1438 0
630 1438 0
631 1438 0
632 1438 0
633 1438 0
634 1438 0
635 1438 0
636 1438 0
1397 1438 0
1398 1438 0
1399 1438 0
1400 1438 0
613 1439 0
614 1439 0
615 1439 0
616 1439 0
617 1439 0
618 1439 0
619 1439 0
620 1439 0
621 1439 0
622 1439 0
623 1439 0
624 1439 0
625 1439 0
626 1439 0
627 1439 0
628 1439 0
629 1439 0.99509004789631994
630 1439 0
631 1439 0
632 1439 0
633 1439 0
634 1439 0
635 1439 0
636 1439 0
1397 1439 0
1398 1439 0
1399 1439 0
1400 1439 0
613 1440 0
614 1440 0
615 1440 0
616 1440 0
617 1440 0
618 1440 0
619 1440 0
620 1440 0
621 1440 0
622 1440 0
623 1440 0
624 1440 0
625 1440 0
626 1440 0
627 1440 0
628 1440 0
629 1440 0
630 1440 0.99509004789631994
631 1440 0
632 1440 0
633 1440 0
634 1440 0
635 1440 0
636 1440 0
1397 1440 0
1398 1440 0
1399 1440 0
1400 1440 0
613 1441 0
614 1441 0
615 1441 0
616 1441 0
617 1441 0
618 1441 0
619 1441 0
620 1441 0
621 1441 0
622 1441 0
623 1441 0
624 1441 0
625 1441 0
626 1441 0
627 1441 0
628 1441 0
629 1441 0
630 1441 0
631 1441 0.99509004789631994
632 1441 0
633 1441 0
634 1441 0
635 1441 0
636 1441 0
1397 1441 0
1398 1441 0
1399 1441 0
1400 1441 0
613 1442 0
614 1442 0
615 1442 0
616 1442 0
617 1442 0
618 1442 0
619 1442 0
620 1442 0
621 1442 0
622 1442 0
623 1442 0
624 1442 0
625 1442 0
626 1442 0
627 1442 0
628 1442 0
629 1442 0
630 1442 0
631 1442 0
632 1442 0.99509004789631994
633 1442 0
634 1442 0
635 1442 0
636 1442 0
1397 1442 0
1398 1442 0
1399 1442 0
1400 1442 0
613 1443 0
614 1443 0
615 1443 0
616 1443 0
617 1443 0
618 1443 0
619 1443 0
620 1443 0
621 1443 0
622 1443 0
623 1443 0
624 1443 0
625 1443 0
626 1443 0
627 1443 0
628 1443 0
629 1443 0
630 1443 0
631 1443 0
632 1443 0
633 1443 0.99509004789631994
634 1443 0
635 1443 0
636 1443 0
1397 1443 0
1398 1443 0
1399 1443 0
1400 1443 0
613 1444 0
614 1444 0
615 1444 0
616 1444 0
617 1444 0
618 1444 0
619 1444 0
620 1444 0
621 1444 0
622 1444 0
623 1444 0
624 1444 0
625 1444 0
626 1444 0
627 1444 0
628 1444 0
629 1444 0
630 1444 0
631 1444 0
632 1444 0
633 1444 0
634 1444 0.99509004789631994
635 1444 0
636 1444 0
1397 1444 0
1398 1444 0
1399 1444 0
1400 1444 0
613 1445 0
614 1445 0
615 1445 0
616 1445 0
617 1445 0
618 1445 0
619 1445 0
620 1445 0
621 1445 0
622 1445 0
623 1445 0
624 1445 0
625 1445 0
626 1445 0
627 1445 0
628 1445 0
629 1445 0
630 1445 0
631 1445 0
632 1445 0
633 1445 0
634 1445 0
635 1445 0.99509004789631994
636 1445 0
1397 1445 0
1398 1445 0
1399 1445 0
1400 1445 0
613 1446 0
614 1446 0
615 1446 0
616 1446 0
617 1446 0
618 1446 0
619 1446 0
620 1446 0
621 1446 0
622 1446 0
623 1446 0
624 1446 0
625 1446 0
626 1446 0
627 1446 0
628 1446 0
629 1446 0
630 1446 0
631 1446 0
632 1446 0
633 1446 0
634 1446 0
635 1446 0
636 1446 0.99509004789631994
1397 1446 0
1398 1446 0
1399 1446 0
1400 1446 0
1393 1447 0
1394 1447 0
1395 1447 0
1396 1447 0
1644 1447 0
1393 1448 0.99878751991636638
1394 1448 0
1395 1448 0
1396 1448 0
1644 1448 0
1393 1449 0
1394 1449 0.99886974093913028
1395 1449 0
1396 1449 0
1644 1449 0
1393 1450 0
1394 1450 0
1395 1450 0.99859691322799182
1396 1450 0
1644 1450 0
1393 1451 0
1394 1451 0
1395 1451 0
1396 1451 0.99879118685427859
1644 1451 0
1393 1452 0
1394 1452 0
1395 1452 0
1396 1452 0
1644 1452 1
601 1453 -0.99509004789631994
602 1453 -0
603 1453 -0
604 1453 -0
605 1453 -0
606 1453 -0
607 1453 -0
608 1453 -0
609 1453 -0
610 1453 -0
611 1453 -0
612 1453 -0
613 1453 0
614 1453 0
615 1453 0
616 1453 0
617 1453 0
618 1453 0
619 1453 0
620 1453 0
621 1453 0
622 1453 0
623 1453 0
624 1453 0
1393 1453 -0.1803189598547551
1394 1453 -0.25584631152049064
1395 1453 -0.074765084896359371
1396 1453 -0.06244980534901011
601 1454 -0
602 1454 -0.99509004789631994
603 1454 -0
604 1454 -0
605 1454 -0
606 1454 -0
607 1454 -0
608 1454 -0
609 1454 -0
610 1454 -0
611 1454 -0
612 1454 -0
613 1454 0
614 1454 0
615 1454 0
616 1454 0
617 1454 0
618 1454 0
619 1454 0
620 1454 0
621 1454 0
622 1454 0
623 1454 0
624 1454 0
1393 1454 0.10820261428783474
1394 1454 0.080196783561304039
1395 1454 -0.016866001348705428
1396 1454 -0.17094248486675911
601 1455 -0
602 1455 -0
603 1455 -0.99509004789631994
604 1455 -0
605 1455 -0
606 1455 -0
607 1455 -0
608 1455 -0
609 1455 -0
610 1455 -0
611 1455 -0
612 1455 -0
613 1455 0
614 1455 0
615 1455 0
616 1455 0
617 1455 0
618 1455 0
619 1455 0
620 1455 0
621 1455 0
622 1455 0
623 1455 0
624 1455 0
1393 1455 0.021296203412182201
1394 1455 0.06379387941368389
1395 1455 0.33227429440027084
1396 1455 0.038055274961526345
601 1456 -0
602 1456 -0
603 1456 -0
604 1456 -0.99509004789631994
605 1456 -0
606 1456 -0
607 1456 -0
608 1456 -0
609 1456 -0
610 1456 -0
611 1456 -0
612 1456 -0
613 1456 0
614 1456 0
615 1456 0
616 1456 0
617 1456 0
618 1456 0
619 1456 0
620 1456 0
621 1456 0
622 1456 0
623 1456 0
624 1456 0
1393 1456 0.19846746771042395
1394 1456 0.13291349456905685
1395 1456 -0.11659569025066187
1396 1456 0.1709989853023412
601 1457 -0
602 1457 -0
603 1457 -0
604 1457 -0
605 1457 -0.99509004789631994
606 1457 -0
607 1457 -0
608 1457 -0
609 1457 -0
610 1457 -0
611 1457 -0
612 1457 -0
613 1457 0
614 1457 0
615 1457 0
616 1457 0
617 1457 0
618 1457 0
619 1457 0
620 1457 0
621 1457 0
622 1457 0
623 1457 0
624 1457 0
1393 1457 0.06406726430169403
1394 1457 0.0077975121873435499
1395 1457 -0.012888481757033089
1396 1457 0.1821584263174176
601 1458 -0
602 1458 -0
603 1458 -0
604 1458 -0
605 1458 -0
606 1458 -0.99509004789631994
607 1458 -0
608 1458 -0
609 1458 -0
610 1458 -0
611 1458 -0
612 1458 -0
613 1458 0
614 1458 0
615 1458 0
616 1458 0
617 1458 0
618 1458 0
619 1458 0
620 1458 0
621 1458 0
622 1458 0
623 1458 0
624 1458 0
1393 1458 0.14930176975937659
1394 1458 -0.1220518999462523
1395 1458 -0.21437482240798272
1396 1458 -0.27728111366749703
601 1459 -0
602 1459 -0
603 1459 -0
604 1459 -0
605 1459 -0
606 1459 -0
607 1459 -0.99509004789631994
608 1459 -0
609 1459 -0
610 1459 -0
611 1459 -0
612 1459 -0
613 1459 0
614 1459 0
615 1459 0
616 1459 0
617 1459 0
618 1459 0
619 1459 0
620 1459 0
621 1459 0
622 1459 0
623 1459 0
624 1459 0
1393 1459 -0.27832449100114248
1394 1459 -0.023030066571549251
1395 1459 0.085999904285044407
1396 1459 0.14042558666593874
601 1460 -0
602 1460 -0
603 1460 -0
604 1460 -0
605 1460 -0
606 1460 -0
607 1460 -0
608 1460 -0.99509004789631994
609 1460 -0
610 1460 -0
611 1460 -0
612 1460 -0
613 1460 0
614 1460 0
615 1460 0
616 1460 0
617 1460 0
618 1460 0
619 1460 0
620 1460 0
621 1460 0
622 1460 0
623 1460 0
624 1460 0
1393 1460 0.14426661227624929
1394 1460 0.019112219351713613
1395 1460 -0.3383340256558125
1396 1460 -0.26332006554483989
601 1461 -0
602 1461 -0
603 1461 -0
604 1461 -0
605 1461 -0
606 1461 -0
607 1461 -0
608 1461 -0
609 1461 -0.99509004789631994
610 1461 -0
611 1461 -0
612 1461 -0
613 1461 0
614 1461 0
615 1461 0
616 1461 0
617 1461 0
618 1461 0
619 1461 0
620 1461 0
621 1461 0
622 1461 0
623 1461 0
624 1461 0
1393 1461 -0.11462509557936003
1394 1461 -0.065598224589830417
1395 1461 0.12045547271290091
1396 1461 0.066735657880519217
601 1462 -0
602 1462 -0
603 1462 -0
604 1462 -0
605 1462 -0
606 1462 -0
607 1462 -0
608 1462 -0
609 1462 -0
610 1462 -0.99509004789631994
611 1462 -0
612 1462 -0
613 1462 0
614 1462 0
615 1462 0
616 1462 0
617 1462 0
618 1462 0
619 1462 0
620 1462 0
621 1462 0
622 1462 0
623 1462 0
624 1462 0
1393 1462 0.1112726701807888
1394 1462 -0.18163442438886057
1395 1462 -0.24934842404473068
1396 1462 0.087619788974651794
601 1463 -0
602 1463 -0
603 1463 -0
604 1463 -0
605 1463 -0
606 1463 -0
607 1463 -0
608 1463 -0
609 1463 -0
610 1463 -0
611 1463 -0.99509004789631994
612 1463 -0
613 1463 0
614 1463 0
615 1463 0
616 1463 0
617 1463 0
618 1463 0
619 1463 0
620 1463 0
621 1463 0
622 1463 0
623 1463 0
624 1463 0
1393 1463 0.0048220099123521959
1394 1463 -0.09230703811323461
1395 1463 -0.22028815111069383
1396 1463 -0.062540089363958593
601 1464 -0
602 1464 -0
603 1464 -0
604 1464 -0
605 1464 -0
606 1464 -0
607 1464 -0
608 1464 -0
609 1464 -0
610 1464 -0
611 1464 -0
612 1464 -0.99509004789631994
613 1464 0
614 1464 0
615 1464 0
616 1464 0
617 1464 0
618 1464 0
619 1464 0
620 1464 0
621 1464 0
622 1464 0
623 1464 0
624 1464 0
1393 1464 0.22589481330245723
1394 1464 0.085512196920050021
1395 1464 -0.209328877595194
1396 1464 0.014853171089538656
601 1465 0
602 1465 0
603 1465 0
604 1465 0
605 1465 0
606 1465 0
607 1465 0
608 1465 0
609 1465 0
610 1465 0
611 1465 0
612 1465 0
613 1465 0.99509004789631994
614 1465 0
615 1465 0
616 1465 0
617 1465 0
618 1465 0
619 1465 0
620 1465 0
621 1465 0
622 1465 0
623 1465 0
624 1465 0
1393 1465 0
1394 1465 0
1395 1465 0
1396 1465 0
601 1466 0
602 1466 0
603 1466 0
604 1466 0
605 1466 0
606 1466 0
607 1466 0
608 1466 0
609 1466 0
610 1466 0
611 1466 0
612 1466 0
613 1466 0
614 1466 0.99509004789631994
615 1466 0
616 1466 0
617 1466 0
618 1466 0
619 1466 0
620 1466 0
621 1466 0
622 1466 0
623 1466 0
624 1466 0
1393 1466 0
1394 1466 0
1395 1466 0
1396 1466 0
601 1467 0
602 1467 0
603 1467 0
604 1467 0
605 1467 0
606 1467 0
607 1467 0
608 1467 0
609 1467 0
610 1467 0
611 1467 0
612 1467 0
613 1467 0
614 1467 0
615 1467 0.99509004789631994
616 1467 0
617 1467 0
618 1467 0
619 1467 0
620 1467 0
621 1467 0
622 1467 0
623 1467 0
624 1467 0
1393 1467 0
1394 1467 0
1395 1467 0
1396 1467 0
601 1468 0
602 1468 0
603 1468 0
604 1468 0
605 1468 0
606 1468 0
607 1468 0
608 1468 0
609 1468 0
610 1468 0
611 1468 0
612 1468 0
613 1468 0
614 1468 0
615 1468 0
616 1468 0.99509004789631994
617 1468 0
618 1468 0
619 1468 0
620 1468 0
621 1468 0
622 1468 0
623 1468 0
624 1468 0
1393 1468 0
1394 1468 0
1395 1468 0
1396 1468 0
601 1469 0
602 1469 0
603 1469 0
604 1469 0
605 1469 0
606 1469 0
607 1469 0
608 1469 0
609 1469 0
610 1469 0
611 1469 0
612 1469 0
613 1469 0
614 1469 0
615 1469 0
616 1469 0
617 1469 0.99509004789631994
618 1469 0
619 1469 0
620 1469 0
621 1469 0
622 1469 0
623 1469 0
624 1469 0
1393 1469 0
1394 1469 0
1395 1469 0
1396 1469 0
601 1470 0
602 1470 0
603 1470 0
604 1470 0
605 1470 0
606 1470 0
607 1470 0
608 1470 0
609 1470 0
610 1470 0
611 1470 0
612 1470 0
613 1470 0
614 1470 0
615 1470 0
616 1470 0
617 1470 0
618 1470 0.99509004789631994
619 1470 0
620 1470 0
621 1470 0
622 1470 0
623 1470 0
624 1470 0
1393 1470 0
1394 1470 0
1395 1470 0
1396 1470 0
601 1471 0
602 1471 0
603 1471 0
604 1471 0
605 1471 0
606 1471 0
607 1471 0
608 1471 0
609 1471 0
610 1471 0
611 1471 0
612 1471 0
613 1471 0
614 1471 0
615 1471 0
616 1471 0
617 1471 0
618 1471 0
619 1471 0.99509004789631994
620 1471 0
621 1471 0
622 1471 0
623 1471 0
624 1471 0
1393 1471 0
1394 1471 0
1395 1471 0
1396 1471 0
601 1472 0
602 1472 0
603 1472 0
604 1472 0
605 1472 0
606 1472 0
607 1472 0
608 1472 0
609 1472 0
610 1472 0
611 1472 0
612 1472 0
613 1472 0
614 1472 0
615 1472 0
616 1472 0
617 1472 0
618 1472 0
619 1472 0
620 1472 0.99509004789631994
621 1472 0
622 1472 0
623 1472 0
624 1472 0
1393 1472 0
1394 1472 0
1395 1472 0
1396 1472 0
601 1473 0
602 1473 0
603 1473 0
604 1473 0
605 1473 0
606 1473 0
607 1473 0
608 1473 0
609 1473 0
610 1473 0
611 1473 0
612 1473 0
613 1473 0
614 1473 0
615 1473 0
616 1473 0
617 1473 0
618 1473 0
619 1473 0
620 1473 0
621 1473 0.99509004789631994
622 1473 0
623 1473 0
624 1473 0
1393 1473 0
1394 1473 0
1395 1473 0
1396 1473 0
601 1474 0
602 1474 0
603 1474 0
604 1474 0
605 1474 0
606 1474 0
607 1474 0
608 1474 0
609 1474 0
610 1474 0
611 1474 0
612 1474 0
613 1474 0
614 1474 0
615 1474 0
616 1474 0
617 1474 0
618 1474 0
619 1474 0
620 1474 0
621 1474 0
622 1474 0.99509004789631994
623 1474 0
624 1474 0
1393 1474 0
1394 1474 0
1395 1474 0
1396 1474 0
601 1475 0
602 1475 0
603 1475 0
604 1475 0
605 1475 0
606 1475 0
607 1475 0
608 1475 0
609 1475 0
610 1475 0
611 1475 0
612 1475 0
613 1475 0
614 1475 0
615 1475 0
616 1475 0
617 1475 0
618 1475 0
619 1475 0
620 1475 0
621 1475 0
622 1475 0
623 1475 0.99509004789631994
624 1475 0
1393 1475 0
1394 1475 0
1395 1475 0
1396 1475 0
601 1476 0
602 1476 0
603 1476 0
604 1476 0
605 1476 0
606 1476 0
607 1476 0
608 1476 0
609 1476 0
610 1476 0
611 1476 0
612 1476 0
613 1476 0
614 1476 0
615 1476 0
616 1476 0
617 1476 0
618 1476 0
619 1476 0
620 1476 0
621 1476 0
622 1476 0
623 1476 0
624 1476 0.99509004789631994
1393 1476 0
1394 1476 0
1395 1476 0
1396 1476 0
1389 1477 0
1390 1477 0
1391 1477 0
1392 1477 0
1643 1477 0
1389 1478 0.99878751991636638
1390 1478 0
1391 1478 0
1392 1478 0
1643 1478 0
1389 1479 0
1390 1479 0.99886974093913028
1391 1479 0
1392 1479 0
1643 1479 0
1389 1480 0
1390 1480 0
1391 1480 0.99859691322799182
1392 1480 0
1643 1480 0
1389 1481 0
1390 1481 0
1391 1481 0
1392 1481 0.99879118685427859
1643 1481 0
1389 1482 0
1390 1482 0
1391 1482 0
1392 1482 0
1643 1482 1
589 1483 -0.99509004789631994
590 1483 -0
591 1483 -0
592 1483 -0
593 1483 -0
594 1483 -0
595 1483 -0
596 1483 -0
597 1483 -0
598 1483 -0
599 1483 -0
600 1483 -0
601 1483 0
602 1483 0
603 1483 0
604 1483 0
605 1483 0
606 1483 0
607 1483 0
608 1483 0
609 1483 0
610 1483 0
611 1483 0
612 1483 0
1389 1483 -0.1803189598547551
1390 1483 -0.25584631152049064
1391 1483 -0.074765084896359371
1392 1483 -0.06244980534901011
589 1484 -0
590 1484 -0.99509004789631994
591 1484 -0
592 1484 -0
593 1484 -0
594 1484 -0
595 1484 -0
596 1484 -0
597 1484 -0
598 1484 -0
599 1484 -0
600 1484 -0
601 1484 0
602 1484 0
603 1484 0
604 1484 0
605 1484 0
606 1484 0
607 1484 0
608 1484 0
609 1484 0
610 1484 0
611 1484 0
612 1484 0
1389 1484 0.10820261428783474
1390 1484 0.080196783561304039
1391 1484 -0.016866001348705428
1392 1484 -0.17094248486675911
589 1485 -0
590 1485 -0
591 1485 -0.99509004789631994
592 1485 -0
593 1485 -0
594 1485 -0
595 1485 -0
596 1485 -0
597 1485 -0
598 1485 -0
599 1485 -0
600 1485 -0
601 1485 0
602 1485 0
603 1485 0
604 1485 0
605 1485 0
606 1485 0
607 1485 0
608 1485 0
609 1485 0
610 1485 0
611 1485 0
612 1485 0
1389 1485 0.021296203412182201
1390 1485 0.06379387941368389
1391 1485 0.33227429440027084
1392 1485 0.038055274961526345
589 1486 -0
590 1486 -0
591 1486 -0
592 1486 -0.99509004789631994
593 1486 -0
594 1486 -0
595 1486 -0
596 1486 -0
597 1486 -0
598 1486 -0
599 1486 -0
600 1486 -0
601 1486 0
602 1486 0
603 1486 0
604 1486 0
605 1486 0
606 1486 0
607 1486 0
608 1486 0
609 1486 0
610 1486 0
611 1486 0
612 1486 0
1389 1486 0.19846746771042395
1390 1486 0.13291349456905685
1391 1486 -0.11659569025066187
1392 1486 0.1709989853023412
589 1487 -0
590 1487 -0
591 1487 -0
592 1487 -0
593 1487 -0.99509004789631994
594 1487 -0
595 1487 -0
596 1487 -0
597 1487 -0
598 1487 -0
599 1487 -0
600 1487 -0
601 1487 0
602 1487 0
603 1487 0
604 1487 0
605 1487 0
606 1487 0
607 1487 0
608 1487 0
609 1487 0
610 1487 0
611 1487 0
612 1487 0
1389 1487 0.06406726430169403
1390 1487 0.0077975121873435499
1391 1487 -0.012888481757033089
1392 1487 0.1821584263174176
589 1488 -0
590 1488 -0
591 1488 -0
592 1488 -0
593 1488 -0
594 1488 -0.99509004789631994
595 1488 -0
596 1488 -0
597 1488 -0
598 1488 -0
599 1488 -0
600 1488 -0
601 1488 0
602 1488 0
603 1488 0
604 1488 0
605 1488 0
606 1488 0
607 1488 0
608 1488 0
609 1488 0
610 1488 0
611 1488 0
612 1488 0
1389 1488 0.14930176975937659
1390 1488 -0.1220518999462523
1391 1488 -0.21437482240798272
1392 1488 -0.27728111366749703
589 1489 -0
590 1489 -0
591 1489 -0
592 1489 -0
593 1489 -0
594 1489 -0
595 1489 -0.99509004789631994
596 1489 -0
597 1489 -0
598 1489 -0
599 1489 -0
600 1489 -0
601 1489 0
602 1489 0
603 1489 0
604 1489 0
605 1489 0
606 1489 0
607 1489 0
608 1489 0
609 1489 0
610 1489 0
611 1489 0
612 1489 0
1389 1489 -0.27832449100114248
1390 1489 -0.023030066571549251
1391 1489 0.085999904285044407
1392 1489 0.14042558666593874
589 1490 -0
590 1490 -0
591 1490 -0
592 1490 -0
593 1490 -0
594 1490 -0
595 1490 -0
596 1490 -0.99509004789631994
597 1490 -0
598 1490 -0
599 1490 -0
600 1490 -0
601 1490 0
602 1490 0
603 1490 0
604 1490 0
605 1490 0
606 1490 0
607 1490 0
608 1490 0
609 1490 0
610 1490 0
611 1490 0
612 1490 0
1389 1490 0.14426661227624929
1390 1490 0.019112219351713613
1391 1490 -0.3383340256558125
1392 1490 -0.26332006554483989
589 1491 -0
590 1491 -0
591 1491 -0
592 1491 -0
593 1491 -0
594 1491 -0
595 1491 -0
596 1491 -0
597 1491 -0.99509004789631994
598 1491 -0
599 1491 -0
600 1491 -0
601 1491 0
602 1491 0
603 1491 0
604 1491 0
605 1491 0
606 1491 0
607 1491 0
608 1491 0
609 1491 0
610 1491 0
611 1491 0
612 1491 0
1389 1491 -0.11462509557936003
1390 1491 -0.065598224589830417
1391 1491 0.12045547271290091
1392 1491 0.066735657880519217
589 1492 -0
590 1492 -0
591 1492 -0
592 1492 -0
593 1492 -0
594 1492 -0
595 1492 -0
596 1492 -0
597 1492 -0
598 1492 -0.99509004789631994
599 1492 -0
600 1492 -0
601 1492 0
602 1492 0
603 1492 0
604 1492 0
605 1492 0
606 1492 0
607 1492 0
608 1492 0
609 1492 0
610 1492 0
611 1492 0
612 1492 0
1389 1492 0.1112726701807888
1390 1492 -0.18163442438886057
1391 1492 -0.24934842404473068
1392 1492 0.087619788974651794
589 1493 -0
590 1493 -0
591 1493 -0
592 1493 -0
593 1493 -0
594 1493 -0
595 1493 -0
596 1493 -0
597 1493 -0
598 1493 -0
599 1493 -0.99509004789631994
600 1493 -0
601 1493 0
602 1493 0
603 1493 0
604 1493 0
605 1493 0
606 1493 0
607 1493 0
608 1493 0
609 1493 0
610 1493 0
611 1493 0
612 1493 0
1389 1493 0.0048220099123521959
1390 1493 -0.09230703811323461
1391 1493 -0.22028815111069383
1392 1493 -0.062540089363958593
589 1494 -0
590 1494 -0
591 1494 -0
592 1494 -0
593 1494 -0
594 1494 -0
595 1494 -0
596 1494 -0
597 1494 -0
598 1494 -0
599 1494 -0
600 1494 -0.99509004789631994
601 1494 0
602 1494 0
603 1494 0
604 1494 0
605 1494 0
606 1494 0
607 1494 0
608 1494 0
609 1494 0
610 1494 0
611 1494 0
612 1494 0
1389 1494 0.22589481330245723
1390 1494 0.085512196920050021
1391 1494 -0.209328877595194
1392 1494 0.014853171089538656
589 1495 0
590 1495 0
591 1495 0
592 1495 0
593 1495 0
594 1495 0
595 1495 0
596 1495 0
597 1495 0
598 1495 0
599 1495 0
600 1495 0
601 1495 0.99509004789631994
602 1495 0
603 1495 0
604 1495 0
605 1495 0
606 1495 0
607 1495 0
608 1495 0
609 1495 0
610 1495 0
611 1495 0
612 1495 0
1389 1495 0
1390 1495 0
1391 1495 0
1392 1495 0
589 1496 0
590 1496 0
591 1496 0
592 1496 0
593 1496 0
594 1496 0
595 1496 0
596 1496 0
597 1496 0
598 1496 0
599 1496 0
600 1496 0
601 1496 0
602 1496 0.99509004789631994
603 1496 0
604 1496 0
605 1496 0
606 1496 0
607 1496 0
608 1496 0
609 1496 0
610 1496 0
611 1496 0
612 1496 0
1389 1496 0
1390 1496 0
1391 1496 0
1392 1496 0
589 1497 0
590 1497 0
591 1497 0
592 1497 0
593 1497 0
594 1497 0
595 1497 0
596 1497 0
597 1497 0
598 1497 0
599 1497 0
600 1497 0
601 1497 0
602 1497 0
603 1497 0.99509004789631994
604 1497 0
605 1497 0
606 1497 0
607 1497 0
608 1497 0
609 1497 0
610 1497 0
611 1497 0
612 1497 0
1389 1497 0
1390 1497 0
1391 1497 0
1392 1497 0
589 1498 0
590 1498 0
591 1498 0
592 1498 0
593 1498 0
594 1498 0
595 1498 0
596 1498 0
597 1498 0
598 1498 0
599 1498 0
600 1498 0
601 1498 0
602 1498 0
603 1498 0
604 1498 0.99509004789631994
605 1498 0
606 1498 0
607 1498 0
608 1498 0
609 1498 0
610 1498 0
611 1498 0
612 1498 0
1389 1498 0
1390 1498 0
1391 1498 0
1392 1498 0
589 1499 0
590 1499 0
591 1499 0
592 1499 0
593 1499 0
594 1499 0
595 1499 0
596 1499 0
597 1499 0
598 1499 0
599 1499 0
600 1499 0
601 1499 0
602 1499 0
603 1499 0
604 1499 0
605 1499 0.99509004789631994
606 1499 0
607 1499 0
608 1499 0
609 1499 0
610 1499 0
611 1499 0
612 1499 0
1389 1499 0
1390 1499 0
1391 1499 0
1392 1499 0
589 1500 0
590 1500 0
591 1500 0
592 1500 0
593 1500 0
594 1500 0
595 1500 0
596 1500 0
597 1500 0
598 1500 0
599 1500 0
600 1500 0
601 1500 0
602 1500 0
603 1500 0
604 1500 0
605 1500 0
606 1500 0.99509004789631994
607 1500 0
608 1500 0
609 1500 0
610 1500 0
611 1500 0
612 1500 0
1389 1500 0
1390 1500 0
1391 1500 0
1392 1500 0
589 1501 0
590 1501 0
591 1501 0
592 1501 0
593 1501 0
594 1501 0
595 1501 0
596 1501 0
597 1501 0
598 1501 0
599 1501 0
600 1501 0
601 1501 0
602 1501 0
603 1501 0
604 1501 0
605 1501 0
606 1501 0
607 1501 0.99509004789631994
608 1501 0
609 1501 0
610 1501 0
611 1501 0
612 1501 0
1389 1501 0
1390 1501 0
1391 1501 0
1392 1501 0
589 1502 0
590 1502 0
591 1502 0
592 1502 0
593 1502 0
594 1502 0
595 1502 0
596 1502 0
597 1502 0
598 1502 0
599 1502 0
600 1502 0
601 1502 0
602 1502 0
603 1502 0
604 1502 0
605 1502 0
606 1502 0
607 1502 0
608 1502 0.99509004789631994
609 1502 0
610 1502 0
611 1502 0
612 1502 0
1389 1502 0
1390 1502 0
1391 1502 0
1392 1502 0
589 1503 0
590 1503 0
591 1503 0
592 1503 0
593 1503 0
594 1503 0
595 1503 0
596 1503 0
597 1503 0
598 1503 0
599 1503 0
600 1503 0
601 1503 0
602 1503 0
603 1503 0
604 1503 0
605 1503 0
606 1503 0
607 1503 0
608 1503 0
609 1503 0.99509004789631994
610 1503 0
611 1503 0
612 1503 0
1389 1503 0
1390 1503 0
1391 1503 0
1392 1503 0
589 1504 0
590 1504 0
591 1504 0
592 1504 0
593 1504 0
594 1504 0
595 1504 0
596 1504 0
597 1504 0
598 1504 0
599 1504 0
600 1504 0
601 1504 0
602 1504 0
603 1504 0
604 1504 0
605 1504 0
606 1504 0
607 1504 0
608 1504 0
609 1504 0
610 1504 0.99509004789631994
611 1504 0
612 1504 0
1389 1504 0
1390 1504 0
1391 1504 0
1392 1504 0
589 1505 0
590 1505 0
591 1505 0
592 1505 0
593 1505 0
594 1505 0
595 1505 0
596 1505 0
597 1505 0
598 1505 0
599 1505 0
600 1505 0
601 1505 0
602 1505 0
603 1505 0
604 1505 0
605 1505 0
606 1505 0
607 1505 0
608 1505 0
609 1505 0
610 1505 0
611 1505 0.99509004789631994
612 1505 0
1389 1505 0
1390 1505 0
1391 1505 0
1392 1505 0
589 1506 0
590 1506 0
591 1506 0
592 1506 0
593 1506 0
594 1506 0
595 1506 0
596 1506 0
597 1506 0
598 1506 0
599 1506 0
600 1506 0
601 1506 0
602 1506 0
603 1506 0
604 1506 0
605 1506 0
606 1506 0
607 1506 0
608 1506 0
609 1506 0
610 1506 0
611 1506 0
612 1506 0.99509004789631994
1389 1506 0
1390 1506 0
1391 1506 0
1392 1506 0
1385 1507 0
1386 1507 0
1387 1507 0
1388 1507 0
1642 1507 0
1385 1508 0.99878751991636638
1386 1508 0
1387 1508 0
1388 1508 0
1642 1508 0
1385 1509 0
1386 1509 0.99886974093913028
1387 1509 0
1388 1509 0
1642 1509 0
1385 1510 0
1386 1510 0
1387 1510 0.99859691322799182
1388 1510 0
1642 1510 0
1385 1511 0
1386 1511 0
1387 1511 0
1388 1511 0.99879118685427859
1642 1511 0
1385 1512 0
1386 1512 0
1387 1512 0
1388 1512 0
1642 1512 1
577 1513 -0.99509004789631994
578 1513 -0
579 1513 -0
580 1513 -0
581 1513 -0
582 1513 -0
583 1513 -0
584 1513 -0
585 1513 -0
586 1513 -0
587 1513 -0
588 1513 -0
589 1513 0
590 1513 0
591 1513 0
592 1513 0
593 1513 0
594 1513 0
595 1513 0
596 1513 0
597 1513 0
598 1513 0
599 1513 0
600 1513 0
1385 1513 -0.1803189598547551
1386 1513 -0.25584631152049064
1387 1513 -0.074765084896359371
1388 1513 -0.06244980534901011
577 1514 -0
578 1514 -0.99509004789631994
579 1514 -0
580 1514 -0
581 1514 -0
582 1514 -0
583 1514 -0
584 1514 -0
585 1514 -0
586 1514 -0
587 1514 -0
588 1514 -0
589 1514 0
590 1514 0
591 1514 0
592 1514 0
593 1514 0
594 1514 0
595 1514 0
596 1514 0
597 1514 0
598 1514 0
599 1514 0
600 1514 0
1385 1514 0.10820261428783474
1386 1514 0.080196783561304039
1387 1514 -0.016866001348705428
1388 1514 -0.17094248486675911
577 1515 -0
578 1515 -0
579 1515 -0.99509004789631994
580 1515 -0
581 1515 -0
582 1515 -0
583 1515 -0
584 1515 -0
585 1515 -0
586 1515 -0
587 1515 -0
588 1515 -0
589 1515 0
590 1515 0
591 1515 0
592 1515 0
593 1515 0
594 1515 0
595 1515 0
596 1515 0
597 1515 0
598 1515 0
599 1515 0
600 1515 0
1385 1515 0.021296203412182201
1386 1515 0.06379387941368389
1387 1515 0.33227429440027084
1388 1515 0.038055274961526345
577 1516 -0
578 1516 -0
579 1516 -0
580 1516 -0.99509004789631994
581 1516 -0
582 1516 -0
583 1516 -0
584 1516 -0
585 1516 -0
586 1516 -0
587 1516 -0
588 1516 -0
589 1516 0
590 1516 0
591 1516 0
592 1516 0
593 1516 0
594 1516 0
595 1516 0
596 1516 0
597 1516 0
598 1516 0
599 1516 0
600 1516 0
1385 1516 0.19846746771042395
1386 1516 0.13291349456905685
1387 1516 -0.11659569025066187
1388 1516 0.1709989853023412
577 1517 -0
578 1517 -0
579 1517 -0
580 1517 -0
581 1517 -0.99509004789631994
582 1517 -0
583 1517 -0
584 1517 -0
585 1517 -0
586 1517 -0
587 1517 -0
588 1517 -0
589 1517 0
590 1517 0
591 1517 0
592 1517 0
593 1517 0
594 1517 0
595 1517 0
596 1517 0
597 1517 0
598 1517 0
599 1517 0
600 1517 0
1385 1517 0.06406726430169403
1386 1517 0.0077975121873435499
1387 1517 -0.012888481757033089
1388 1517 0.1821584263174176
577 1518 -0
578 1518 -0
579 1518 -0
580 1518 -0
581 1518 -0
582 1518 -0.99509004789631994
583 1518 -0
584 1518 -0
585 1518 -0
586 1518 -0
587 1518 -0
588 1518 -0
589 1518 0
590 1518 0
591 1518 0
592 1518 0
593 1518 0
594 1518 0
595 1518 0
596 1518 0
597 1518 0
598 1518 0
599 1518 0
600 1518 0
1385 1518 0.14930176975937659
1386 1518 -0.1220518999462523
1387 1518 -0.21437482240798272
1388 1518 -0.27728111366749703
577 1519 -0
578 1519 -0
579 1519 -0
580 1519 -0
581 1519 -0
582 1519 -0
583 1519 -0.99509004789631994
584 1519 -0
585 1519 -0
586 1519 -0
587 1519 -0
588 1519 -0
589 1519 0
590 1519 0
591 1519 0
592 1519 0
593 1519 0
594 1519 0
595 1519 0
596 1519 0
597 1519 0
598 1519 0
599 1519 0
600 1519 0
1385 1519 -0.27832449100114248
1386 1519 -0.023030066571549251
1387 1519 0.085999904285044407
1388 1519 0.14042558666593874
577 1520 -0
578 1520 -0
579 1520 -0
580 1520 -0
581 1520 -0
582 1520 -0
583 1520 -0
584 1520 -0.99509004789631994
585 1520 -0
586 1520 -0
587 1520 -0
588 1520 -0
589 1520 0
590 1520 0
591 1520 0
592 1520 0
593 1520 0
594 1520 0
595 1520 0
596 1520 0
597 1520 0
598 1520 0
599 1520 0
600 1520 0
1385 1520 0.14426661227624929
1386 1520 0.019112219351713613
1387 1520 -0.3383340256558125
1388 1520 -0.26332006554483989
577 1521 -0
578 1521 -0
579 1521 -0
580 1521 -0
581 1521 -0
582 1521 -0
583 1521 -0
584 1521 -0
585 1521 -0.99509004789631994
586 1521 -0
587 1521 -0
588 1521 -0
589 1521 0
590 1521 0
591 1521 0
592 1521 0
593 1521 0
594 1521 0
595 1521 0
596 1521 0
597 1521 0
598 1521 0
599 1521 0
600 1521 0
1385 1521 -0.11462509557936003
1386 1521 -0.065598224589830417
1387 1521 0.12045547271290091
1388 1521 0.066735657880519217
577 1522 -0
578 1522 -0
579 1522 -0
580 1522 -0
581 1522 -0
582 1522 -0
583 1522 -0
584 1522 -0
585 1522 -0
586 1522 -0.99509004789631994
587 1522 -0
588 1522 -0
589 1522 0
590 1522 0
591 1522 0
592 1522 0
593 1522 0
594 1522 0
595 1522 0
596 1522 0
597 1522 0
598 1522 0
599 1522 0
600 1522 0
1385 1522 0.1112726701807888
1386 1522 -0.18163442438886057
1387 1522 -0.24934842404473068
1388 1522 0.087619788974651794
577 1523 -0
578 1523 -0
579 1523 -0
580 1523 -0
581 1523 -0
582 1523 -0
583 1523 -0
584 1523 -0
585 1523 -0
586 1523 -0
587 1523 -0.99509004789631994
588 1523 -0
589 1523 0
590 1523 0
591 1523 0
592 1523 0
593 1523 0
594 1523 0
595 1523 0
596 1523 0
597 1523 0
598 1523 0
599 1523 0
600 1523 0
1385 1523 0.0048220099123521959
1386 1523 -0.09230703811323461
1387 1523 -0.22028815111069383
1388 1523 -0.062540089363958593
577 1524 -0
578 1524 -0
579 1524 -0
580 1524 -0
581 1524 -0
582 1524 -0
583 1524 -0
584 1524 -0
585 1524 -0
586 1524 -0
587 1524 -0
588 1524 -0.99509004789631994
589 1524 0
590 1524 0
591 1524 0
592 1524 0
593 1524 0
594 1524 0
595 1524 0
596 1524 0
597 1524 0
598 1524 0
599 1524 0
600 1524 0
1385 1524 0.22589481330245723
1386 1524 0.085512196920050021
1387 1524 -0.209328877595194
1388 1524 0.014853171089538656
577 1525 0
578 1525 0
579 1525 0
580 1525 0
581 1525 0
582 1525 0
583 1525 0
584 1525 0
585 1525 0
586 1525 0
587 1525 0
588 1525 0
589 1525 0.99509004789631994
590 1525 0
591 1525 0
592 1525 0
593 1525 0
594 1525 0
595 1525 0
596 1525 0
597 1525 0
598 1525 0
599 1525 0
600 1525 0
1385 1525 0
1386 1525 0
1387 1525 0
1388 1525 0
577 1526 0
578 1526 0
579 1526 0
580 1526 0
581 1526 0
582 1526 0
583 1526 0
584 1526 0
585 1526 0
586 1526 0
587 1526 0
588 1526 0
589 1526 0
590 1526 0.99509004789631994
591 1526 0
592 1526 0
593 1526 0
594 1526 0
595 1526 0
596 1526 0
597 1526 0
598 1526 0
599 1526 0
600 1526 0
1385 1526 0
1386 1526 0
1387 1526 0
1388 1526 0
577 1527 0
578 1527 0
579 1527 0
580 1527 0
581 1527 0
582 1527 0
583 1527 0
584 1527 0
585 1527 0
586 1527 0
587 1527 0
588 1527 0
589 1527 0
590 1527 0
591 1527 0.99509004789631994
592 1527 0
593 1527 0
594 1527 0
595 1527 0
596 1527 0
597 1527 0
598 1527 0
599 1527 0
600 1527 0
1385 1527 0
1386 1527 0
1387 1527 0
1388 1527 0
577 1528 0
578 1528 0
579 1528 0
580 1528 0
581 1528 0
582 1528 0
583 1528 0
584 1528 0
585 1528 0
586 1528 0
587 1528 0
588 1528 0
589 1528 0
590 1528 0
591 1528 0
592 1528 0.99509004789631994
593 1528 0
594 1528 0
595 1528 0
596 1528 0
597 1528 0
598 1528 0
599 1528 0
600 1528 0
1385 1528 0
1386 1528 0
1387 1528 0
1388 1528 0
577 1529 0
578 1529 0
579 1529 0
580 1529 0
581 1529 0
582 1529 0
583 1529 0
584 1529 0
585 1529 0
586 1529 0
587 1529 0
588 1529 0
589 1529 0
590 1529 0
591 1529 0
592 1529 0
593 1529 0.99509004789631994
594 1529 0
595 1529 0
596 1529 0
597 1529 0
598 1529 0
599 1529 0
600 1529 0
1385 1529 0
1386 1529 0
1387 1529 0
1388 1529 0
577 1530 0
578 1530 0
579 1530 0
580 1530 0
581 1530 0
582 1530 0
583 1530 0
584 1530 0
585 1530 0
586 1530 0
587 1530 0
588 1530 0
589 1530 0
590 1530 0
591 1530 0
592 1530 0
593 1530 0
594 1530 0.99509004789631994
595 1530 0
596 1530 0
597 1530 0
598 1530 0
599 1530 0
600 1530 0
1385 1530 0
1386 1530 0
1387 1530 0
1388 1530 0
577 1531 0
578 1531 0
579 1531 0
580 1531 0
581 1531 0
582 1531 0
583 1531 0
584 1531 0
585 1531 0
586 1531 0
587 1531 0
588 1531 0
589 1531 0
590 1531 0
591 1531 0
592 1531 0
593 1531 0
594 1531 0
595 1531 0.99509004789631994
596 1531 0
597 1531 0
598 1531 0
599 1531 0
600 1531 0
1385 1531 0
1386 1531 0
1387 1531 0
1388 1531 0
577 1532 0
578 1532 0
579 1532 0
580 1532 0
581 1532 0
582 1532 0
583 1532 0
584 1532 0
585 1532 0
586 1532 0
587 1532 0
588 1532 0
589 1532 0
590 1532 0
591 1532 0
592 1532 0
593 1532 0
594 1532 0
595 1532 0
596 1532 0.99509004789631994
597 1532 0
598 1532 0
599 1532 0
600 1532 0
1385 1532 0
1386 1532 0
1387 1532 0
1388 1532 0
577 1533 0
578 1533 0
579 1533 0
580 1533 0
581 1533 0
582 1533 0
583 1533 0
584 1533 0
585 1533 0
586 1533 0
587 1533 0
588 1533 0
589 1533 0
590 1533 0
591 1533 0
592 1533 0
593 1533 0
594 1533 0
595 1533 0
596 1533 0
597 1533 0.99509004789631994
598 1533 0
599 1533 0
600 1533 0
1385 1533 0
1386 1533 0
1387 1533 0
1388 1533 0
577 1534 0
578 1534 0
579 1534 0
580 1534 0
581 1534 0
582 1534 0
583 1534 0
584 1534 0
585 1534 0
586 1534 0
587 1534 0
588 1534 0
589 1534 0
590 1534 0
591 1534 0
592 1534 0
593 1534 0
594 1534 0
595 1534 0
596 1534 0
597 1534 0
598 1534 0.99509004789631994
599 1534 0
600 1534 0
1385 1534 0
1386 1534 0
1387 1534 0
1388 1534 0
577 1535 0
578 1535 0
579 1535 0
580 1535 0
581 1535 0
582 1535 0
583 1535 0
584 1535 0
585 1535 0
586 1535 0
587 1535 0
588 1535 0
589 1535 0
590 1535 0
591 1535 0
592 1535 0
593 1535 0
594 1535 0
595 1535 0
596 1535 0
597 1535 0
598 1535 0
599 1535 0.99509004789631994
600 1535 0
1385 1535 0
1386 1535 0
1387 1535 0
1388 1535 0
577 1536 0
578 1536 0
579 1536 0
580 1536 0
581 1536 0
582 1536 0
583 1536 0
584 1536 0
585 1536 0
586 1536 0
587 1536 0
588 1536 0
589 1536 0
590 1536 0
591 1536 0
592 1536 0
593 1536 0
594 1536 0
595 1536 0
596 1536 0
597 1536 0
598 1536 0
599 1536 0
600 1536 0.99509004789631994
1385 1536 0
1386 1536 0
1387 1536 0
1388 1536 0
1381 1537 0
1382 1537 0
1383 1537 0
1384 1537 0
1641 1537 0
1381 1538 0.99878751991636638
1382 1538 0
1383 1538 0
1384 1538 0
1641 1538 0
1381 1539 0
1382 1539 0.99886974093913028
1383 1539 0
1384 1539 0
1641 1539 0
1381 1540 0
1382 1540 0
1383 1540 0.99859691322799182
1384 1540 0
1641 1540 0
1381 1541 0
1382 1541 0
1383 1541 0
1384 1541 0.99879118685427859
1641 1541 0
1381 1542 0
1382 1542 0
1383 1542 0
1384 1542 0
1641 1542 1
565 1543 -0.99509004789631994
566 1543 -0
567 1543 -0
568 1543 -0
569 1543 -0
570 1543 -0
571 1543 -0
572 1543 -0
573 1543 -0
574 1543 -0
575 1543 -0
576 1543 -0
577 1543 0
578 1543 0
579 1543 0
580 1543 0
581 1543 0
582 1543 0
583 1543 0
584 1543 0
585 1543 0
586 1543 0
587 1543 0
588 1543 0
1381 1543 -0.1803189598547551
1382 1543 -0.25584631152049064
1383 1543 -0.074765084896359371
1384 1543 -0.06244980534901011
565 1544 -0
566 1544 -0.99509004789631994
567 1544 -0
568 1544 -0
569 1544 -0
570 1544 -0
571 1544 -0
572 1544 -0
573 1544 -0
574 1544 -0
575 1544 -0
576 1544 -0
577 1544 0
578 1544 0
579 1544 0
580 1544 0
581 1544 0
582 1544 0
583 1544 0
584 1544 0
585 1544 0
586 1544 0
587 1544 0
588 1544 0
1381 1544 0.10820261428783474
1382 1544 0.080196783561304039
1383 1544 -0.016866001348705428
1384 1544 -0.17094248486675911
565 1545 -0
566 1545 -0
567 1545 -0.99509004789631994
568 1545 -0
569 1545 -0
570 1545 -0
571 1545 -0
572 1545 -0
573 1545 -0
574 1545 -0
575 1545 -0
576 1545 -0
577 1545 0
578 1545 0
579 1545 0
580 1545 0
581 1545 0
582 1545 0
583 1545 0
584 1545 0
585 1545 0
586 1545 0
587 1545 0
588 1545 0
1381 1545 0.021296203412182201
1382 1545 0.06379387941368389
1383 1545 0.33227429440027084
1384 1545 0.038055274961526345
565 1546 -0
566 1546 -0
567 1546 -0
568 1546 -0.99509004789631994
569 1546 -0
570 1546 -0
571 1546 -0
572 1546 -0
573 1546 -0
574 1546 -0
575 1546 -0
576 1546 -0
577 1546 0
578 1546 0
579 1546 0
580 1546 0
581 1546 0
582 1546 0
583 1546 0
584 1546 0
585 1546 0
586 1546 0
587 1546 0
588 1546 0
1381 1546 0.19846746771042395
1382 1546 0.13291349456905685
1383 1546 -0.11659569025066187
1384 1546 0.1709989853023412
565 1547 -0
566 1547 -0
567 1547 -0
568 1547 -0
569 1547 -0.99509004789631994
570 1547 -0
571 1547 -0
572 1547 -0
573 1547 -0
574 1547 -0
575 1547 -0
576 1547 -0
577 1547 0
578 1547 0
579 1547 0
580 1547 0
581 1547 0
582 1547 0
583 1547 0
584 1547 0
585 1547 0
586 1547 0
587 1547 0
588 1547 0
1381 1547 0.06406726430169403
1382 1547 0.0077975121873435499
1383 1547 -0.012888481757033089
1384 1547 0.1821584263174176
565 1548 -0
566 1548 -0
567 1548 -0
568 1548 -0
569 1548 -0
570 1548 -0.99509004789631994
571 1548 -0
572 1548 -0
573 1548 -0
574 1548 -0
575 1548 -0
576 1548 -0
577 1548 0
578 1548 0
579 1548 0
580 1548 0
581 1548 0
582 1548 0
583 1548 0
584 1548 0
585 1548 0
586 1548 0
587 1548 0
588 1548 0
1381 1548 0.14930176975937659
1382 1548 -0.1220518999462523
1383 1548 -0.21437482240798272
1384 1548 -0.27728111366749703
565 1549 -0
566 1549 -0
567 1549 -0
568 1549 -0
569 1549 -0
570 1549 -0
571 1549 -0.99509004789631994
572 1549 -0
573 1549 -0
574 1549 -0
575 1549 -0
576 1549 -0
577 1549 0
578 1549 0
579 1549 0
580 1549 0
581 1549 0
582 1549 0
583 1549 0
584 1549 0
585 1549 0
586 1549 0
587 1549 0
588 1549 0
1381 1549 -0.27832449100114248
1382 1549 -0.023030066571549251
1383 1549 0.085999904285044407
1384 1549 0.14042558666593874
565 1550 -0
566 1550 -0
567 1550 -0
568 1550 -0
569 1550 -0
570 1550 -0
571 1550 -0
572 1550 -0.99509004789631994
573 1550 -0
574 1550 -0
575 1550 -0
576 1550 -0
577 1550 0
578 1550 0
579 1550 0
580 1550 0
581 1550 0
582 1550 0
583 1550 0
584 1550 0
585 1550 0
586 1550 0
587 1550 0
588 1550 0
1381 1550 0.14426661227624929
1382 1550 0.019112219351713613
1383 1550 -0.3383340256558125
1384 1550 -0.26332006554483989
565 1551 -0
566 1551 -0
567 1551 -0
568 1551 -0
569 1551 -0
570 1551 -0
571 1551 -0
572 1551 -0
573 1551 -0.99509004789631994
574 1551 -0
575 1551 -0
576 1551 -0
577 1551 0
578 1551 0
579 1551 0
580 1551 0
581 1551 0
582 1551 0
583 1551 0
584 1551 0
585 1551 0
586 1551 0
587 1551 0
588 1551 0
1381 1551 -0.11462509557936003
1382 1551 -0.065598224589830417
1383 1551 0.12045547271290091
1384 1551 0.066735657880519217
565 1552 -0
566 1552 -0
567 1552 -0
568 1552 -0
569 1552 -0
570 1552 -0
571 1552 -0
572 1552 -0
573 1552 -0
574 1552 -0.99509004789631994
575 1552 -0
576 1552 -0
577 1552 0
578 1552 0
579 1552 0
580 1552 0
581 1552 0
582 1552 0
583 1552 0
584 1552 0
585 1552 0
586 1552 0
587 1552 0
588 1552 0
1381 1552 0.1112726701807888
1382 1552 -0.18163442438886057
1383 1552 -0.24934842404473068
1384 1552 0.087619788974651794
565 1553 -0
566 1553 -0
567 1553 -0
568 1553 -0
569 1553 -0
570 1553 -0
571 1553 -0
572 1553 -0
573 1553 -0
574 1553 -0
575 1553 -0.99509004789631994
576 1553 -0
577 1553 0
578 1553 0
579 1553 0
580 1553 0
581 1553 0
582 1553 0
583 1553 0
584 1553 0
585 1553 0
586 1553 0
587 1553 0
588 1553 0
1381 1553 0.0048220099123521959
1382 1553 -0.09230703811323461
1383 1553 -0.22028815111069383
1384 1553 -0.062540089363958593
565 1554 -0
566 1554 -0
567 1554 -0
568 1554 -0
569 1554 -0
570 1554 -0
571 1554 -0
572 1554 -0
573 1554 -0
574 1554 -0
575 1554 -0
576 1554 -0.99509004789631994
577 1554 0
578 1554 0
579 1554 0
580 1554 0
581 1554 0
582 1554 0
583 1554 0
584 1554 0
585 1554 0
586 1554 0
587 1554 0
588 1554 0
1381 1554 0.22589481330245723
1382 1554 0.085512196920050021
1383 1554 -0.209328877595194
1384 1554 0.014853171089538656
565 1555 0
566 1555 0
567 1555 0
568 1555 0
569 1555 0
570 1555 0
571 1555 0
572 1555 0
573 1555 0
574 1555 0
575 1555 0
576 1555 0
577 1555 0.99509004789631994
578 1555 0
579 1555 0
580 1555 0
581 1555 0
582 1555 0
583 1555 0
584 1555 0
585 1555 0
586 1555 0
587 1555 0
588 1555 0
1381 1555 0
1382 1555 0
1383 1555 0
1384 1555 0
565 1556 0
566 1556 0
567 1556 0
568 1556 0
569 1556 0
570 1556 0
571 1556 0
572 1556 0
573 1556 0
574 1556 0
575 1556 0
576 1556 0
577 1556 0
578 1556 0.99509004789631994
579 1556 0
580 1556 0
581 1556 0
582 1556 0
583 1556 0
584 1556 0
585 1556 0
586 1556 0
587 1556 0
588 1556 0
1381 1556 0
1382 1556 0
1383 1556 0
1384 1556 0
565 1557 0
566 1557 0
567 1557 0
568 1557 0
569 1557 0
570 1557 0
571 1557 0
572 1557 0
573 1557 0
574 1557 0
575 1557 0
576 1557 0
577 1557 0
578 1557 0
579 1557 0.99509004789631994
580 1557 0
581 1557 0
582 1557 0
583 1557 0
584 1557 0
585 1557 0
586 1557 0
587 1557 0
588 1557 0
1381 1557 0
1382 1557 0
1383 1557 0
1384 1557 0
565 1558 0
566 1558 0
567 1558 0
568 1558 0
569 1558 0
570 1558 0
571 1558 0
572 1558 0
573 1558 0
574 1558 0
575 1558 0
576 1558 0
577 1558 0
578 1558 0
579 1558 0
580 1558 0.99509004789631994
581 1558 0
582 1558 0
583 1558 0
584 1558 0
585 1558 0
586 1558 0
587 1558 0
588 1558 0
1381 1558 0
1382 1558 0
1383 1558 0
1384 1558 0
565 1559 0
566 1559 0
567 1559 0
568 1559 0
569 1559 0
570 1559 0
571 1559 0
572 1559 0
573 1559 0
574 1559 0
575 1559 0
576 1559 0
577 1559 0
578 1559 0
579 1559 0
580 1559 0
581 1559 0.99509004789631994
582 1559 0
583 1559 0
584 1559 0
585 1559 0
586 1559 0
587 1559 0
588 1559 0
1381 1559 0
1382 1559 0
1383 1559 0
1384 1559 0
565 1560 0
566 1560 0
567 1560 0
568 1560 0
569 1560 0
570 1560 0
571 1560 0
572 1560 0
573 1560 0
574 1560 0
575 1560 0
576 1560 0
577 1560 0
578 1560 0
579 1560 0
580 1560 0
581 1560 0
582 1560 0.99509004789631994
583 1560 0
584 1560 0
585 1560 0
586 1560 0
587 1560 0
588 1560 0
1381 1560 0
1382 1560 0
1383 1560 0
1384 1560 0
565 1561 0
566 1561 0
567 1561 0
568 1561 0
569 1561 0
570 1561 0
571 1561 0
572 1561 0
573 1561 0
574 1561 0
575 1561 0
576 1561 0
577 1561 0
578 1561 0
579 1561 0
580 1561 0
581 1561 0
582 1561 0
583 1561 0.99509004789631994
584 1561 0
585 1561 0
586 1561 0
587 1561 0
588 1561 0
1381 1561 0
1382 1561 0
1383 1561 0
1384 1561 0
565 1562 0
566 1562 0
567 1562 0
568 1562 0
569 1562 0
570 1562 0
571 1562 0
572 1562 0
573 1562 0
574 1562 0
575 1562 0
576 1562 0
577 1562 0
578 1562 0
579 1562 0
580 1562 0
581 1562 0
582 1562 0
583 1562 0
584 1562 0.99509004789631994
585 1562 0
586 1562 0
587 1562 0
588 1562 0
1381 1562 0
1382 1562 0
1383 1562 0
1384 1562 0
565 1563 0
566 1563 0
567 1563 0
568 1563 0
569 1563 0
570 1563 0
571 1563 0
572 1563 0
573 1563 0
574 1563 0
575 1563 0
576 1563 0
577 1563 0
578 1563 0
579 1563 0
580 1563 0
581 1563 0
582 1563 0
583 1563 0
584 1563 0
585 1563 0.99509004789631994
586 1563 0
587 1563 0
588 1563 0
1381 1563 0
1382 1563 0
1383 1563 0
1384 1563 0
565 1564 0
566 1564 0
567 1564 0
568 1564 0
569 1564 0
570 1564 0
571 1564 0
572 1564 0
573 1564 0
574 1564 0
575 1564 0
576 1564 0
577 1564 0
578 1564 0
579 1564 0
580 1564 0
581 1564 0
582 1564 0
583 1564 0
584 1564 0
585 1564 0
586 1564 0.99509004789631994
587 1564 0
588 1564 0
1381 1564 0
1382 1564 0
1383 1564 0
1384 1564 0
565 1565 0
566 1565 0
567 1565 0
568 1565 0
569 1565 0
570 1565 0
571 1565 0
572 1565 0
573 1565 0
574 1565 0
575 1565 0
576 1565 0
577 1565 0
578 1565 0
579 1565 0
580 1565 0
581 1565 0
582 1565 0
583 1565 0
584 1565 0
585 1565 0
586 1565 0
587 1565 0.99509004789631994
588 1565 0
1381 1565 0
1382 1565 0
1383 1565 0
1384 1565 0
565 1566 0
566 1566 0
567 1566 0
568 1566 0
569 1566 0
570 1566 0
571 1566 0
572 1566 0
573 1566 0
574 1566 0
575 1566 0
576 1566 0
577 1566 0
578 1566 0
579 1566 0
580 1566 0
581 1566 0
582 1566 0
583 1566 0
584 1566 0
585 1566 0
586 1566 0
587 1566 0
588 1566 0.99509004789631994
1381 1566 0
1382 1566 0
1383 1566 0
1384 1566 0
1377 1567 0
1378 1567 0
1379 1567 0
1380 1567 0
1640 1567 0
1377 1568 0.99878751991636638
1378 1568 0
1379 1568 0
1380 1568 0
1640 1568 0
1377 1569 0
1378 1569 0.99886974093913028
1379 1569 0
1380 1569 0
1640 1569 0
1377 1570 0
1378 1570 0
1379 1570 0.99859691322799182
1380 1570 0
1640 1570 0
1377 1571 0
1378 1571 0
1379 1571 0
1380 1571 0.99879118685427859
1640 1571 0
1377 1572 0
1378 1572 0
1379 1572 0
1380 1572 0
1640 1572 1
553 1573 -0.99509004789631994
554 1573 -0
555 1573 -0
556 1573 -0
557 1573 -0
558 1573 -0
559 1573 -0
560 1573 -0
561 1573 -0
562 1573 -0
563 1573 -0
564 1573 -0
565 1573 0
566 1573 0
567 1573 0
568 1573 0
569 1573 0
570 1573 0
571 1573 0
572 1573 0
573 1573 0
574 1573 0
575 1573 0
576 1573 0
1377 1573 -0.1803189598547551
1378 1573 -0.25584631152049064
1379 1573 -0.074765084896359371
1380 1573 -0.06244980534901011
553 1574 -0
554 1574 -0.99509004789631994
555 1574 -0
556 1574 -0
557 1574 -0
558 1574 -0
559 1574 -0
560 1574 -0
561 1574 -0
562 1574 -0
563 1574 -0
564 1574 -0
565 1574 0
566 1574 0
567 1574 0
568 1574 0
569 1574 0
570 1574 0
571 1574 0
572 1574 0
573 1574 0
574 1574 0
575 1574 0
576 1574 0
1377 1574 0.10820261428783474
1378 1574 0.080196783561304039
1379 1574 -0.016866001348705428
1380 1574 -0.17094248486675911
553 1575 -0
554 1575 -0
555 1575 -0.99509004789631994
556 1575 -0
557 1575 -0
558 1575 -0
559 1575 -0
560 1575 -0
561 1575 -0
562 1575 -0
563 1575 -0
564 1575 -0
565 1575 0
566 1575 0
567 1575 0
568 1575 0
569 1575 0
570 1575 0
571 1575 0
572 1575 0
573 1575 0
574 1575 0
575 1575 0
576 1575 0
1377 1575 0.021296203412182201
1378 1575 0.06379387941368389
1379 1575 0.33227429440027084
1380 1575 0.038055274961526345
553 1576 -0
554 1576 -0
555 1576 -0
556 1576 -0.99509004789631994
557 1576 -0
558 1576 -0
559 1576 -0
560 1576 -0
561 1576 -0
562 1576 -0
563 1576 -0
564 1576 -0
565 1576 0
566 1576 0
567 1576 0
568 1576 0
569 1576 0
570 1576 0
571 1576 0
572 1576 0
573 1576 0
574 1576 0
575 1576 0
576 1576 0
1377 1576 0.19846746771042395
1378 1576 0.13291349456905685
1379 1576 -0.11659569025066187
1380 1576 0.1709989853023412
553 1577 -0
554 1577 -0
555 1577 -0
556 1577 -0
557 1577 -0.99509004789631994
558 1577 -0
559 1577 -0
560 1577 -0
561 1577 -0
562 1577 -0
563 1577 -0
564 1577 -0
565 1577 0
566 1577 0
567 1577 0
568 1577 0
569 1577 0
570 1577 0
571 1577 0
572 1577 0
573 1577 0
574 1577 0
575 1577 0
576 1577 0
1377 1577 0.06406726430169403
1378 1577 0.0077975121873435499
1379 1577 -0.012888481757033089
1380 1577 0.1821584263174176
553 1578 -0
554 1578 -0
555 1578 -0
556 1578 -0
557 1578 -0
558 1578 -0.99509004789631994
559 1578 -0
560 1578 -0
561 1578 -0
562 1578 -0
563 1578 -0
564 1578 -0
565 1578 0
566 1578 0
567 1578 0
568 1578 0
569 1578 0
570 1578 0
571 1578 0
572 1578 0
573 1578 0
574 1578 0
575 1578 0
576 1578 0
1377 1578 0.14930176975937659
1378 1578 -0.1220518999462523
1379 1578 -0.21437482240798272
1380 1578 -0.27728111366749703
553 1579 -0
554 1579 -0
555 1579 -0
556 1579 -0
557 1579 -0
558 1579 -0
559 1579 -0.99509004789631994
560 1579 -0
561 1579 -0
562 1579 -0
563 1579 -0
564 1579 -0
565 1579 0
566 1579 0
567 1579 0
568 1579 0
569 1579 0
570 1579 0
571 1579 0
572 1579 0
573 1579 0
574 1579 0
575 1579 0
576 1579 0
1377 1579 -0.27832449100114248
1378 1579 -0.023030066571549251
1379 1579 0.085999904285044407
1380 1579 0.14042558666593874
553 1580 -0
554 1580 -0
555 1580 -0
556 1580 -0
557 1580 -0
558 1580 -0
559 1580 -0
560 1580 -0.99509004789631994
561 1580 -0
562 1580 -0
563 1580 -0
564 1580 -0
565 1580 0
566 1580 0
567 1580 0
568 1580 0
569 1580 0
570 1580 0
571 1580 0
572 1580 0
573 1580 0
574 1580 0
575 1580 0
576 1580 0
1377 1580 0.14426661227624929
1378 1580 0.019112219351713613
1379 1580 -0.3383340256558125
1380 1580 -0.26332006554483989
553 1581 -0
554 1581 -0
555 1581 -0
556 1581 -0
557 1581 -0
558 1581 -0
559 1581 -0
560 1581 -0
561 1581 -0.99509004789631994
562 1581 -0
563 1581 -0
564 1581 -0
565 1581 0
566 1581 0
567 1581 0
568 1581 0
569 1581 0
570 1581 0
571 1581 0
572 1581 0
573 1581 0
574 1581 0
575 1581 0
576 1581 0
1377 1581 -0.11462509557936003
1378 1581 -0.065598224589830417
1379 1581 0.12045547271290091
1380 1581 0.066735657880519217
553 1582 -0
554 1582 -0
555 1582 -0
556 1582 -0
557 1582 -0
558 1582 -0
559 1582 -0
560 1582 -0
561 1582 -0
562 1582 -0.99509004789631994
563 1582 -0
564 1582 -0
565 1582 0
566 1582 0
567 1582 0
568 1582 0
569 1582 0
570 1582 0
571 1582 0
572 1582 0
573 1582 0
574 1582 0
575 1582 0
576 1582 0
1377 1582 0.1112726701807888
1378 1582 -0.18163442438886057
1379 1582 -0.24934842404473068
1380 1582 0.087619788974651794
553 1583 -0
554 1583 -0
555 1583 -0
556 1583 -0
557 1583 -0
558 1583 -0
559 1583 -0
560 1583 -0
561 1583 -0
562 1583 -0
563 1583 -0.99509004789631994
564 1583 -0
565 1583 0
566 1583 0
567 1583 0
568 1583 0
569 1583 0
570 1583 0
571 1583 0
572 1583 0
573 1583 0
574 1583 0
575 1583 0
576 1583 0
1377 1583 0.0048220099123521959
1378 1583 -0.09230703811323461
1379 1583 -0.22028815111069383
1380 1583 -0.062540089363958593
553 1584 -0
554 1584 -0
555 1584 -0
556 1584 -0
557 1584 -0
558 1584 -0
559 1584 -0
560 1584 -0
561 1584 -0
562 1584 -0
563 1584 -0
564 1584 -0.99509004789631994
565 1584 0
566 1584 0
567 1584 0
568 1584 0
569 1584 0
570 1584 0
571 1584 0
572 1584 0
573 1584 0
574 1584 0
575 1584 0
576 1584 0
1377 1584 0.22589481330245723
1378 1584 0.085512196920050021
1379 1584 -0.209328877595194
1380 1584 0.014853171089538656
553 1585 0
554 1585 0
555 1585 0
556 1585 0
557 1585 0
558 1585 0
559 1585 0
560 1585 0
561 1585 0
562 1585 0
563 1585 0
564 1585 0
565 1585 0.99509004789631994
566 1585 0
567 1585 0
568 1585 0
569 1585 0
570 1585 0
571 1585 0
572 1585 0
573 1585 0
574 1585 0
575 1585 0
576 1585 0
1377 1585 0
1378 1585 0
1379 1585 0
1380 1585 0
553 1586 0
554 1586 0
555 1586 0
556 1586 0
557 1586 0
558 1586 0
559 1586 0
560 1586 0
561 1586 0
562 1586 0
563 1586 0
564 1586 0
565 1586 0
566 1586 0.99509004789631994
567 1586 0
568 1586 0
569 1586 0
570 1586 0
571 1586 0
572 1586 0
573 1586 0
574 1586 0
575 1586 0
576 1586 0
1377 1586 0
1378 1586 0
1379 1586 0
1380 1586 0
553 1587 0
554 1587 0
555 1587 0
556 1587 0
557 1587 0
558 1587 0
559 1587 0
560 1587 0
561 1587 0
562 1587 0
563 1587 0
564 1587 0
565 1587 0
566 1587 0
567 1587 0.99509004789631994
568 1587 0
569 1587 0
570 1587 0
571 1587 0
572 1587 0
573 1587 0
574 1587 0
575 1587 0
576 1587 0
1377 1587 0
1378 1587 0
1379 1587 0
1380 1587 0
553 1588 0
554 1588 0
555 1588 0
556 1588 0
557 1588 0
558 1588 0
559 1588 0
560 1588 0
561 1588 0
562 1588 0
563 1588 0
564 1588 0
565 1588 0
566 1588 0
567 1588 0
568 1588 0.99509004789631994
569 1588 0
570 1588 0
571 1588 0
572 1588 0
573 1588 0
574 1588 0
575 1588 0
576 1588 0
1377 1588 0
1378 1588 0
1379 1588 0
1380 1588 0
553 1589 0
554 1589 0
555 1589 0
556 1589 0
557 1589 0
558 1589 0
559 1589 0
560 1589 0
561 1589 0
562 1589 0
563 1589 0
564 1589 0
565 1589 0
566 1589 0
567 1589 0
568 1589 0
569 1589 0.99509004789631994
570 1589 0
571 1589 0
572 1589 0
573 1589 0
574 1589 0
575 1589 0
576 1589 0
1377 1589 0
1378 1589 0
1379 1589 0
1380 1589 0
553 1590 0
554 1590 0
555 1590 0
556 1590 0
557 1590 0
558 1590 0
559 1590 0
560 1590 0
561 1590 0
562 1590 0
563 1590 0
564 1590 0
565 1590 0
566 1590 0
567 1590 0
568 1590 0
569 1590 0
570 1590 0.99509004789631994
571 1590 0
572 1590 0
573 1590 0
574 1590 0
575 1590 0
576 1590 0
1377 1590 0
1378 1590 0
1379 1590 0
1380 1590 0
553 1591 0
554 1591 0
555 1591 0
556 1591 0
557 1591 0
558 1591 0
559 1591 0
560 1591 0
561 1591 0
562 1591 0
563 1591 0
564 1591 0
565 1591 0
566 1591 0
567 1591 0
568 1591 0
569 1591 0
570 1591 0
571 1591 0.99509004789631994
572 1591 0
573 1591 0
574 1591 0
575 1591 0
576 1591 0
1377 1591 0
1378 1591 0
1379 1591 0
1380 1591 0
553 1592 0
554 1592 0
555 1592 0
556 1592 0
557 1592 0
558 1592 0
559 1592 0
560 1592 0
561 1592 0
562 1592 0
563 1592 0
564 1592 0
565 1592 0
566 1592 0
567 1592 0
568 1592 0
569 1592 0
570 1592 0
571 1592 0
572 1592 0.99509004789631994
573 1592 0
574 1592 0
575 1592 0
576 1592 0
1377 1592 0
1378 1592 0
1379 1592 0
1380 1592 0
553 1593 0
554 1593 0
555 1593 0
556 1593 0
557 1593 0
558 1593 0
559 1593 0
560 1593 0
561 1593 0
562 1593 0
563 1593 0
564 1593 0
565 1593 0
566 1593 0
567 1593 0
568 1593 0
569 1593 0
570 1593 0
571 1593 0
572 1593 0
573 1593 0.99509004789631994
574 1593 0
575 1593 0
576 1593 0
1377 1593 0
1378 1593 0
1379 1593 0
1380 1593 0
553 1594 0
554 1594 0
555 1594 0
556 1594 0
557 1594 0
558 1594 0
559 1594 0
560 1594 0
561 1594 0
562 1594 0
563 1594 0
564 1594 0
565 1594 0
566 1594 0
567 1594 0
568 1594 0
569 1594 0
570 1594 0
571 1594 0
572 1594 0
573 1594 0
574 1594 0.99509004789631994
575 1594 0
576 1594 0
1377 1594 0
1378 1594 0
1379 1594 0
1380 1594 0
553 1595 0
554 1595 0
555 1595 0
556 1595 0
557 1595 0
558 1595 0
559 1595 0
560 1595 0
561 1595 0
562 1595 0
563 1595 0
564 1595 0
565 1595 0
566 1595 0
567 1595 0
568 1595 0
569 1595 0
570 1595 0
571 1595 0
572 1595 0
573 1595 0
574 1595 0
575 1595 0.99509004789631994
576 1595 0
1377 1595 0
1378 1595 0
1379 1595 0
1380 1595 0
553 1596 0
554 1596 0
555 1596 0
556 1596 0
557 1596 0
558 1596 0
559 1596 0
560 1596 0
561 1596 0
562 1596 0
563 1596 0
564 1596 0
565 1596 0
566 1596 0
567 1596 0
568 1596 0
569 1596 0
570 1596 0
571 1596 0
572 1596 0
573 1596 0
574 1596 0
575 1596 0
576 1596 0.99509004789631994
1377 1596 0
1378 1596 0
1379 1596 0
1380 1596 0
1373 1597 0
1374 1597 0
1375 1597 0
1376 1597 0
1639 1597 0
1373 1598 0.99878751991636638
1374 1598 0
1375 1598 0
1376 1598 0
1639 1598 0
1373 1599 0
1374 1599 0.99886974093913028
1375 1599 0
1376 1599 0
1639 1599 0
1373 1600 0
1374 1600 0
1375 1600 0.99859691322799182
1376 1600 0
1639 1600 0
1373 1601 0
1374 1601 0
1375 1601 0
1376 1601 0.99879118685427859
1639 1601 0
1373 1602 0
1374 1602 0
1375 1602 0
1376 1602 0
1639 1602 1
541 1603 -0.99509004789631994
542 1603 -0
543 1603 -0
544 1603 -0
545 1603 -0
546 1603 -0
547 1603 -0
548 1603 -0
549 1603 -0
550 1603 -0
551 1603 -0
552 1603 -0
553 1603 0
554 1603 0
555 1603 0
556 1603 0
557 1603 0
558 1603 0
559 1603 0
560 1603 0
561 1603 0
562 1603 0
563 1603 0
564 1603 0
1373 1603 -0.1803189598547551
1374 1603 -0.25584631152049064
1375 1603 -0.074765084896359371
1376 1603 -0.06244980534901011
541 1604 -0
542 1604 -0.99509004789631994
543 1604 -0
544 1604 -0
545 1604 -0
546 1604 -0
547 1604 -0
548 1604 -0
549 1604 -0
550 1604 -0
551 1604 -0
552 1604 -0
553 1604 0
554 1604 0
555 1604 0
556 1604 0
557 1604 0
558 1604 0
559 1604 0
560 1604 0
561 1604 0
562 1604 0
563 1604 0
564 1604 0
1373 1604 0.10820261428783474
1374 1604 0.080196783561304039
1375 1604 -0.016866001348705428
1376 1604 -0.17094248486675911
541 1605 -0
542 1605 -0
543 1605 -0.99509004789631994
544 1605 -0
545 1605 -0
546 1605 -0
547 1605 -0
548 1605 -0
549 1605 -0
550 1605 -0
551 1605 -0
552 1605 -0
553 1605 0
554 1605 0
555 1605 0
556 1605 0
557 1605 0
558 1605 0
559 1605 0
560 1605 0
561 1605 0
562 1605 0
563 1605 0
564 1605 0
1373 1605 0.021296203412182201
1374 1605 0.06379387941368389
1375 1605 0.33227429440027084
1376 1605 0.038055274961526345
541 1606 -0
542 1606 -0
543 1606 -0
544 1606 -0.99509004789631994
545 1606 -0
546 1606 -0
547 1606 -0
548 1606 -0
549 1606 -0
550 1606 -0
551 1606 -0
552 1606 -0
553 1606 0
554 1606 0
555 1606 0
556 1606 0
557 1606 0
558 1606 0
559 1606 0
560 1606 0
561 1606 0
562 1606 0
563 1606 0
564 1606 0
1373 1606 0.19846746771042395
1374 1606 0.13291349456905685
1375 1606 -0.11659569025066187
1376 1606 0.1709989853023412
541 1607 -0
542 1607 -0
543 1607 -0
544 1607 -0
545 1607 -0.99509004789631994
546 1607 -0
547 1607 -0
548 1607 -0
549 1607 -0
550 1607 -0
551 1607 -0
552 1607 -0
553 1607 0
554 1607 0
555 1607 0
556 1607 0
557 1607 0
558 1607 0
559 1607 0
560 1607 0
561 1607 0
562 1607 0
563 1607 0
564 1607 0
1373 1607 0.06406726430169403
1374 1607 0.0077975121873435499
1375 1607 -0.012888481757033089
1376 1607 0.1821584263174176
541 1608 -0
542 1608 -0
543 1608 -0
544 1608 -0
545 1608 -0
546 1608 -0.99509004789631994
547 1608 -0
548 1608 -0
549 1608 -0
550 1608 -0
551 1608 -0
552 1608 -0
553 1608 0
554 1608 0
555 1608 0
556 1608 0
557 1608 0
558 1608 0
559 1608 0
560 1608 0
561 1608 0
562 1608 0
563 1608 0
564 1608 0
1373 1608 0.14930176975937659
1374 1608 -0.1220518999462523
1375 1608 -0.21437482240798272
1376 1608 -0.27728111366749703
541 1609 -0
542 1609 -0
543 1609 -0
544 1609 -0
545 1609 -0
546 1609 -0
547 1609 -0.99509004789631994
548 1609 -0
549 1609 -0
550 1609 -0
551 1609 -0
552 1609 -0
553 1609 0
554 1609 0
555 1609 0
556 1609 0
557 1609 0
558 1609 0
559 1609 0
560 1609 0
561 1609 0
562 1609 0
563 1609 0
564 1609 0
1373 1609 -0.27832449100114248
1374 1609 -0.023030066571549251
1375 1609 0.085999904285044407
1376 1609 0.14042558666593874
541 1610 -0
542 1610 -0
543 1610 -0
544 1610 -0
545 1610 -0
546 1610 -0
547 1610 -0
548 1610 -0.99509004789631994
549 1610 -0
550 1610 -0
551 1610 -0
552 1610 -0
553 1610 0
554 1610 0
555 1610 0
556 1610 0
557 1610 0
558 1610 0
559 1610 0
560 1610 0
561 1610 0
562 1610 0
563 1610 0
564 1610 0
1373 1610 0.14426661227624929
1374 1610 0.019112219351713613
1375 1610 -0.3383340256558125
1376 1610 -0.26332006554483989
541 1611 -0
542 1611 -0
543 1611 -0
544 1611 -0
545 1611 -0
546 1611 -0
547 1611 -0
548 1611 -0
549 1611 -0.99509004789631994
550 1611 -0
551 1611 -0
552 1611 -0
553 1611 0
554 1611 0
555 1611 0
556 1611 0
557 1611 0
558 1611 0
559 1611 0
560 1611 0
561 1611 0
562 1611 0
563 1611 0
564 1611 0
1373 1611 -0.11462509557936003
1374 1611 -0.065598224589830417
1375 1611 0.12045547271290091
1376 1611 0.066735657880519217
541 1612 -0
542 1612 -0
543 1612 -0
544 1612 -0
545 1612 -0
546 1612 -0
547 1612 -0
548 1612 -0
549 1612 -0
550 1612 -0.99509004789631994
551 1612 -0
552 1612 -0
553 1612 0
554 1612 0
555 1612 0
556 1612 0
557 1612 0
558 1612 0
559 1612 0
560 1612 0
561 1612 0
562 1612 0
563 1612 0
564 1612 0
1373 1612 0.1112726701807888
1374 1612 -0.18163442438886057
1375 1612 -0.24934842404473068
1376 1612 0.087619788974651794
541 1613 -0
542 1613 -0
543 1613 -0
544 1613 -0
545 1613 -0
546 1613 -0
547 1613 -0
548 1613 -0
549 1613 -0
550 1613 -0
551 1613 -0.99509004789631994
552 1613 -0
553 1613 0
554 1613 0
555 1613 0
556 1613 0
557 1613 0
558 1613 0
559 1613 0
560 1613 0
561 1613 0
562 1613 0
563 1613 0
564 1613 0
1373 1613 0.0048220099123521959
1374 1613 -0.09230703811323461
1375 1613 -0.22028815111069383
1376 1613 -0.062540089363958593
541 1614 -0
542 1614 -0
543 1614 -0
544 1614 -0
545 1614 -0
546 1614 -0
547 1614 -0
548 1614 -0
549 1614 -0
550 1614 -0
551 1614 -0
552 1614 -0.99509004789631994
553 1614 0
554 1614 0
555 1614 0
556 1614 0
557 1614 0
558 1614 0
559 1614 0
560 1614 0
561 1614 0
562 1614 0
563 1614 0
564 1614 0
1373 1614 0.22589481330245723
1374 1614 0.085512196920050021
1375 1614 -0.209328877595194
1376 1614 0.014853171089538656
541 1615 0
542 1615 0
543 1615 0
544 1615 0
545 1615 0
546 1615 0
547 1615 0
548 1615 0
549 1615 0
550 1615 0
551 1615 0
552 1615 0
553 1615 0.99509004789631994
554 1615 0
555 1615 0
556 1615 0
557 1615 0
558 1615 0
559 1615 0
560 1615 0
561 1615 0
562 1615 0
563 1615 0
564 1615 0
1373 1615 0
1374 1615 0
1375 1615 0
1376 1615 0
541 1616 0
542 1616 0
543 1616 0
544 1616 0
545 1616 0
546 1616 0
547 1616 0
548 1616 0
549 1616 0
550 1616 0
551 1616 0
552 1616 0
553 1616 0
554 1616 0.99509004789631994
555 1616 0
556 1616 0
557 1616 0
558 1616 0
559 1616 0
560 1616 0
561 1616 0
562 1616 0
563 1616 0
564 1616 0
1373 1616 0
1374 1616 0
1375 1616 0
1376 1616 0
541 1617 0
542 1617 0
543 1617 0
544 1617 0
545 1617 0
546 1617 0
547 1617 0
548 1617 0
549 1617 0
550 1617 0
551 1617 0
552 1617 0
553 1617 0
554 1617 0
555 1617 0.99509004789631994
556 1617 0
557 1617 0
558 1617 0
559 1617 0
560 1617 0
561 1617 0
562 1617 0
563 1617 0
564 1617 0
1373 1617 0
1374 1617 0
1375 1617 0
1376 1617 0
541 1618 0
542 1618 0
543 1618 0
544 1618 0
545 1618 0
546 1618 0
547 1618 0
548 1618 0
549 1618 0
550 1618 0
551 1618 0
552 1618 0
553 1618 0
554 1618 0
555 1618 0
556 1618 0.99509004789631994
557 1618 0
558 1618 0
559 1618 0
560 1618 0
561 1618 0
562 1618 0
563 1618 0
564 1618 0
1373 1618 0
1374 1618 0
1375 1618 0
1376 1618 0
541 1619 0
542 1619 0
543 1619 0
544 1619 0
545 1619 0
546 1619 0
547 1619 0
548 1619 0
549 1619 0
550 1619 0
551 1619 0
552 1619 0
553 1619 0
554 1619 0
555 1619 0
556 1619 0
557 1619 0.99509004789631994
558 1619 0
559 1619 0
560 1619 0
561 1619 0
562 1619 0
563 1619 0
564 1619 0
1373 1619 0
1374 1619 0
1375 1619 0
1376 1619 0
541 1620 0
542 1620 0
543 1620 0
544 1620 0
545 1620 0
546 1620 0
547 1620 0
548 1620 0
549 1620 0
550 1620 0
551 1620 0
552 1620 0
553 1620 0
554 1620 0
555 1620 0
556 1620 0
557 1620 0
558 1620 0.99509004789631994
559 1620 0
560 1620 0
561 1620 0
562 1620 0
563 1620 0
564 1620 0
1373 1620 0
1374 1620 0
1375 1620 0
1376 1620 0
541 1621 0
542 1621 0
543 1621 0
544 1621 0
545 1621 0
546 1621 0
547 1621 0
548 1621 0
549 1621 0
550 1621 0
551 1621 0
552 1621 0
553 1621 0
554 1621 0
555 1621 0
556 1621 0
557 1621 0
558 1621 0
559 1621 0.99509004789631994
560 1621 0
561 1621 0
562 1621 0
563 1621 0
564 1621 0
1373 1621 0
1374 1621 0
1375 1621 0
1376 1621 0
541 1622 0
542 1622 0
543 1622 0
544 1622 0
545 1622 0
546 1622 0
547 1622 0
548 1622 0
549 1622 0
550 1622 0
551 1622 0
552 1622 0
553 1622 0
554 1622 0
555 1622 0
556 1622 0
557 1622 0
558 1622 0
559 1622 0
560 1622 0.99509004789631994
561 1622 0
562 1622 0
563 1622 0
564 1622 0
1373 1622 0
1374 1622 0
1375 1622 0
1376 1622 0
541 1623 0
542 1623 0
543 1623 0
544 1623 0
545 1623 0
546 1623 0
547 1623 0
548 1623 0
549 1623 0
550 1623 0
551 1623 0
552 1623 0
553 1623 0
554 1623 0
555 1623 0
556 1623 0
557 1623 0
558 1623 0
559 1623 0
560 1623 0
561 1623 0.99509004789631994
562 1623 0
563 1623 0
564 1623 0
1373 1623 0
1374 1623 0
1375 1623 0
1376 1623 0
541 1624 0
542 1624 0
543 1624 0
544 1624 0
545 1624 0
546 1624 0
547 1624 0
548 1624 0
549 1624 0
550 1624 0
551 1624 0
552 1624 0
553 1624 0
554 1624 0
555 1624 0
556 1624 0
557 1624 0
558 1624 0
559 1624 0
560 1624 0
561 1624 0
562 1624 0.99509004789631994
563 1624 0
564 1624 0
1373 1624 0
1374 1624 0
1375 1624 0
1376 1624 0
541 1625 0
542 1625 0
543 1625 0
544 1625 0
545 1625 0
546 1625 0
547 1625 0
548 1625 0
549 1625 0
550 1625 0
551 1625 0
552 1625 0
553 1625 0
554 1625 0
555 1625 0
556 1625 0
557 1625 0
558 1625 0
559 1625 0
560 1625 0
561 1625 0
562 1625 0
563 1625 0.99509004789631994
564 1625 0
1373 1625 0
1374 1625 0
1375 1625 0
1376 1625 0
541 1626 0
542 1626 0
543 1626 0
544 1626 0
545 1626 0
546 1626 0
547 1626 0
548 1626 0
549 1626 0
550 1626 0
551 1626 0
552 1626 0
553 1626 0
554 1626 0
555 1626 0
556 1626 0
557 1626 0
558 1626 0
559 1626 0
560 1626 0
561 1626 0
562 1626 0
563 1626 0
564 1626 0.99509004789631994
1373 1626 0
1374 1626 0
1375 1626 0
1376 1626 0
1369 1627 0
1370 1627 0
1371 1627 0
1372 1627 0
1638 1627 0
1369 1628 0.99878751991636638
1370 1628 0
1371 1628 0
1372 1628 0
1638 1628 0
1369 1629 0
1370 1629 0.99886974093913028
1371 1629 0
1372 1629 0
1638 1629 0
1369 1630 0
1370 1630 0
1371 1630 0.99859691322799182
1372 1630 0
1638 1630 0
1369 1631 0
1370 1631 0
1371 1631 0
1372 1631 0.99879118685427859
1638 1631 0
1369 1632 0
1370 1632 0
1371 1632 0
1372 1632 0
1638 1632 1
529 1633 -0.99509004789631994
530 1633 -0
531 1633 -0
532 1633 -0
533 1633 -0
534 1633 -0
535 1633 -0
536 1633 -0
537 1633 -0
538 1633 -0
539 1633 -0
540 1633 -0
541 1633 0
542 1633 0
543 1633 0
544 1633 0
545 1633 0
546 1633 0
547 1633 0
548 1633 0
549 1633 0
550 1633 0
551 1633 0
552 1633 0
1369 1633 -0.1803189598547551
1370 1633 -0.25584631152049064
1371 1633 -0.074765084896359371
1372 1633 -0.06244980534901011
529 1634 -0
530 1634 -0.99509004789631994
531 1634 -0
532 1634 -0
533 1634 -0
534 1634 -0
535 1634 -0
536 1634 -0
537 1634 -0
538 1634 -0
539 1634 -0
540 1634 -0
541 1634 0
542 1634 0
543 1634 0
544 1634 0
545 1634 0
546 1634 0
547 1634 0
548 1634 0
549 1634 0
550 1634 0
551 1634 0
552 1634 0
1369 1634 0.10820261428783474
1370 1634 0.080196783561304039
1371 1634 -0.016866001348705428
1372 1634 -0.17094248486675911
529 1635 -0
530 1635 -0
531 1635 -0.99509004789631994
532 1635 -0
533 1635 -0
534 1635 -0
535 1635 -0
536 1635 -0
537 1635 -0
538 1635 -0
539 1635 -0
540 1635 -0
541 1635 0
542 1635 0
543 1635 0
544 1635 0
545 1635 0
546 1635 0
547 1635 0
548 1635 0
549 1635 0
550 1635 0
551 1635 0
552 1635 0
1369 1635 0.021296203412182201
1370 1635 0.06379387941368389
1371 1635 0.33227429440027084
1372 1635 0.038055274961526345
529 1636 -0
530 1636 -0
531 1636 -0
532 1636 -0.99509004789631994
533 1636 -0
534 1636 -0
535 1636 -0
536 1636 -0
537 1636 -0
538 1636 -0
539 1636 -0
540 1636 -0
541 1636 0
542 1636 0
543 1636 0
544 1636 0
545 1636 0
546 1636 0
547 1636 0
548 1636 0
549 1636 0
550 1636 0
551 1636 0
552 1636 0
1369 1636 0.19846746771042395
1370 1636 0.13291349456905685
1371 1636 -0.11659569025066187
1372 1636 0.1709989853023412
529 1637 -0
530 1637 -0
531 1637 -0
532 1637 -0
533 1637 -0.99509004789631994
534 1637 -0
535 1637 -0
536 1637 -0
537 1637 -0
538 1637 -0
539 1637 -0
540 1637 -0
541 1637 0
542 1637 0
543 1637 0
544 1637 0
545 1637 0
546 1637 0
547 1637 0
548 1637 0
549 1637 0
550 1637 0
551 1637 0
552 1637 0
1369 1637 0.06406726430169403
1370 1637 0.0077975121873435499
1371 1637 -0.012888481757033089
1372 1637 0.1821584263174176
529 1638 -0
530 1638 -0
531 1638 -0
532 1638 -0
533 1638 -0
534 1638 -0.99509004789631994
535 1638 -0
536 1638 -0
537 1638 -0
538 1638 -0
539 1638 -0
540 1638 -0
541 1638 0
542 1638 0
543 1638 0
544 1638 0
545 1638 0
546 1638 0
547 1638 0
548 1638 0
549 1638 0
550 1638 0
551 1638 0
552 1638 0
1369 1638 0.14930176975937659
1370 1638 -0.1220518999462523
1371 1638 -0.21437482240798272
1372 1638 -0.27728111366749703
529 1639 -0
530 1639 -0
531 1639 -0
532 1639 -0
533 1639 -0
534 1639 -0
535 1639 -0.99509004789631994
536 1639 -0
537 1639 -0
538 1639 -0
539 1639 -0
540 1639 -0
541 1639 0
542 1639 0
543 1639 0
544 1639 0
545 1639 0
546 1639 0
547 1639 0
548 1639 0
549 1639 0
550 1639 0
551 1639 0
552 1639 0
1369 1639 -0.27832449100114248
1370 1639 -0.023030066571549251
1371 1639 0.085999904285044407
1372 1639 0.14042558666593874
529 1640 -0
530 1640 -0
531 1640 -0
532 1640 -0
533 1640 -0
534 1640 -0
535 1640 -0
536 1640 -0.99509004789631994
537 1640 -0
538 1640 -0
539 1640 -0
540 1640 -0
541 1640 0
542 1640 0
543 1640 0
544 1640 0
545 1640 0
546 1640 0
547 1640 0
548 1640 0
549 1640 0
550 1640 0
551 1640 0
552 1640 0
1369 1640 0.14426661227624929
1370 1640 0.019112219351713613
1371 1640 -0.3383340256558125
1372 1640 -0.26332006554483989
529 1641 -0
530 1641 -0
531 1641 -0
532 1641 -0
533 1641 -0
534 1641 -0
535 1641 -0
536 1641 -0
537 1641 -0.99509004789631994
538 1641 -0
539 1641 -0
540 1641 -0
541 1641 0
542 1641 0
543 1641 0
544 1641 0
545 1641 0
546 1641 0
547 1641 0
548 1641 0
549 1641 0
550 1641 0
551 1641 0
552 1641 0
1369 1641 -0.11462509557936003
1370 1641 -0.065598224589830417
1371 1641 0.12045547271290091
1372 1641 0.066735657880519217
529 1642 -0
530 1642 -0
531 1642 -0
532 1642 -0
533 1642 -0
534 1642 -0
535 1642 -0
536 1642 -0
537 1642 -0
538 1642 -0.99509004789631994
539 1642 -0
540 1642 -0
541 1642 0
542 1642 0
543 1642 0
544 1642 0
545 1642 0
546 1642 0
547 1642 0
548 1642 0
549 1642 0
550 1642 0
551 1642 0
552 1642 0
1369 1642 0.1112726701807888
1370 1642 -0.18163442438886057
1371 1642 -0.24934842404473068
1372 1642 0.087619788974651794
529 1643 -0
530 1643 -0
531 1643 -0
532 1643 -0
533 1643 -0
534 1643 -0
535 1643 -0
536 1643 -0
537 1643 -0
538 1643 -0
539 1643 -0.99509004789631994
540 1643 -0
541 1643 0
542 1643 0
543 1643 0
544 1643 0
545 1643 0
546 1643 0
547 1643 0
548 1643 0
549 1643 0
550 1643 0
551 1643 0
552 1643 0
1369 1643 0.0048220099123521959
1370 1643 -0.09230703811323461
1371 1643 -0.22028815111069383
1372 1643 -0.062540089363958593
529 1644 -0
530 1644 -0
531 1644 -0
532 1644 -0
533 1644 -0
534 1644 -0
535 1644 -0
536 1644 -0
537 1644 -0
538 1644 -0
539 1644 -0
540 1644 -0.99509004789631994
541 1644 0
542 1644 0
543 1644 0
544 1644 0
545 1644 0
546 1644 0
547 1644 0
548 1644 0
549 1644 0
550 1644 0
551 1644 0
552 1644 0
1369 1644 0.22589481330245723
1370 1644 0.085512196920050021
1371 1644 -0.209328877595194
1372 1644 0.014853171089538656
529 1645 0
530 1645 0
531 1645 0
532 1645 0
533 1645 0
534 1645 0
535 1645 0
536 1645 0
537 1645 0
538 1645 0
539 1645 0
540 1645 0
541 1645 0.99509004789631994
542 1645 0
543 1645 0
544 1645 0
545 1645 0
546 1645 0
547 1645 0
548 1645 0
549 1645 0
550 1645 0
551 1645 0
552 1645 0
1369 1645 0
1370 1645 0
1371 1645 0
1372 1645 0
529 1646 0
530 1646 0
531 1646 0
532 1646 0
533 1646 0
534 1646 0
535 1646 0
536 1646 0
537 1646 0
538 1646 0
539 1646 0
540 1646 0
541 1646 0
542 1646 0.99509004789631994
543 1646 0
544 1646 0
545 1646 0
546 1646 0
547 1646 0
548 1646 0
549 1646 0
550 1646 0
551 1646 0
552 1646 0
1369 1646 0
1370 1646 0
1371 1646 0
1372 1646 0
529 1647 0
530 1647 0
531 1647 0
532 1647 0
533 1647 0
534 1647 0
535 1647 0
536 1647 0
537 1647 0
538 1647 0
539 1647 0
540 1647 0
541 1647 0
542 1647 0
543 1647 0.99509004789631994
544 1647 0
545 1647 0
546 1647 0
547 1647 0
548 1647 0
549 1647 0
550 1647 0
551 1647 0
552 1647 0
1369 1647 0
1370 1647 0
1371 1647 0
1372 1647 0
529 1648 0
530 1648 0
531 1648 0
532 1648 0
533 1648 0
534 1648 0
535 1648 0
536 1648 0
537 1648 0
538 1648 0
539 1648 0
540 1648 0
541 1648 0
542 1648 0
543 1648 0
544 1648 0.99509004789631994
545 1648 0
546 1648 0
547 1648 0
548 1648 0
549 1648 0
550 1648 0
551 1648 0
552 1648 0
1369 1648 0
1370 1648 0
1371 1648 0
1372 1648 0
529 1649 0
530 1649 0
531 1649 0
532 1649 0
533 1649 0
534 1649 0
535 1649 0
536 1649 0
537 1649 0
538 1649 0
539 1649 0
540 1649 0
541 1649 0
542 1649 0
543 1649 0
544 1649 0
545 1649 0.99509004789631994
546 1649 0
547 1649 0
548 1649 0
549 1649 0
550 1649 0
551 1649 0
552 1649 0
1369 1649 0
1370 1649 0
1371 1649 0
1372 1649 0
529 1650 0
530 1650 0
531 1650 0
532 1650 0
533 1650 0
534 1650 0
535 1650 0
536 1650 0
537 1650 0
538 1650 0
539 1650 0
540 1650 0
541 1650 0
542 1650 0
543 1650 0
544 1650 0
545 1650 0
546 1650 0.99509004789631994
547 1650 0
548 1650 0
549 1650 0
550 1650 0
551 1650 0
552 1650 0
1369 1650 0
1370 1650 0
1371 1650 0
1372 1650 0
529 1651 0
530 1651 0
531 1651 0
532 1651 0
533 1651 0
534 1651 0
535 1651 0
536 1651 0
537 1651 0
538 1651 0
539 1651 0
540 1651 0
541 1651 0
542 1651 0
543 1651 0
544 1651 0
545 1651 0
546 1651 0
547 1651 0.99509004789631994
548 1651 0
549 1651 0
550 1651 0
551 1651 0
552 1651 0
1369 1651 0
1370 1651 0
1371 1651 0
1372 1651 0
529 1652 0
530 1652 0
531 1652 0
532 1652 0
533 1652 0
534 1652 0
535 1652 0
536 1652 0
537 1652 0
538 1652 0
539 1652 0
540 1652 0
541 1652 0
542 1652 0
543 1652 0
544 1652 0
545 1652 0
546 1652 0
547 1652 0
548 1652 0.99509004789631994
549 1652 0
550 1652 0
551 1652 0
552 1652 0
1369 1652 0
1370 1652 0
1371 1652 0
1372 1652 0
529 1653 0
530 1653 0
531 1653 0
532 1653 0
533 1653 0
534 1653 0
535 1653 0
536 1653 0
537 1653 0
538 1653 0
539 1653 0
540 1653 0
541 1653 0
542 1653 0
543 1653 0
544 1653 0
545 1653 0
546 1653 0
547 1653 0
548 1653 0
549 1653 0.99509004789631994
550 1653 0
551 1653 0
552 1653 0
1369 1653 0
1370 1653 0
1371 1653 0
1372 1653 0
529 1654 0
530 1654 0
531 1654 0
532 1654 0
533 1654 0
534 1654 0
535 1654 0
536 1654 0
537 1654 0
538 1654 0
539 1654 0
540 1654 0
541 1654 0
542 1654 0
543 1654 0
544 1654 0
545 1654 0
546 1654 0
547 1654 0
548 1654 0
549 1654 0
550 1654 0.99509004789631994
551 1654 0
552 1654 0
1369 1654 0
1370 1654 0
1371 1654 0
1372 1654 0
529 1655 0
530 1655 0
531 1655 0
532 1655 0
533 1655 0
534 1655 0
535 1655 0
536 1655 0
537 1655 0
538 1655 0
539 1655 0
540 1655 0
541 1655 0
542 1655 0
543 1655 0
544 1655 0
545 1655 0
546 1655 0
547 1655 0
548 1655 0
549 1655 0
550 1655 0
551 1655 0.99509004789631994
552 1655 0
1369 1655 0
1370 1655 0
1371 1655 0
1372 1655 0
529 1656 0
530 1656 0
531 1656 0
532 1656 0
533 1656 0
534 1656 0
535 1656 0
536 1656 0
537 1656 0
538 1656 0
539 1656 0
540 1656 0
541 1656 0
542 1656 0
543 1656 0
544 1656 0
545 1656 0
546 1656 0
547 1656 0
548 1656 0
549 1656 0
550 1656 0
551 1656 0
552 1656 0.99509004789631994
1369 1656 0
1370 1656 0
1371 1656 0
1372 1656 0
1365 1657 0
1366 1657 0
1367 1657 0
1368 1657 0
1637 1657 0
1365 1658 0.99878751991636638
1366 1658 0
1367 1658 0
1368 1658 0
1637 1658 0
1365 1659 0
1366 1659 0.99886974093913028
1367 1659 0
1368 1659 0
1637 1659 0
1365 1660 0
1366 1660 0
1367 1660 0.99859691322799182
1368 1660 0
1637 1660 0
1365 1661 0
1366 1661 0
1367 1661 0
1368 1661 0.99879118685427859
1637 1661 0
1365 1662 0
1366 1662 0
1367 1662 0
1368 1662 0
1637 1662 1
517 1663 -0.99509004789631994
518 1663 -0
519 1663 -0
520 1663 -0
521 1663 -0
522 1663 -0
523 1663 -0
524 1663 -0
525 1663 -0
526 1663 -0
527 1663 -0
528 1663 -0
529 1663 0
530 1663 0
531 1663 0
532 1663 0
533 1663 0
534 1663 0
535 1663 0
536 1663 0
537 1663 0
538 1663 0
539 1663 0
540 1663 0
1365 1663 -0.1803189598547551
1366 1663 -0.25584631152049064
1367 1663 -0.074765084896359371
1368 1663 -0.06244980534901011
517 1664 -0
518 1664 -0.99509004789631994
519 1664 -0
520 1664 -0
521 1664 -0
522 1664 -0
523 1664 -0
524 1664 -0
525 1664 -0
526 1664 -0
527 1664 -0
528 1664 -0
529 1664 0
530 1664 0
531 1664 0
532 1664 0
533 1664 0
534 1664 0
535 1664 0
536 1664 0
537 1664 0
538 1664 0
539 1664 0
540 1664 0
1365 1664 0.10820261428783474
1366 1664 0.080196783561304039
1367 1664 -0.016866001348705428
1368 1664 -0.17094248486675911
517 1665 -0
518 1665 -0
519 1665 -0.99509004789631994
520 1665 -0
521 1665 -0
522 1665 -0
523 1665 -0
524 1665 -0
525 1665 -0
526 1665 -0
527 1665 -0
528 1665 -0
529 1665 0
530 1665 0
531 1665 0
532 1665 0
533 1665 0
534 1665 0
535 1665 0
536 1665 0
537 1665 0
538 1665 0
539 1665 0
540 1665 0
1365 1665 0.021296203412182201
1366 1665 0.06379387941368389
1367 1665 0.33227429440027084
1368 1665 0.038055274961526345
517 1666 -0
518 1666 -0
519 1666 -0
520 1666 -0.99509004789631994
521 1666 -0
522 1666 -0
523 1666 -0
524 1666 -0
525 1666 -0
526 1666 -0
527 1666 -0
528 1666 -0
529 1666 0
530 1666 0
531 1666 0
532 1666 0
533 1666 0
534 1666 0
535 1666 0
536 1666 0
537 1666 0
538 1666 0
539 1666 0
540 1666 0
1365 1666 0.19846746771042395
1366 1666 0.13291349456905685
1367 1666 -0.11659569025066187
1368 1666 0.1709989853023412
517 1667 -0
518 1667 -0
519 1667 -0
520 1667 -0
521 1667 -0.99509004789631994
522 1667 -0
523 1667 -0
524 1667 -0
525 1667 -0
526 1667 -0
527 1667 -0
528 1667 -0
529 1667 0
530 1667 0
531 1667 0
532 1667 0
533 1667 0
534 1667 0
535 1667 0
536 1667 0
537 1667 0
538 1667 0
539 1667 0
540 1667 0
1365 1667 0.06406726430169403
1366 1667 0.0077975121873435499
1367 1667 -0.012888481757033089
1368 1667 0.1821584263174176
517 1668 -0
518 1668 -0
519 1668 -0
520 1668 -0
521 1668 -0
522 1668 -0.99509004789631994
523 1668 -0
524 1668 -0
525 1668 -0
526 1668 -0
527 1668 -0
528 1668 -0
529 1668 0
530 1668 0
531 1668 0
532 1668 0
533 1668 0
534 1668 0
535 1668 0
536 1668 0
537 1668 0
538 1668 0
539 1668 0
540 1668 0
1365 1668 0.14930176975937659
1366 1668 -0.1220518999462523
1367 1668 -0.21437482240798272
1368 1668 -0.27728111366749703
517 1669 -0
518 1669 -0
519 1669 -0
520 1669 -0
521 1669 -0
522 1669 -0
523 1669 -0.99509004789631994
524 1669 -0
525 1669 -0
526 1669 -0
527 1669 -0
528 1669 -0
529 1669 0
530 1669 0
531 1669 0
532 1669 0
533 1669 0
534 1669 0
535 1669 0
536 1669 0
537 1669 0
538 1669 0
539 1669 0
540 1669 0
1365 1669 -0.27832449100114248
1366 1669 -0.023030066571549251
1367 1669 0.085999904285044407
1368 1669 0.14042558666593874
517 1670 -0
518 1670 -0
519 1670 -0
520 1670 -0
521 1670 -0
522 1670 -0
523 1670 -0
524 1670 -0.99509004789631994
525 1670 -0
526 1670 -0
527 1670 -0
528 1670 -0
529 1670 0
530 1670 0
531 1670 0
532 1670 0
533 1670 0
534 1670 0
535 1670 0
536 1670 0
537 1670 0
538 1670 0
539 1670 0
540 1670 0
1365 1670 0.14426661227624929
1366 1670 0.019112219351713613
1367 1670 -0.3383340256558125
1368 1670 -0.26332006554483989
517 1671 -0
518 1671 -0
519 1671 -0
520 1671 -0
521 1671 -0
522 1671 -0
523 1671 -0
524 1671 -0
525 1671 -0.99509004789631994
526 1671 -0
527 1671 -0
528 1671 -0
529 1671 0
530 1671 0
531 1671 0
532 1671 0
533 1671 0
534 1671 0
535 1671 0
536 1671 0
537 1671 0
538 1671 0
539 1671 0
540 1671 0
1365 1671 -0.11462509557936003
1366 1671 -0.065598224589830417
1367 1671 0.12045547271290091
1368 1671 0.066735657880519217
517 1672 -0
518 1672 -0
519 1672 -0
520 1672 -0
521 1672 -0
522 1672 -0
523 1672 -0
524 1672 -0
525 1672 -0
526 1672 -0.99509004789631994
527 1672 -0
528 1672 -0
529 1672 0
530 1672 0
531 1672 0
532 1672 0
533 1672 0
534 1672 0
535 1672 0
536 1672 0
537 1672 0
538 1672 0
539 1672 0
540 1672 0
1365 1672 0.1112726701807888
1366 1672 -0.18163442438886057
1367 1672 -0.24934842404473068
1368 1672 0.087619788974651794
517 1673 -0
518 1673 -0
519 1673 -0
520 1673 -0
521 1673 -0
522 1673 -0
523 1673 -0
524 1673 -0
525 1673 -0
526 1673 -0
527 1673 -0.99509004789631994
528 1673 -0
529 1673 0
530 1673 0
531 1673 0
532 1673 0
533 1673 0
534 1673 0
535 1673 0
536 1673 0
537 1673 0
538 1673 0
539 1673 0
540 1673 0
1365 1673 0.0048220099123521959
1366 1673 -0.09230703811323461
1367 1673 -0.22028815111069383
1368 1673 -0.062540089363958593
517 1674 -0
518 1674 -0
519 1674 -0
520 1674 -0
521 1674 -0
522 1674 -0
523 1674 -0
524 1674 -0
525 1674 -0
526 1674 -0
527 1674 -0
528 1674 -0.99509004789631994
529 1674 0
530 1674 0
531 1674 0
532 1674 0
533 1674 0
534 1674 0
535 1674 0
536 1674 0
537 1674 0
538 1674 0
539 1674 0
540 1674 0
1365 1674 0.22589481330245723
1366 1674 0.085512196920050021
1367 1674 -0.209328877595194
1368 1674 0.014853171089538656
517 1675 0
518 1675 0
519 1675 0
520 1675 0
521 1675 0
522 1675 0
523 1675 0
524 1675 0
525 1675 0
526 1675 0
527 1675 0
528 1675 0
529 1675 0.99509004789631994
530 1675 0
531 1675 0
532 1675 0
533 1675 0
534 1675 0
535 1675 0
536 1675 0
537 1675 0
538 1675 0
539 1675 0
540 1675 0
1365 1675 0
1366 1675 0
1367 1675 0
1368 1675 0
517 1676 0
518 1676 0
519 1676 0
520 1676 0
521 1676 0
522 1676 0
523 1676 0
524 1676 0
525 1676 0
526 1676 0
527 1676 0
528 1676 0
529 1676 0
530 1676 0.99509004789631994
531 1676 0
532 1676 0
533 1676 0
534 1676 0
535 1676 0
536 1676 0
537 1676 0
538 1676 0
539 1676 0
540 1676 0
1365 1676 0
1366 1676 0
1367 1676 0
1368 1676 0
517 1677 0
518 1677 0
519 1677 0
520 1677 0
521 1677 0
522 1677 0
523 1677 0
524 1677 0
525 1677 0
526 1677 0
527 1677 0
528 1677 0
529 1677 0
530 1677 0
531 1677 0.99509004789631994
532 1677 0
533 1677 0
534 1677 0
535 1677 0
536 1677 0
537 1677 0
538 1677 0
539 1677 0
540 1677 0
1365 1677 0
1366 1677 0
1367 1677 0
1368 1677 0
517 1678 0
518 1678 0
519 1678 0
520 1678 0
521 1678 0
522 1678 0
523 1678 0
524 1678 0
525 1678 0
526 1678 0
527 1678 0
528 1678 0
529 1678 0
530 1678 0
531 1678 0
532 1678 0.99509004789631994
533 1678 0
534 1678 0
535 1678 0
536 1678 0
537 1678 0
538 1678 0
539 1678 0
540 1678 0
1365 1678 0
1366 1678 0
1367 1678 0
1368 1678 0
517 1679 0
518 1679 0
519 1679 0
520 1679 0
521 1679 0
522 1679 0
523 1679 0
524 1679 0
525 1679 0
526 1679 0
527 1679 0
528 1679 0
529 1679 0
530 1679 0
531 1679 0
532 1679 0
533 1679 0.99509004789631994
534 1679 0
535 1679 0
536 1679 0
537 1679 0
538 1679 0
539 1679 0
540 1679 0
1365 1679 0
1366 1679 0
1367 1679 0
1368 1679 0
517 1680 0
518 1680 0
519 1680 0
520 1680 0
521 1680 0
522 1680 0
523 1680 0
524 1680 0
525 1680 0
526 1680 0
527 1680 0
528 1680 0
529 1680 0
530 1680 0
531 1680 0
532 1680 0
533 1680 0
534 1680 0.99509004789631994
535 1680 0
536 1680 0
537 1680 0
538 1680 0
539 1680 0
540 1680 0
1365 1680 0
1366 1680 0
1367 1680 0
1368 1680 0
517 1681 0
518 1681 0
519 1681 0
520 1681 0
521 1681 0
522 1681 0
523 1681 0
524 1681 0
525 1681 0
526 1681 0
527 1681 0
528 1681 0
529 1681 0
530 1681 0
531 1681 0
532 1681 0
533 1681 0
534 1681 0
535 1681 0.99509004789631994
536 1681 0
537 1681 0
538 1681 0
539 1681 0
540 1681 0
1365 1681 0
1366 1681 0
1367 1681 0
1368 1681 0
517 1682 0
518 1682 0
519 1682 0
520 1682 0
521 1682 0
522 1682 0
523 1682 0
524 1682 0
525 1682 0
526 1682 0
527 1682 0
528 1682 0
529 1682 0
530 1682 0
531 1682 0
532 1682 0
533 1682 0
534 1682 0
535 1682 0
536 1682 0.99509004789631994
537 1682 0
538 1682 0
539 1682 0
540 1682 0
1365 1682 0
1366 1682 0
1367 1682 0
1368 1682 0
517 1683 0
518 1683 0
519 1683 0
520 1683 0
521 1683 0
522 1683 0
523 1683 0
524 1683 0
525 1683 0
526 1683 0
527 1683 0
528 1683 0
529 1683 0
530 1683 0
531 1683 0
532 1683 0
533 1683 0
534 1683 0
535 1683 0
536 1683 0
537 1683 0.99509004789631994
538 1683 0
539 1683 0
540 1683 0
1365 1683 0
1366 1683 0
1367 1683 0
1368 1683 0
517 1684 0
518 1684 0
519 1684 0
520 1684 0
521 1684 0
522 1684 0
523 1684 0
524 1684 0
525 1684 0
526 1684 0
527 1684 0
528 1684 0
529 1684 0
530 1684 0
531 1684 0
532 1684 0
533 1684 0
534 1684 0
535 1684 0
536 1684 0
537 1684 0
538 1684 0.99509004789631994
539 1684 0
540 1684 0
1365 1684 0
1366 1684 0
1367 1684 0
1368 1684 0
517 1685 0
518 1685 0
519 1685 0
520 1685 0
521 1685 0
522 1685 0
523 1685 0
524 1685 0
525 1685 0
526 1685 0
527 1685 0
528 1685 0
529 1685 0
530 1685 0
531 1685 0
532 1685 0
533 1685 0
534 1685 0
535 1685 0
536 1685 0
537 1685 0
538 1685 0
539 1685 0.99509004789631994
540 1685 0
1365 1685 0
1366 1685 0
1367 1685 0
1368 1685 0
517 1686 0
518 1686 0
519 1686 0
520 1686 0
521 1686 0
522 1686 0
523 1686 0
524 1686 0
525 1686 0
526 1686 0
527 1686 0
528 1686 0
529 1686 0
530 1686 0
531 1686 0
532 1686 0
533 1686 0
534 1686 0
535 1686 0
536 1686 0
537 1686 0
538 1686 0
539 1686 0
540 1686 0.99509004789631994
1365 1686 0
1366 1686 0
1367 1686 0
1368 1686 0
1361 1687 0
1362 1687 0
1363 1687 0
1364 1687 0
1636 1687 0
1361 1688 0.99878751991636638
1362 1688 0
1363 1688 0
1364 1688 0
1636 1688 0
1361 1689 0
1362 1689 0.99886974093913028
1363 1689 0
1364 1689 0
1636 1689 0
1361 1690 0
1362 1690 0
1363 1690 0.99859691322799182
1364 1690 0
1636 1690 0
1361 1691 0
1362 1691 0
1363 1691 0
1364 1691 0.99879118685427859
1636 1691 0
1361 1692 0
1362 1692 0
1363 1692 0
1364 1692 0
1636 1692 1
505 1693 -0.99509004789631994
506 1693 -0
507 1693 -0
508 1693 -0
509 1693 -0
510 1693 -0
511 1693 -0
512 1693 -0
513 1693 -0
514 1693 -0
515 1693 -0
516 1693 -0
517 1693 0
518 1693 0
519 1693 0
520 1693 0
521 1693 0
522 1693 0
523 1693 0
524 1693 0
525 1693 0
526 1693 0
527 1693 0
528 1693 0
1361 1693 -0.1803189598547551
1362 1693 -0.25584631152049064
1363 1693 -0.074765084896359371
1364 1693 -0.06244980534901011
505 1694 -0
506 1694 -0.99509004789631994
507 1694 -0
508 1694 -0
509 1694 -0
510 1694 -0
511 1694 -0
512 1694 -0
513 1694 -0
514 1694 -0
515 1694 -0
516 1694 -0
517 1694 0
518 1694 0
519 1694 0
520 1694 0
521 1694 0
522 1694 0
523 1694 0
524 1694 0
525 1694 0
526 1694 0
527 1694 0
528 1694 0
1361 1694 0.10820261428783474
1362 1694 0.080196783561304039
1363 1694 -0.016866001348705428
1364 1694 -0.17094248486675911
505 1695 -0
506 1695 -0
507 1695 -0.99509004789631994
508 1695 -0
509 1695 -0
510 1695 -0
511 1695 -0
512 1695 -0
513 1695 -0
514 1695 -0
515 1695 -0
516 1695 -0
517 1695 0
518 1695 0
519 1695 0
520 1695 0
521 1695 0
522 1695 0
523 1695 0
524 1695 0
525 1695 0
526 1695 0
527 1695 0
528 1695 0
1361 1695 0.021296203412182201
1362 1695 0.06379387941368389
1363 1695 0.33227429440027084
1364 1695 0.038055274961526345
505 1696 -0
506 1696 -0
507 1696 -0
508 1696 -0.99509004789631994
509 1696 -0
510 1696 -0
511 1696 -0
512 1696 -0
513 1696 -0
514 1696 -0
515 1696 -0
516 1696 -0
517 1696 0
518 1696 0
519 1696 0
520 1696 0
521 1696 0
522 1696 0
523 1696 0
524 1696 0
525 1696 0
526 1696 0
527 1696 0
528 1696 0
1361 1696 0.19846746771042395
1362 1696 0.13291349456905685
1363 1696 -0.11659569025066187
1364 1696 0.1709989853023412
505 1697 -0
506 1697 -0
507 1697 -0
508 1697 -0
509 1697 -0.99509004789631994
510 1697 -0
511 1697 -0
512 1697 -0
513 1697 -0
514 1697 -0
515 1697 -0
516 1697 -0
517 1697 0
518 1697 0
519 1697 0
520 1697 0
521 1697 0
522 1697 0
523 1697 0
524 1697 0
525 1697 0
526 1697 0
527 1697 0
528 1697 0
1361 1697 0.06406726430169403
1362 1697 0.0077975121873435499
1363 1697 -0.012888481757033089
1364 1697 0.1821584263174176
505 1698 -0
506 1698 -0
507 1698 -0
508 1698 -0
509 1698 -0
510 1698 -0.99509004789631994
511 1698 -0
512 1698 -0
513 1698 -0
514 1698 -0
515 1698 -0
516 1698 -0
517 1698 0
518 1698 0
519 1698 0
520 1698 0
521 1698 0
522 1698 0
523 1698 0
524 1698 0
525 1698 0
526 1698 0
527 1698 0
528 1698 0
1361 1698 0.14930176975937659
1362 1698 -0.1220518999462523
1363 1698 -0.21437482240798272
1364 1698 -0.27728111366749703
505 1699 -0
506 1699 -0
507 1699 -0
508 1699 -0
509 1699 -0
510 1699 -0
511 1699 -0.99509004789631994
512 1699 -0
513 1699 -0
514 1699 -0
515 1699 -0
516 1699 -0
517 1699 0
518 1699 0
519 1699 0
520 1699 0
521 1699 0
522 1699 0
523 1699 0
524 1699 0
525 1699 0
526 1699 0
527 1699 0
528 1699 0
1361 1699 -0.27832449100114248
1362 1699 -0.023030066571549251
1363 1699 0.085999904285044407
1364 1699 0.14042558666593874
505 1700 -0
506 1700 -0
507 1700 -0
508 1700 -0
509 1700 -0
510 1700 -0
511 1700 -0
512 1700 -0.99509004789631994
513 1700 -0
514 1700 -0
515 1700 -0
516 1700 -0
517 1700 0
518 1700 0
519 1700 0
520 1700 0
521 1700 0
522 1700 0
523 1700 0
524 1700 0
525 1700 0
526 1700 0
527 1700 0
528 1700 0
1361 1700 0.14426661227624929
1362 1700 0.019112219351713613
1363 1700 -0.3383340256558125
1364 1700 -0.26332006554483989
505 1701 -0
506 1701 -0
507 1701 -0
508 1701 -0
509 1701 -0
510 1701 -0
511 1701 -0
512 1701 -0
513 1701 -0.99509004789631994
514 1701 -0
515 1701 -0
516 1701 -0
517 1701 0
518 1701 0
519 1701 0
520 1701 0
521 1701 0
522 1701 0
523 1701 0
524 1701 0
525 1701 0
526 1701 0
527 1701 0
528 1701 0
1361 1701 -0.11462509557936003
1362 1701 -0.065598224589830417
1363 1701 0.12045547271290091
1364 1701 0.066735657880519217
505 1702 -0
506 1702 -0
507 1702 -0
508 1702 -0
509 1702 -0
510 1702 -0
511 1702 -0
512 1702 -0
513 1702 -0
514 1702 -0.99509004789631994
515 1702 -0
516 1702 -0
517 1702 0
518 1702 0
519 1702 0
520 1702 0
521 1702 0
522 1702 0
523 1702 0
524 1702 0
525 1702 0
526 1702 0
527 1702 0
528 1702 0
1361 1702 0.1112726701807888
1362 1702 -0.18163442438886057
1363 1702 -0.24934842404473068
1364 1702 0.087619788974651794
505 1703 -0
506 1703 -0
507 1703 -0
508 1703 -0
509 1703 -0
510 1703 -0
511 1703 -0
512 1703 -0
513 1703 -0
514 1703 -0
515 1703 -0.99509004789631994
516 1703 -0
517 1703 0
518 1703 0
519 1703 0
520 1703 0
521 1703 0
522 1703 0
523 1703 0
524 1703 0
525 1703 0
526 1703 0
527 1703 0
528 1703 0
1361 1703 0.0048220099123521959
1362 1703 -0.09230703811323461
1363 1703 -0.22028815111069383
1364 1703 -0.062540089363958593
505 1704 -0
506 1704 -0
507 1704 -0
508 1704 -0
509 1704 -0
510 1704 -0
511 1704 -0
512 1704 -0
513 1704 -0
514 1704 -0
515 1704 -0
516 1704 -0.99509004789631994
517 1704 0
518 1704 0
519 1704 0
520 1704 0
521 1704 0
522 1704 0
523 1704 0
524 1704 0
525 1704 0
526 1704 0
527 1704 0
528 1704 0
1361 1704 0.22589481330245723
1362 1704 0.085512196920050021
1363 1704 -0.209328877595194
1364 1704 0.014853171089538656
505 1705 0
506 1705 0
507 1705 0
508 1705 0
509 1705 0
510 1705 0
511 1705 0
512 1705 0
513 1705 0
514 1705 0
515 1705 0
516 1705 0
517 1705 0.99509004789631994
518 1705 0
519 1705 0
520 1705 0
521 1705 0
522 1705 0
523 1705 0
524 1705 0
525 1705 0
526 1705 0
527 1705 0
528 1705 0
1361 1705 0
1362 1705 0
1363 1705 0
1364 1705 0
505 1706 0
506 1706 0
507 1706 0
508 1706 0
509 1706 0
510 1706 0
511 1706 0
512 1706 0
513 1706 0
514 1706 0
515 1706 0
516 1706 0
517 1706 0
518 1706 0.99509004789631994
519 1706 0
520 1706 0
521 1706 0
522 1706 0
523 1706 0
524 1706 0
525 1706 0
526 1706 0
527 1706 0
528 1706 0
1361 1706 0
1362 1706 0
1363 1706 0
1364 1706 0
505 1707 0
506 1707 0
507 1707 0
508 1707 0
509 1707 0
510 1707 0
511 1707 0
512 1707 0
513 1707 0
514 1707 0
515 1707 0
516 1707 0
517 1707 0
518 1707 0
519 1707 0.99509004789631994
520 1707 0
521 1707 0
522 1707 0
523 1707 0
524 1707 0
525 1707 0
526 1707 0
527 1707 0
528 1707 0
1361 1707 0
1362 1707 0
1363 1707 0
1364 1707 0
505 1708 0
506 1708 0
507 1708 0
508 1708 0
509 1708 0
510 1708 0
511 1708 0
512 1708 0
513 1708 0
514 1708 0
515 1708 0
516 1708 0
517 1708 0
518 1708 0
519 1708 0
520 1708 0.99509004789631994
521 1708 0
522 1708 0
523 1708 0
524 1708 0
525 1708 0
526 1708 0
527 1708 0
528 1708 0
1361 1708 0
1362 1708 0
1363 1708 0
1364 1708 0
505 1709 0
506 1709 0
507 1709 0
508 1709 0
509 1709 0
510 1709 0
511 1709 0
512 1709 0
513 1709 0
514 1709 0
515 1709 0
516 1709 0
517 1709 0
518 1709 0
519 1709 0
520 1709 0
521 1709 0.99509004789631994
522 1709 0
523 1709 0
524 1709 0
525 1709 0
526 1709 0
527 1709 0
528 1709 0
1361 1709 0
1362 1709 0
1363 1709 0
1364 1709 0
505 1710 0
506 1710 0
507 1710 0
508 1710 0
509 1710 0
510 1710 0
511 1710 0
512 1710 0
513 1710 0
514 1710 0
515 1710 0
516 1710 0
517 1710 0
518 1710 0
519 1710 0
520 1710 0
521 1710 0
522 1710 0.99509004789631994
523 1710 0
524 1710 0
525 1710 0
526 1710 0
527 1710 0
528 1710 0
1361 1710 0
1362 1710 0
1363 1710 0
1364 1710 0
505 1711 0
506 1711 0
507 1711 0
508 1711 0
509 1711 0
510 1711 0
511 1711 0
512 1711 0
513 1711 0
514 1711 0
515 1711 0
516 1711 0
517 1711 0
518 1711 0
519 1711 0
520 1711 0
521 1711 0
522 1711 0
523 1711 0.99509004789631994
524 1711 0
525 1711 0
526 1711 0
527 1711 0
528 1711 0
1361 1711 0
1362 1711 0
1363 1711 0
1364 1711 0
505 1712 0
506 1712 0
507 1712 0
508 1712 0
509 1712 0
510 1712 0
511 1712 0
512 1712 0
513 1712 0
514 1712 0
515 1712 0
516 1712 0
517 1712 0
518 1712 0
519 1712 0
520 1712 0
521 1712 0
522 1712 0
523 1712 0
524 1712 0.99509004789631994
525 1712 0
526 1712 0
527 1712 0
528 1712 0
1361 1712 0
1362 1712 0
1363 1712 0
1364 1712 0
505 1713 0
506 1713 0
507 1713 0
508 1713 0
509 1713 0
510 1713 0
511 1713 0
512 1713 0
513 1713 0
514 1713 0
515 1713 0
516 1713 0
517 1713 0
518 1713 0
519 1713 0
520 1713 0
521 1713 0
522 1713 0
523 1713 0
524 1713 0
525 1713 0.99509004789631994
526 1713 0
527 1713 0
528 1713 0
1361 1713 0
1362 1713 0
1363 1713 0
1364 1713 0
505 1714 0
506 1714 0
507 1714 0
508 1714 0
509 1714 0
510 1714 0
511 1714 0
512 1714 0
513 1714 0
514 1714 0
515 1714 0
516 1714 0
517 1714 0
518 1714 0
519 1714 0
520 1714 0
521 1714 0
522 1714 0
523 1714 0
524 1714 0
525 1714 0
526 1714 0.99509004789631994
527 1714 0
528 1714 0
1361 1714 0
1362 1714 0
1363 1714 0
1364 1714 0
505 1715 0
506 1715 0
507 1715 0
508 1715 0
509 1715 0
510 1715 0
511 1715 0
512 1715 0
513 1715 0
514 1715 0
515 1715 0
516 1715 0
517 1715 0
518 1715 0
519 1715 0
520 1715 0
521 1715 0
522 1715 0
523 1715 0
524 1715 0
525 1715 0
526 1715 0
527 1715 0.99509004789631994
528 1715 0
1361 1715 0
1362 1715 0
1363 1715 0
1364 1715 0
505 1716 0
506 1716 0
507 1716 0
508 1716 0
509 1716 0
510 1716 0
511 1716 0
512 1716 0
513 1716 0
514 1716 0
515 1716 0
516 1716 0
517 1716 0
518 1716 0
519 1716 0
520 1716 0
521 1716 0
522 1716 0
523 1716 0
524 1716 0
525 1716 0
526 1716 0
527 1716 0
528 1716 0.99509004789631994
1361 1716 0
1362 1716 0
1363 1716 0
1364 1716 0
1357 1717 0
1358 1717 0
1359 1717 0
1360 1717 0
1635 1717 0
1357 1718 0.99878751991636638
1358 1718 0
1359 1718 0
1360 1718 0
1635 1718 0
1357 1719 0
1358 1719 0.99886974093913028
1359 1719 0
1360 1719 0
1635 1719 0
1357 1720 0
1358 1720 0
1359 1720 0.99859691322799182
1360 1720 0
1635 1720 0
1357 1721 0
1358 1721 0
1359 1721 0
1360 1721 0.99879118685427859
1635 1721 0
1357 1722 0
1358 1722 0
1359 1722 0
1360 1722 0
1635 1722 1
493 1723 -0.99509004789631994
494 1723 -0
495 1723 -0
496 1723 -0
497 1723 -0
498 1723 -0
499 1723 -0
500 1723 -0
501 1723 -0
502 1723 -0
503 1723 -0
504 1723 -0
505 1723 0
506 1723 0
507 1723 0
508 1723 0
509 1723 0
510 1723 0
511 1723 0
512 1723 0
513 1723 0
514 1723 0
515 1723 0
516 1723 0
1357 1723 -0.1803189598547551
1358 1723 -0.25584631152049064
1359 1723 -0.074765084896359371
1360 1723 -0.06244980534901011
493 1724 -0
494 1724 -0.99509004789631994
495 1724 -0
496 1724 -0
497 1724 -0
498 1724 -0
499 1724 -0
500 1724 -0
501 1724 -0
502 1724 -0
503 1724 -0
504 1724 -0
505 1724 0
506 1724 0
507 1724 0
508 1724 0
509 1724 0
510 1724 0
511 1724 0
512 1724 0
513 1724 0
514 1724 0
515 1724 0
516 1724 0
1357 1724 0.10820261428783474
1358 1724 0.080196783561304039
1359 1724 -0.016866001348705428
1360 1724 -0.17094248486675911
493 1725 -0
494 1725 -0
495 1725 -0.99509004789631994
496 1725 -0
497 1725 -0
498 1725 -0
499 1725 -0
500 1725 -0
501 1725 -0
502 1725 -0
503 1725 -0
504 1725 -0
505 1725 0
506 1725 0
507 1725 0
508 1725 0
509 1725 0
510 1725 0
511 1725 0
512 1725 0
513 1725 0
514 1725 0
515 1725 0
516 1725 0
1357 1725 0.021296203412182201
1358 1725 0.06379387941368389
1359 1725 0.33227429440027084
1360 1725 0.038055274961526345
493 1726 -0
494 1726 -0
495 1726 -0
496 1726 -0.99509004789631994
497 1726 -0
498 1726 -0
499 1726 -0
500 1726 -0
501 1726 -0
502 1726 -0
503 1726 -0
504 1726 -0
505 1726 0
506 1726 0
507 1726 0
508 1726 0
509 1726 0
510 1726 0
511 1726 0
512 1726 0
513 1726 0
514 1726 0
515 1726 0
516 1726 0
1357 1726 0.19846746771042395
1358 1726 0.13291349456905685
1359 1726 -0.11659569025066187
1360 1726 0.1709989853023412
493 1727 -0
494 1727 -0
495 1727 -0
496 1727 -0
497 1727 -0.99509004789631994
498 1727 -0
499 1727 -0
500 1727 -0
501 1727 -0
502 1727 -0
503 1727 -0
504 1727 -0
505 1727 0
506 1727 0
507 1727 0
508 1727 0
509 1727 0
510 1727 0
511 1727 0
512 1727 0
513 1727 0
514 1727 0
515 1727 0
516 1727 0
1357 1727 0.06406726430169403
1358 1727 0.0077975121873435499
1359 1727 -0.012888481757033089
1360 1727 0.1821584263174176
493 1728 -0
494 1728 -0
495 1728 -0
496 1728 -0
497 1728 -0
498 1728 -0.99509004789631994
499 1728 -0
500 1728 -0
501 1728 -0
502 1728 -0
503 1728 -0
504 1728 -0
505 1728 0
506 1728 0
507 1728 0
508 1728 0
509 1728 0
510 1728 0
511 1728 0
512 1728 0
513 1728 0
514 1728 0
515 1728 0
516 1728 0
1357 1728 0.14930176975937659
1358 1728 -0.1220518999462523
1359 1728 -0.21437482240798272
1360 1728 -0.27728111366749703
493 1729 -0
494 1729 -0
495 1729 -0
496 1729 -0
497 1729 -0
498 1729 -0
499 1729 -0.99509004789631994
500 1729 -0
501 1729 -0
502 1729 -0
503 1729 -0
504 1729 -0
505 1729 0
506 1729 0
507 1729 0
508 1729 0
509 1729 0
510 1729 0
511 1729 0
512 1729 0
513 1729 0
514 1729 0
515 1729 0
516 1729 0
1357 1729 -0.27832449100114248
1358 1729 -0.023030066571549251
1359 1729 0.085999904285044407
1360 1729 0.14042558666593874
493 1730 -0
494 1730 -0
495 1730 -0
496 1730 -0
497 1730 -0
498 1730 -0
499 1730 -0
500 1730 -0.99509004789631994
501 1730 -0
502 1730 -0
503 1730 -0
504 1730 -0
505 1730 0
506 1730 0
507 1730 0
508 1730 0
509 1730 0
510 1730 0
511 1730 0
512 1730 0
513 1730 0
514 1730 0
515 1730 0
516 1730 0
1357 1730 0.14426661227624929
1358 1730 0.019112219351713613
1359 1730 -0.3383340256558125
1360 1730 -0.26332006554483989
493 1731 -0
494 1731 -0
495 1731 -0
496 1731 -0
497 1731 -0
498 1731 -0
499 1731 -0
500 1731 -0
501 1731 -0.99509004789631994
502 1731 -0
503 1731 -0
504 1731 -0
505 1731 0
506 1731 0
507 1731 0
508 1731 0
509 1731 0
510 1731 0
511 1731 0
512 1731 0
513 1731 0
514 1731 0
515 1731 0
516 1731 0
1357 1731 -0.11462509557936003
1358 1731 -0.065598224589830417
1359 1731 0.12045547271290091
1360 1731 0.066735657880519217
493 1732 -0
494 1732 -0
495 1732 -0
496 1732 -0
497 1732 -0
498 1732 -0
499 1732 -0
500 1732 -0
501 1732 -0
502 1732 -0.99509004789631994
503 1732 -0
504 1732 -0
505 1732 0
506 1732 0
507 1732 0
508 1732 0
509 1732 0
510 1732 0
511 1732 0
512 1732 0
513 1732 0
514 1732 0
515 1732 0
516 1732 0
1357 1732 0.1112726701807888
1358 1732 -0.18163442438886057
1359 1732 -0.24934842404473068
1360 1732 0.087619788974651794
493 1733 -0
494 1733 -0
495 1733 -0
496 1733 -0
497 1733 -0
498 1733 -0
499 1733 -0
500 1733 -0
501 1733 -0
502 1733 -0
503 1733 -0.99509004789631994
504 1733 -0
505 1733 0
506 1733 0
507 1733 0
508 1733 0
509 1733 0
510 1733 0
511 1733 0
512 1733 0
513 1733 0
514 1733 0
515 1733 0
516 1733 0
1357 1733 0.0048220099123521959
1358 1733 -0.09230703811323461
1359 1733 -0.22028815111069383
1360 1733 -0.062540089363958593
493 1734 -0
494 1734 -0
495 1734 -0
496 1734 -0
497 1734 -0
498 1734 -0
499 1734 -0
500 1734 -0
501 1734 -0
502 1734 -0
503 1734 -0
504 1734 -0.99509004789631994
505 1734 0
506 1734 0
507 1734 0
508 1734 0
509 1734 0
510 1734 0
511 1734 0
512 1734 0
513 1734 0
514 1734 0
515 1734 0
516 1734 0
1357 1734 0.22589481330245723
1358 1734 0.085512196920050021
1359 1734 -0.209328877595194
1360 1734 0.014853171089538656
493 1735 0
494 1735 0
495 1735 0
496 1735 0
497 1735 0
498 1735 0
499 1735 0
500 1735 0
501 1735 0
502 1735 0
503 1735 0
504 1735 0
505 1735 0.99509004789631994
506 1735 0
507 1735 0
508 1735 0
509 1735 0
510 1735 0
511 1735 0
512 1735 0
513 1735 0
514 1735 0
515 1735 0
516 1735 0
1357 1735 0
1358 1735 0
1359 1735 0
1360 1735 0
493 1736 0
494 1736 0
495 1736 0
496 1736 0
497 1736 0
498 1736 0
499 1736 0
500 1736 0
501 1736 0
502 1736 0
503 1736 0
504 1736 0
505 1736 0
506 1736 0.99509004789631994
507 1736 0
508 1736 0
509 1736 0
510 1736 0
511 1736 0
512 1736 0
513 1736 0
514 1736 0
515 1736 0
516 1736 0
1357 1736 0
1358 1736 0
1359 1736 0
1360 1736 0
493 1737 0
494 1737 0
495 1737 0
496 1737 0
497 1737 0
498 1737 0
499 1737 0
500 1737 0
501 1737 0
502 1737 0
503 1737 0
504 1737 0
505 1737 0
506 1737 0
507 1737 0.99509004789631994
508 1737 0
509 1737 0
510 1737 0
511 1737 0
512 1737 0
513 1737 0
514 1737 0
515 1737 0
516 1737 0
1357 1737 0
1358 1737 0
1359 1737 0
1360 1737 0
493 1738 0
494 1738 0
495 1738 0
496 1738 0
497 1738 0
498 1738 0
499 1738 0
500 1738 0
501 1738 0
502 1738 0
503 1738 0
504 1738 0
505 1738 0
506 1738 0
507 1738 0
508 1738 0.99509004789631994
509 1738 0
510 1738 0
511 1738 0
512 1738 0
513 1738 0
514 1738 0
515 1738 0
516 1738 0
1357 1738 0
1358 1738 0
1359 1738 0
1360 1738 0
493 1739 0
494 1739 0
495 1739 0
496 1739 0
497 1739 0
498 1739 0
499 1739 0
500 1739 0
501 1739 0
502 1739 0
503 1739 0
504 1739 0
505 1739 0
506 1739 0
507 1739 0
508 1739 0
509 1739 0.99509004789631994
510 1739 0
511 1739 0
512 1739 0
513 1739 0
514 1739 0
515 1739 0
516 1739 0
1357 1739 0
1358 1739 0
1359 1739 0
1360 1739 0
493 1740 0
494 1740 0
495 1740 0
496 1740 0
497 1740 0
498 1740 0
499 1740 0
500 1740 0
501 1740 0
502 1740 0
503 1740 0
504 1740 0
505 1740 0
506 1740 0
507 1740 0
508 1740 0
509 1740 0
510 1740 0.99509004789631994
511 1740 0
512 1740 0
513 1740 0
514 1740 0
515 1740 0
516 1740 0
1357 1740 0
1358 1740 0
1359 1740 0
1360 1740 0
493 1741 0
494 1741 0
495 1741 0
496 1741 0
497 1741 0
498 1741 0
499 1741 0
500 1741 0
501 1741 0
502 1741 0
503 1741 0
504 1741 0
505 1741 0
506 1741 0
507 1741 0
508 1741 0
509 1741 0
510 1741 0
511 1741 0.99509004789631994
512 1741 0
513 1741 0
514 1741 0
515 1741 0
516 1741 0
1357 1741 0
1358 1741 0
1359 1741 0
1360 1741 0
493 1742 0
494 1742 0
495 1742 0
496 1742 0
497 1742 0
498 1742 0
499 1742 0
500 1742 0
501 1742 0
502 1742 0
503 1742 0
504 1742 0
505 1742 0
506 1742 0
507 1742 0
508 1742 0
509 1742 0
510 1742 0
511 1742 0
512 1742 0.99509004789631994
513 1742 0
514 1742 0
515 1742 0
516 1742 0
1357 1742 0
1358 1742 0
1359 1742 0
1360 1742 0
493 1743 0
494 1743 0
495 1743 0
496 1743 0
497 1743 0
498 1743 0
499 1743 0
500 1743 0
501 1743 0
502 1743 0
503 1743 0
504 1743 0
505 1743 0
506 1743 0
507 1743 0
508 1743 0
509 1743 0
510 1743 0
511 1743 0
512 1743 0
513 1743 0.99509004789631994
514 1743 0
515 1743 0
516 1743 0
1357 1743 0
1358 1743 0
1359 1743 0
1360 1743 0
493 1744 0
494 1744 0
495 1744 0
496 1744 0
497 1744 0
498 1744 0
499 1744 0
500 1744 0
501 1744 0
502 1744 0
503 1744 0
504 1744 0
505 1744 0
506 1744 0
507 1744 0
508 1744 0
509 1744 0
510 1744 0
511 1744 0
512 1744 0
513 1744 0
514 1744 0.99509004789631994
515 1744 0
516 1744 0
1357 1744 0
1358 1744 0
1359 1744 0
1360 1744 0
493 1745 0
494 1745 0
495 1745 0
496 1745 0
497 1745 0
498 1745 0
499 1745 0
500 1745 0
501 1745 0
502 1745 0
503 1745 0
504 1745 0
505 1745 0
506 1745 0
507 1745 0
508 1745 0
509 1745 0
510 1745 0
511 1745 0
512 1745 0
513 1745 0
514 1745 0
515 1745 0.99509004789631994
516 1745 0
1357 1745 0
1358 1745 0
1359 1745 0
1360 1745 0
493 1746 0
494 1746 0
495 1746 0
496 1746 0
497 1746 0
498 1746 0
499 1746 0
500 1746 0
501 1746 0
502 1746 0
503 1746 0
504 1746 0
505 1746 0
506 1746 0
507 1746 0
508 1746 0
509 1746 0
510 1746 0
511 1746 0
512 1746 0
513 1746 0
514 1746 0
515 1746 0
516 1746 0.99509004789631994
1357 1746 0
1358 1746 0
1359 1746 0
1360 1746 0
1353 1747 0
1354 1747 0
1355 1747 0
1356 1747 0
1634 1747 0
1353 1748 0.99878751991636638
1354 1748 0
1355 1748 0
1356 1748 0
1634 1748 0
1353 1749 0
1354 1749 0.99886974093913028
1355 1749 0
1356 1749 0
1634 1749 0
1353 1750 0
1354 1750 0
1355 1750 0.99859691322799182
1356 1750 0
1634 1750 0
1353 1751 0
1354 1751 0
1355 1751 0
1356 1751 0.99879118685427859
1634 1751 0
1353 1752 0
1354 1752 0
1355 1752 0
1356 1752 0
1634 1752 1
481 1753 -0.99509004789631994
482 1753 -0
483 1753 -0
484 1753 -0
485 1753 -0
486 1753 -0
487 1753 -0
488 1753 -0
489 1753 -0
490 1753 -0
491 1753 -0
492 1753 -0
493 1753 0
494 1753 0
495 1753 0
496 1753 0
497 1753 0
498 1753 0
499 1753 0
500 1753 0
501 1753 0
502 1753 0
503 1753 0
504 1753 0
1353 1753 -0.1803189598547551
1354 1753 -0.25584631152049064
1355 1753 -0.074765084896359371
1356 1753 -0.06244980534901011
481 1754 -0
482 1754 -0.99509004789631994
483 1754 -0
484 1754 -0
485 1754 -0
486 1754 -0
487 1754 -0
488 1754 -0
489 1754 -0
490 1754 -0
491 1754 -0
492 1754 -0
493 1754 0
494 1754 0
495 1754 0
496 1754 0
497 1754 0
498 1754 0
499 1754 0
500 1754 0
501 1754 0
502 1754 0
503 1754 0
504 1754 0
1353 1754 0.10820261428783474
1354 1754 0.080196783561304039
1355 1754 -0.016866001348705428
1356 1754 -0.17094248486675911
481 1755 -0
482 1755 -0
483 1755 -0.99509004789631994
484 1755 -0
485 1755 -0
486 1755 -0
487 1755 -0
488 1755 -0
489 1755 -0
490 1755 -0
491 1755 -0
492 1755 -0
493 1755 0
494 1755 0
495 1755 0
496 1755 0
497 1755 0
498 1755 0
499 1755 0
500 1755 0
501 1755 0
502 1755 0
503 1755 0
504 1755 0
1353 1755 0.021296203412182201
1354 1755 0.06379387941368389
1355 1755 0.33227429440027084
1356 1755 0.038055274961526345
481 1756 -0
482 1756 -0
483 1756 -0
484 1756 -0.99509004789631994
485 1756 -0
486 1756 -0
487 1756 -0
488 1756 -0
489 1756 -0
490 1756 -0
491 1756 -0
492 1756 -0
493 1756 0
494 1756 0
495 1756 0
496 1756 0
497 1756 0
498 1756 0
499 1756 0
500 1756 0
501 1756 0
502 1756 0
503 1756 0
504 1756 0
1353 1756 0.19846746771042395
1354 1756 0.13291349456905685
1355 1756 -0.11659569025066187
1356 1756 0.1709989853023412
481 1757 -0
482 1757 -0
483 1757 -0
484 1757 -0
485 1757 -0.99509004789631994
486 1757 -0
487 1757 -0
488 1757 -0
489 1757 -0
490 1757 -0
491 1757 -0
492 1757 -0
493 1757 0
494 1757 0
495 1757 0
496 1757 0
497 1757 0
498 1757 0
499 1757 0
500 1757 0
501 1757 0
502 1757 0
503 1757 0
504 1757 0
1353 1757 0.06406726430169403
1354 1757 0.0077975121873435499
1355 1757 -0.012888481757033089
1356 1757 0.1821584263174176
481 1758 -0
482 1758 -0
483 1758 -0
484 1758 -0
485 1758 -0
486 1758 -0.99509004789631994
487 1758 -0
488 1758 -0
489 1758 -0
490 1758 -0
491 1758 -0
492 1758 -0
493 1758 0
494 1758 0
495 1758 0
496 1758 0
497 1758 0
498 1758 0
499 1758 0
500 1758 0
501 1758 0
502 1758 0
503 1758 0
504 1758 0
1353 1758 0.14930176975937659
1354 1758 -0.1220518999462523
1355 1758 -0.21437482240798272
1356 1758 -0.27728111366749703
481 1759 -0
482 1759 -0
483 1759 -0
484 1759 -0
485 1759 -0
486 1759 -0
487 1759 -0.99509004789631994
488 1759 -0
489 1759 -0
490 1759 -0
491 1759 -0
492 1759 -0
493 1759 0
494 1759 0
495 1759 0
496 1759 0
497 1759 0
498 1759 0
499 1759 0
500 1759 0
501 1759 0
502 1759 0
503 1759 0
504 1759 0
1353 1759 -0.27832449100114248
1354 1759 -0.023030066571549251
1355 1759 0.085999904285044407
1356 1759 0.14042558666593874
481 1760 -0
482 1760 -0
483 1760 -0
484 1760 -0
485 1760 -0
486 1760 -0
487 1760 -0
488 1760 -0.99509004789631994
489 1760 -0
490 1760 -0
491 1760 -0
492 1760 -0
493 1760 0
494 1760 0
495 1760 0
496 1760 0
497 1760 0
498 1760 0
499 1760 0
500 1760 0
501 1760 0
502 1760 0
503 1760 0
504 1760 0
1353 1760 0.14426661227624929
1354 1760 0.019112219351713613
1355 1760 -0.3383340256558125
1356 1760 -0.26332006554483989
481 1761 -0
482 1761 -0
483 1761 -0
484 1761 -0
485 1761 -0
486 1761 -0
487 1761 -0
488 1761 -0
489 1761 -0.99509004789631994
490 1761 -0
491 1761 -0
492 1761 -0
493 1761 0
494 1761 0
495 1761 0
496 1761 0
497 1761 0
498 1761 0
499 1761 0
500 1761 0
501 1761 0
502 1761 0
503 1761 0
504 1761 0
1353 1761 -0.11462509557936003
1354 1761 -0.065598224589830417
1355 1761 0.12045547271290091
1356 1761 0.066735657880519217
481 1762 -0
482 1762 -0
483 1762 -0
484 1762 -0
485 1762 -0
486 1762 -0
487 1762 -0
488 1762 -0
489 1762 -0
490 1762 -0.99509004789631994
491 1762 -0
492 1762 -0
493 1762 0
494 1762 0
495 1762 0
496 1762 0
497 1762 0
498 1762 0
499 1762 0
500 1762 0
501 1762 0
502 1762 0
503 1762 0
504 1762 0
1353 1762 0.1112726701807888
1354 1762 -0.18163442438886057
1355 1762 -0.24934842404473068
1356 1762 0.087619788974651794
481 1763 -0
482 1763 -0
483 1763 -0
484 1763 -0
485 1763 -0
486 1763 -0
487 1763 -0
488 1763 -0
489 1763 -0
490 1763 -0
491 1763 -0.99509004789631994
492 1763 -0
493 1763 0
494 1763 0
495 1763 0
496 1763 0
497 1763 0
498 1763 0
499 1763 0
500 1763 0
501 1763 0
502 1763 0
503 1763 0
504 1763 0
1353 1763 0.0048220099123521959
1354 1763 -0.09230703811323461
1355 1763 -0.22028815111069383
1356 1763 -0.062540089363958593
481 1764 -0
482 1764 -0
483 1764 -0
484 1764 -0
485 1764 -0
486 1764 -0
487 1764 -0
488 1764 -0
489 1764 -0
490 1764 -0
491 1764 -0
492 1764 -0.99509004789631994
493 1764 0
494 1764 0
495 1764 0
496 1764 0
497 1764 0
498 1764 0
499 1764 0
500 1764 0
501 1764 0
502 1764 0
503 1764 0
504 1764 0
1353 1764 0.22589481330245723
1354 1764 0.085512196920050021
1355 1764 -0.209328877595194
1356 1764 0.014853171089538656
481 1765 0
482 1765 0
483 1765 0
484 1765 0
485 1765 0
486 1765 0
487 1765 0
488 1765 0
489 1765 0
490 1765 0
491 1765 0
492 1765 0
493 1765 0.99509004789631994
494 1765 0
495 1765 0
496 1765 0
497 1765 0
498 1765 0
499 1765 0
500 1765 0
501 1765 0
502 1765 0
503 1765 0
504 1765 0
1353 1765 0
1354 1765 0
1355 1765 0
1356 1765 0
481 1766 0
482 1766 0
483 1766 0
484 1766 0
485 1766 0
486 1766 0
487 1766 0
488 1766 0
489 1766 0
490 1766 0
491 1766 0
492 1766 0
493 1766 0
494 1766 0.99509004789631994
495 1766 0
496 1766 0
497 1766 0
498 1766 0
499 1766 0
500 1766 0
501 1766 0
502 1766 0
503 1766 0
504 1766 0
1353 1766 0
1354 1766 0
1355 1766 0
1356 1766 0
481 1767 0
482 1767 0
483 1767 0
484 1767 0
485 1767 0
486 1767 0
487 1767 0
488 1767 0
489 1767 0
490 1767 0
491 1767 0
492 1767 0
493 1767 0
494 1767 0
495 1767 0.99509004789631994
496 1767 0
497 1767 0
498 1767 0
499 1767 0
500 1767 0
501 1767 0
502 1767 0
503 1767 0
504 1767 0
1353 1767 0
1354 1767 0
1355 1767 0
1356 1767 0
481 1768 0
482 1768 0
483 1768 0
484 1768 0
485 1768 0
486 1768 0
487 1768 0
488 1768 0
489 1768 0
490 1768 0
491 1768 0
492 1768 0
493 1768 0
494 1768 0
495 1768 0
496 1768 0.99509004789631994
497 1768 0
498 1768 0
499 1768 0
500 1768 0
501 1768 0
502 1768 0
503 1768 0
504 1768 0
1353 1768 0
1354 1768 0
1355 1768 0
1356 1768 0
481 1769 0
482 1769 0
483 1769 0
484 1769 0
485 1769 0
486 1769 0
487 1769 0
488 1769 0
489 1769 0
490 1769 0
491 1769 0
492 1769 0
493 1769 0
494 1769 0
495 1769 0
496 1769 0
497 1769 0.99509004789631994
498 1769 0
499 1769 0
500 1769 0
501 1769 0
502 1769 0
503 1769 0
504 1769 0
1353 1769 0
1354 1769 0
1355 1769 0
1356 1769 0
481 1770 0
482 1770 0
483 1770 0
484 1770 0
485 1770 0
486 1770 0
487 1770 0
488 1770 0
489 1770 0
490 1770 0
491 1770 0
492 1770 0
493 1770 0
494 1770 0
495 1770 0
496 1770 0
497 1770 0
498 1770 0.99509004789631994
499 1770 0
500 1770 0
501 1770 0
502 1770 0
503 1770 0
504 1770 0
1353 1770 0
1354 1770 0
1355 1770 0
1356 1770 0
481 1771 0
482 1771 0
483 1771 0
484 1771 0
485 1771 0
486 1771 0
487 1771 0
488 1771 0
489 1771 0
490 1771 0
491 1771 0
492 1771 0
493 1771 0
494 1771 0
495 1771 0
496 1771 0
497 1771 0
498 1771 0
499 1771 0.99509004789631994
500 1771 0
501 1771 0
502 1771 0
503 1771 0
504 1771 0
1353 1771 0
1354 1771 0
1355 1771 0
1356 1771 0
481 1772 0
482 1772 0
483 1772 0
484 1772 0
485 1772 0
486 1772 0
487 1772 0
488 1772 0
489 1772 0
490 1772 0
491 1772 0
492 1772 0
493 1772 0
494 1772 0
495 1772 0
496 1772 0
497 1772 0
498 1772 0
499 1772 0
500 1772 0.99509004789631994
501 1772 0
502 1772 0
503 1772 0
504 1772 0
1353 1772 0
1354 1772 0
1355 1772 0
1356 1772 0
481 1773 0
482 1773 0
483 1773 0
484 1773 0
485 1773 0
486 1773 0
487 1773 0
488 1773 0
489 1773 0
490 1773 0
491 1773 0
492 1773 0
493 1773 0
494 1773 0
495 1773 0
496 1773 0
497 1773 0
498 1773 0
499 1773 0
500 1773 0
501 1773 0.99509004789631994
502 1773 0
503 1773 0
504 1773 0
1353 1773 0
1354 1773 0
1355 1773 0
1356 1773 0
481 1774 0
482 1774 0
483 1774 0
484 1774 0
485 1774 0
486 1774 0
487 1774 0
488 1774 0
489 1774 0
490 1774 0
491 1774 0
492 1774 0
493 1774 0
494 1774 0
495 1774 0
496 1774 0
497 1774 0
498 1774 0
499 1774 0
500 1774 0
501 1774 0
502 1774 0.99509004789631994
503 1774 0
504 1774 0
1353 1774 0
1354 1774 0
1355 1774 0
1356 1774 0
481 1775 0
482 1775 0
483 1775 0
484 1775 0
485 1775 0
486 1775 0
487 1775 0
488 1775 0
489 1775 0
490 1775 0
491 1775 0
492 1775 0
493 1775 0
494 1775 0
495 1775 0
496 1775 0
497 1775 0
498 1775 0
499 1775 0
500 1775 0
501 1775 0
502 1775 0
503 1775 0.99509004789631994
504 1775 0
1353 1775 0
1354 1775 0
1355 1775 0
1356 1775 0
481 1776 0
482 1776 0
483 1776 0
484 1776 0
485 1776 0
486 1776 0
487 1776 0
488 1776 0
489 1776 0
490 1776 0
491 1776 0
492 1776 0
493 1776 0
494 1776 0
495 1776 0
496 1776 0
497 1776 0
498 1776 0
499 1776 0
500 1776 0
501 1776 0
502 1776 0
503 1776 0
504 1776 0.99509004789631994
1353 1776 0
1354 1776 0
1355 1776 0
1356 1776 0
1349 1777 0
1350 1777 0
1351 1777 0
1352 1777 0
1633 1777 0
1349 1778 0.99878751991636638
1350 1778 0
1351 1778 0
1352 1778 0
1633 1778 0
1349 1779 0
1350 1779 0.99886974093913028
1351 1779 0
1352 1779 0
1633 1779 0
1349 1780 0
1350 1780 0
1351 1780 0.99859691322799182
1352 1780 0
1633 1780 0
1349 1781 0
1350 1781 0
1351 1781 0
1352 1781 0.99879118685427859
1633 1781 0
1349 1782 0
1350 1782 0
1351 1782 0
1352 1782 0
1633 1782 1
469 1783 -0.99509004789631994
470 1783 -0
471 1783 -0
472 1783 -0
473 1783 -0
474 1783 -0
475 1783 -0
476 1783 -0
477 1783 -0
478 1783 -0
479 1783 -0
480 1783 -0
481 1783 0
482 1783 0
483 1783 0
484 1783 0
485 1783 0
486 1783 0
487 1783 0
488 1783 0
489 1783 0
490 1783 0
491 1783 0
492 1783 0
1349 1783 -0.1803189598547551
1350 1783 -0.25584631152049064
1351 1783 -0.074765084896359371
1352 1783 -0.06244980534901011
469 1784 -0
470 1784 -0.99509004789631994
471 1784 -0
472 1784 -0
473 1784 -0
474 1784 -0
475 1784 -0
476 1784 -0
477 1784 -0
478 1784 -0
479 1784 -0
480 1784 -0
481 1784 0
482 1784 0
483 1784 0
484 1784 0
485 1784 0
486 1784 0
487 1784 0
488 1784 0
489 1784 0
490 1784 0
491 1784 0
492 1784 0
1349 1784 0.10820261428783474
1350 1784 0.080196783561304039
1351 1784 -0.016866001348705428
1352 1784 -0.17094248486675911
469 1785 -0
470 1785 -0
471 1785 -0.99509004789631994
472 1785 -0
473 1785 -0
474 1785 -0
475 1785 -0
476 1785 -0
477 1785 -0
478 1785 -0
479 1785 -0
480 1785 -0
481 1785 0
482 1785 0
483 1785 0
484 1785 0
485 1785 0
486 1785 0
487 1785 0
488 1785 0
489 1785 0
490 1785 0
491 1785 0
492 1785 0
1349 1785 0.021296203412182201
1350 1785 0.06379387941368389
1351 1785 0.33227429440027084
1352 1785 0.038055274961526345
469 1786 -0
470 1786 -0
471 1786 -0
472 1786 -0.99509004789631994
473 1786 -0
474 1786 -0
475 1786 -0
476 1786 -0
477 1786 -0
478 1786 -0
479 1786 -0
480 1786 -0
481 1786 0
482 1786 0
483 1786 0
484 1786 0
485 1786 0
486 1786 0
487 1786 0
488 1786 0
489 1786 0
490 1786 0
491 1786 0
492 1786 0
1349 1786 0.19846746771042395
1350 1786 0.13291349456905685
1351 1786 -0.11659569025066187
1352 1786 0.1709989853023412
469 1787 -0
470 1787 -0
471 1787 -0
472 1787 -0
473 1787 -0.99509004789631994
474 1787 -0
475 1787 -0
476 1787 -0
477 1787 -0
478 1787 -0
479 1787 -0
480 1787 -0
481 1787 0
482 1787 0
483 1787 0
484 1787 0
485 1787 0
486 1787 0
487 1787 0
488 1787 0
489 1787 0
490 1787 0
491 1787 0
492 1787 0
1349 1787 0.06406726430169403
1350 1787 0.0077975121873435499
1351 1787 -0.012888481757033089
1352 1787 0.1821584263174176
469 1788 -0
470 1788 -0
471 1788 -0
472 1788 -0
473 1788 -0
474 1788 -0.99509004789631994
475 1788 -0
476 1788 -0
477 1788 -0
478 1788 -0
479 1788 -0
480 1788 -0
481 1788 0
482 1788 0
483 1788 0
484 1788 0
485 1788 0
486 1788 0
487 1788 0
488 1788 0
489 1788 0
490 1788 0
491 1788 0
492 1788 0
1349 1788 0.14930176975937659
1350 1788 -0.1220518999462523
1351 1788 -0.21437482240798272
1352 1788 -0.27728111366749703
469 1789 -0
470 1789 -0
471 1789 -0
472 1789 -0
473 1789 -0
474 1789 -0
475 1789 -0.99509004789631994
476 1789 -0
477 1789 -0
478 1789 -0
479 1789 -0
480 1789 -0
481 1789 0
482 1789 0
483 1789 0
484 1789 0
485 1789 0
486 1789 0
487 1789 0
488 1789 0
489 1789 0
490 1789 0
491 1789 0
492 1789 0
1349 1789 -0.27832449100114248
1350 1789 -0.023030066571549251
1351 1789 0.085999904285044407
1352 1789 0.14042558666593874
469 1790 -0
470 1790 -0
471 1790 -0
472 1790 -0
473 1790 -0
474 1790 -0
475 1790 -0
476 1790 -0.99509004789631994
477 1790 -0
478 1790 -0
479 1790 -0
480 1790 -0
481 1790 0
482 1790 0
483 1790 0
484 1790 0
485 1790 0
486 1790 0
487 1790 0
488 1790 0
489 1790 0
490 1790 0
491 1790 0
492 1790 0
1349 1790 0.14426661227624929
1350 1790 0.019112219351713613
1351 1790 -0.3383340256558125
1352 1790 -0.26332006554483989
469 1791 -0
470 1791 -0
471 1791 -0
472 1791 -0
473 1791 -0
474 1791 -0
475 1791 -0
476 1791 -0
477 1791 -0.99509004789631994
478 1791 -0
479 1791 -0
480 1791 -0
481 1791 0
482 1791 0
483 1791 0
484 1791 0
485 1791 0
486 1791 0
487 1791 0
488 1791 0
489 1791 0
490 1791 0
491 1791 0
492 1791 0
1349 1791 -0.11462509557936003
1350 1791 -0.065598224589830417
1351 1791 0.12045547271290091
1352 1791 0.066735657880519217
469 1792 -0
470 1792 -0
471 1792 -0
472 1792 -0
473 1792 -0
474 1792 -0
475 1792 -0
476 1792 -0
477 1792 -0
478 1792 -0.99509004789631994
479 1792 -0
480 1792 -0
481 1792 0
482 1792 0
483 1792 0
484 1792 0
485 1792 0
486 1792 0
487 1792 0
488 1792 0
489 1792 0
490 1792 0
491 1792 0
492 1792 0
1349 1792 0.1112726701807888
1350 1792 -0.18163442438886057
1351 1792 -0.24934842404473068
1352 1792 0.087619788974651794
469 1793 -0
470 1793 -0
471 1793 -0
472 1793 -0
473 1793 -0
474 1793 -0
475 1793 -0
476 1793 -0
477 1793 -0
478 1793 -0
479 1793 -0.99509004789631994
480 1793 -0
481 1793 0
482 1793 0
483 1793 0
484 1793 0
485 1793 0
486 1793 0
487 1793 0
488 1793 0
489 1793 0
490 1793 0
491 1793 0
492 1793 0
1349 1793 0.0048220099123521959
1350 1793 -0.09230703811323461
1351 1793 -0.22028815111069383
1352 1793 -0.062540089363958593
469 1794 -0
470 1794 -0
471 1794 -0
472 1794 -0
473 1794 -0
474 1794 -0
475 1794 -0
476 1794 -0
477 1794 -0
478 1794 -0
479 1794 -0
480 1794 -0.99509004789631994
481 1794 0
482 1794 0
483 1794 0
484 1794 0
485 1794 0
486 1794 0
487 1794 0
488 1794 0
489 1794 0
490 1794 0
491 1794 0
492 1794 0
1349 1794 0.22589481330245723
1350 1794 0.085512196920050021
1351 1794 -0.209328877595194
1352 1794 0.014853171089538656
469 1795 0
470 1795 0
471 1795 0
472 1795 0
473 1795 0
474 1795 0
475 1795 0
476 1795 0
477 1795 0
478 1795 0
479 1795 0
480 1795 0
481 1795 0.99509004789631994
482 1795 0
483 1795 0
484 1795 0
485 1795 0
486 1795 0
487 1795 0
488 1795 0
489 1795 0
490 1795 0
491 1795 0
492 1795 0
1349 1795 0
1350 1795 0
1351 1795 0
1352 1795 0
469 1796 0
470 1796 0
471 1796 0
472 1796 0
473 1796 0
474 1796 0
475 1796 0
476 1796 0
477 1796 0
478 1796 0
479 1796 0
480 1796 0
481 1796 0
482 1796 0.99509004789631994
483 1796 0
484 1796 0
485 1796 0
486 1796 0
487 1796 0
488 1796 0
489 1796 0
490 1796 0
491 1796 0
492 1796 0
1349 1796 0
1350 1796 0
1351 1796 0
1352 1796 0
469 1797 0
470 1797 0
471 1797 0
472 1797 0
473 1797 0
474 1797 0
475 1797 0
476 1797 0
477 1797 0
478 1797 0
479 1797 0
480 1797 0
481 1797 0
482 1797 0
483 1797 0.99509004789631994
484 1797 0
485 1797 0
486 1797 0
487 1797 0
488 1797 0
489 1797 0
490 1797 0
491 1797 0
492 1797 0
1349 1797 0
1350 1797 0
1351 1797 0
1352 1797 0
469 1798 0
470 1798 0
471 1798 0
472 1798 0
473 1798 0
474 1798 0
475 1798 0
476 1798 0
477 1798 0
478 1798 0
479 1798 0
480 1798 0
481 1798 0
482 1798 0
483 1798 0
484 1798 0.99509004789631994
485 1798 0
486 1798 0
487 1798 0
488 1798 0
489 1798 0
490 1798 0
491 1798 0
492 1798 0
1349 1798 0
1350 1798 0
1351 1798 0
1352 1798 0
469 1799 0
470 1799 0
471 1799 0
472 1799 0
473 1799 0
474 1799 0
475 1799 0
476 1799 0
477 1799 0
478 1799 0
479 1799 0
480 1799 0
481 1799 0
482 1799 0
483 1799 0
484 1799 0
485 1799 0.99509004789631994
486 1799 0
487 1799 0
488 1799 0
489 1799 0
490 1799 0
491 1799 0
492 1799 0
1349 1799 0
1350 1799 0
1351 1799 0
1352 1799 0
469 1800 0
470 1800 0
471 1800 0
472 1800 0
473 1800 0
474 1800 0
475 1800 0
476 1800 0
477 1800 0
478 1800 0
479 1800 0
480 1800 0
481 1800 0
482 1800 0
483 1800 0
484 1800 0
485 1800 0
486 1800 0.99509004789631994
487 1800 0
488 1800 0
489 1800 0
490 1800 0
491 1800 0
492 1800 0
1349 1800 0
1350 1800 0
1351 1800 0
1352 1800 0
469 1801 0
470 1801 0
471 1801 0
472 1801 0
473 1801 0
474 1801 0
475 1801 0
476 1801 0
477 1801 0
478 1801 0
479 1801 0
480 1801 0
481 1801 0
482 1801 0
483 1801 0
484 1801 0
485 1801 0
486 1801 0
487 1801 0.99509004789631994
488 1801 0
489 1801 0
490 1801 0
491 1801 0
492 1801 0
1349 1801 0
1350 1801 0
1351 1801 0
1352 1801 0
469 1802 0
470 1802 0
471 1802 0
472 1802 0
473 1802 0
474 1802 0
475 1802 0
476 1802 0
477 1802 0
478 1802 0
479 1802 0
480 1802 0
481 1802 0
482 1802 0
483 1802 0
484 1802 0
485 1802 0
486 1802 0
487 1802 0
488 1802 0.99509004789631994
489 1802 0
490 1802 0
491 1802 0
492 1802 0
1349 1802 0
1350 1802 0
1351 1802 0
1352 1802 0
469 1803 0
470 1803 0
471 1803 0
472 1803 0
473 1803 0
474 1803 0
475 1803 0
476 1803 0
477 1803 0
478 1803 0
479 1803 0
480 1803 0
481 1803 0
482 1803 0
483 1803 0
484 1803 0
485 1803 0
486 1803 0
487 1803 0
488 1803 0
489 1803 0.99509004789631994
490 1803 0
491 1803 0
492 1803 0
1349 1803 0
1350 1803 0
1351 1803 0
1352 1803 0
469 1804 0
470 1804 0
471 1804 0
472 1804 0
473 1804 0
474 1804 0
475 1804 0
476 1804 0
477 1804 0
478 1804 0
479 1804 0
480 1804 0
481 1804 0
482 1804 0
483 1804 0
484 1804 0
485 1804 0
486 1804 0
487 1804 0
488 1804 0
489 1804 0
490 1804 0.99509004789631994
491 1804 0
492 1804 0
1349 1804 0
1350 1804 0
1351 1804 0
1352 1804 0
469 1805 0
470 1805 0
471 1805 0
472 1805 0
473 1805 0
474 1805 0
475 1805 0
476 1805 0
477 1805 0
478 1805 0
479 1805 0
480 1805 0
481 1805 0
482 1805 0
483 1805 0
484 1805 0
485 1805 0
486 1805 0
487 1805 0
488 1805 0
489 1805 0
490 1805 0
491 1805 0.99509004789631994
492 1805 0
1349 1805 0
1350 1805 0
1351 1805 0
1352 1805 0
469 1806 0
470 1806 0
471 1806 0
472 1806 0
473 1806 0
474 1806 0
475 1806 0
476 1806 0
477 1806 0
478 1806 0
479 1806 0
480 1806 0
481 1806 0
482 1806 0
483 1806 0
484 1806 0
485 1806 0
486 1806 0
487 1806 0
488 1806 0
489 1806 0
490 1806 0
491 1806 0
492 1806 0.99509004789631994
1349 1806 0
1350 1806 0
1351 1806 0
1352 1806 0
1345 1807 0
1346 1807 0
1347 1807 0
1348 1807 0
1632 1807 0
1345 1808 0.99878751991636638
1346 1808 0
1347 1808 0
1348 1808 0
1632 1808 0
1345 1809 0
1346 1809 0.99886974093913028
1347 1809 0
1348 1809 0
1632 1809 0
1345 1810 0
1346 1810 0
1347 1810 0.99859691322799182
1348 1810 0
1632 1810 0
1345 1811 0
1346 1811 0
1347 1811 0
1348 1811 0.99879118685427859
1632 1811 0
1345 1812 0
1346 1812 0
1347 1812 0
1348 1812 0
1632 1812 1
457 1813 -0.99509004789631994
458 1813 -0
459 1813 -0
460 1813 -0
461 1813 -0
462 1813 -0
463 1813 -0
464 1813 -0
465 1813 -0
466 1813 -0
467 1813 -0
468 1813 -0
469 1813 0
470 1813 0
471 1813 0
472 1813 0
473 1813 0
474 1813 0
475 1813 0
476 1813 0
477 1813 0
478 1813 0
479 1813 0
480 1813 0
1345 1813 -0.1803189598547551
1346 1813 -0.25584631152049064
1347 1813 -0.074765084896359371
1348 1813 -0.06244980534901011
457 1814 -0
458 1814 -0.99509004789631994
459 1814 -0
460 1814 -0
461 1814 -0
462 1814 -0
463 1814 -0
464 1814 -0
465 1814 -0
466 1814 -0
467 1814 -0
468 1814 -0
469 1814 0
470 1814 0
471 1814 0
472 1814 0
473 1814 0
474 1814 0
475 1814 0
476 1814 0
477 1814 0
478 1814 0
479 1814 0
480 1814 0
1345 1814 0.10820261428783474
1346 1814 0.080196783561304039
1347 1814 -0.016866001348705428
1348 1814 -0.17094248486675911
457 1815 -0
458 1815 -0
459 1815 -0.99509004789631994
460 1815 -0
461 1815 -0
462 1815 -0
463 1815 -0
464 1815 -0
465 1815 -0
466 1815 -0
467 1815 -0
468 1815 -0
469 1815 0
470 1815 0
471 1815 0
472 1815 0
473 1815 0
474 1815 0
475 1815 0
476 1815 0
477 1815 0
478 1815 0
479 1815 0
480 1815 0
1345 1815 0.021296203412182201
1346 1815 0.06379387941368389
1347 1815 0.33227429440027084
1348 1815 0.038055274961526345
457 1816 -0
458 1816 -0
459 1816 -0
460 1816 -0.99509004789631994
461 1816 -0
462 1816 -0
463 1816 -0
464 1816 -0
465 1816 -0
466 1816 -0
467 1816 -0
468 1816 -0
469 1816 0
470 1816 0
471 1816 0
472 1816 0
473 1816 0
474 1816 0
475 1816 0
476 1816 0
477 1816 0
478 1816 0
479 1816 0
480 1816 0
1345 1816 0.19846746771042395
1346 1816 0.13291349456905685
1347 1816 -0.11659569025066187
1348 1816 0.1709989853023412
457 1817 -0
458 1817 -0
459 1817 -0
460 1817 -0
461 1817 -0.99509004789631994
462 1817 -0
463 1817 -0
464 1817 -0
465 1817 -0
466 1817 -0
467 1817 -0
468 1817 -0
469 1817 0
470 1817 0
471 1817 0
472 1817 0
473 1817 0
474 1817 0
475 1817 0
476 1817 0
477 1817 0
478 1817 0
479 1817 0
480 1817 0
1345 1817 0.06406726430169403
1346 1817 0.0077975121873435499
1347 1817 -0.012888481757033089
1348 1817 0.1821584263174176
457 1818 -0
458 1818 -0
459 1818 -0
460 1818 -0
461 1818 -0
462 1818 -0.99509004789631994
463 1818 -0
464 1818 -0
465 1818 -0
466 1818 -0
467 1818 -0
468 1818 -0
469 1818 0
470 1818 0
471 1818 0
472 1818 0
473 1818 0
474 1818 0
475 1818 0
476 1818 0
477 1818 0
478 1818 0
479 1818 0
480 1818 0
1345 1818 0.14930176975937659
1346 1818 -0.1220518999462523
1347 1818 -0.21437482240798272
1348 1818 -0.27728111366749703
457 1819 -0
458 1819 -0
459 1819 -0
460 1819 -0
461 1819 -0
462 1819 -0
463 1819 -0.99509004789631994
464 1819 -0
465 1819 -0
466 1819 -0
467 1819 -0
468 1819 -0
469 1819 0
470 1819 0
471 1819 0
472 1819 0
473 1819 0
474 1819 0
475 1819 0
476 1819 0
477 1819 0
478 1819 0
479 1819 0
480 1819 0
1345 1819 -0.27832449100114248
1346 1819 -0.023030066571549251
1347 1819 0.085999904285044407
1348 1819 0.14042558666593874
457 1820 -0
458 1820 -0
459 1820 -0
460 1820 -0
461 1820 -0
462 1820 -0
463 1820 -0
464 1820 -0.99509004789631994
465 1820 -0
466 1820 -0
467 1820 -0
468 1820 -0
469 1820 0
470 1820 0
471 1820 0
472 1820 0
473 1820 0
474 1820 0
475 1820 0
476 1820 0
477 1820 0
478 1820 0
479 1820 0
480 1820 0
1345 1820 0.14426661227624929
1346 1820 0.019112219351713613
1347 1820 -0.3383340256558125
1348 1820 -0.26332006554483989
457 1821 -0
458 1821 -0
459 1821 -0
460 1821 -0
461 1821 -0
462 1821 -0
463 1821 -0
464 1821 -0
465 1821 -0.99509004789631994
466 1821 -0
467 1821 -0
468 1821 -0
469 1821 0
470 1821 0
471 1821 0
472 1821 0
473 1821 0
474 1821 0
475 1821 0
476 1821 0
477 1821 0
478 1821 0
479 1821 0
480 1821 0
1345 1821 -0.11462509557936003
1346 1821 -0.065598224589830417
1347 1821 0.12045547271290091
1348 1821 0.066735657880519217
457 1822 -0
458 1822 -0
459 1822 -0
460 1822 -0
461 1822 -0
462 1822 -0
463 1822 -0
464 1822 -0
465 1822 -0
466 1822 -0.99509004789631994
467 1822 -0
468 1822 -0
469 1822 0
470 1822 0
471 1822 0
472 1822 0
473 1822 0
474 1822 0
475 1822 0
476 1822 0
477 1822 0
478 1822 0
479 1822 0
480 1822 0
1345 1822 0.1112726701807888
1346 1822 -0.18163442438886057
1347 1822 -0.24934842404473068
1348 1822 0.087619788974651794
457 1823 -0
458 1823 -0
459 1823 -0
460 1823 -0
461 1823 -0
462 1823 -0
463 1823 -0
464 1823 -0
465 1823 -0
466 1823 -0
467 1823 -0.99509004789631994
468 1823 -0
469 1823 0
470 1823 0
471 1823 0
472 1823 0
473 1823 0
474 1823 0
475 1823 0
476 1823 0
477 1823 0
478 1823 0
479 1823 0
480 1823 0
1345 1823 0.0048220099123521959
1346 1823 -0.09230703811323461
1347 1823 -0.22028815111069383
1348 1823 -0.062540089363958593
457 1824 -0
458 1824 -0
459 1824 -0
460 1824 -0
461 1824 -0
462 1824 -0
463 1824 -0
464 1824 -0
465 1824 -0
466 1824 -0
467 1824 -0
468 1824 -0.99509004789631994
469 1824 0
470 1824 0
471 1824 0
472 1824 0
473 1824 0
474 1824 0
475 1824 0
476 1824 0
477 1824 0
478 1824 0
479 1824 0
480 1824 0
1345 1824 0.22589481330245723
1346 1824 0.085512196920050021
1347 1824 -0.209328877595194
1348 1824 0.014853171089538656
457 1825 0
458 1825 0
459 1825 0
460 1825 0
461 1825 0
462 1825 0
463 1825 0
464 1825 0
465 1825 0
466 1825 0
467 1825 0
468 1825 0
469 1825 0.99509004789631994
470 1825 0
471 1825 0
472 1825 0
473 1825 0
474 1825 0
475 1825 0
476 1825 0
477 1825 0
478 1825 0
479 1825 0
480 1825 0
1345 1825 0
1346 1825 0
1347 1825 0
1348 1825 0
457 1826 0
458 1826 0
459 1826 0
460 1826 0
461 1826 0
462 1826 0
463 1826 0
464 1826 0
465 1826 0
466 1826 0
467 1826 0
468 1826 0
469 1826 0
470 1826 0.99509004789631994
471 1826 0
472 1826 0
473 1826 0
474 1826 0
475 1826 0
476 1826 0
477 1826 0
478 1826 0
479 1826 0
480 1826 0
1345 1826 0
1346 1826 0
1347 1826 0
1348 1826 0
457 1827 0
458 1827 0
459 1827 0
460 1827 0
461 1827 0
462 1827 0
463 1827 0
464 1827 0
465 1827 0
466 1827 0
467 1827 0
468 1827 0
469 1827 0
470 1827 0
471 1827 0.99509004789631994
472 1827 0
473 1827 0
474 1827 0
475 1827 0
476 1827 0
477 1827 0
478 1827 0
479 1827 0
480 1827 0
1345 1827 0
1346 1827 0
1347 1827 0
1348 1827 0
457 1828 0
458 1828 0
459 1828 0
460 1828 0
461 1828 0
462 1828 0
463 1828 0
464 1828 0
465 1828 0
466 1828 0
467 1828 0
468 1828 0
469 1828 0
470 1828 0
471 1828 0
472 1828 0.99509004789631994
473 1828 0
474 1828 0
475 1828 0
476 1828 0
477 1828 0
478 1828 0
479 1828 0
480 1828 0
1345 1828 0
1346 1828 0
1347 1828 0
1348 1828 0
457 1829 0
458 1829 0
459 1829 0
460 1829 0
461 1829 0
462 1829 0
463 1829 0
464 1829 0
465 1829 0
466 1829 0
467 1829 0
468 1829 0
469 1829 0
470 1829 0
471 1829 0
472 1829 0
473 1829 0.99509004789631994
474 1829 0
475 1829 0
476 1829 0
477 1829 0
478 1829 0
479 1829 0
480 1829 0
1345 1829 0
1346 1829 0
1347 1829 0
1348 1829 0
457 1830 0
458 1830 0
459 1830 0
460 1830 0
461 1830 0
462 1830 0
463 1830 0
464 1830 0
465 1830 0
466 1830 0
467 1830 0
468 1830 0
469 1830 0
470 1830 0
471 1830 0
472 1830 0
473 1830 0
474 1830 0.99509004789631994
475 1830 0
476 1830 0
477 1830 0
478 1830 0
479 1830 0
480 1830 0
1345 1830 0
1346 1830 0
1347 1830 0
1348 1830 0
457 1831 0
458 1831 0
459 1831 0
460 1831 0
461 1831 0
462 1831 0
463 1831 0
464 1831 0
465 1831 0
466 1831 0
467 1831 0
468 1831 0
469 1831 0
470 1831 0
471 1831 0
472 1831 0
473 1831 0
474 1831 0
475 1831 0.99509004789631994
476 1831 0
477 1831 0
478 1831 0
479 1831 0
480 1831 0
1345 1831 0
1346 1831 0
1347 1831 0
1348 1831 0
457 1832 0
458 1832 0
459 1832 0
460 1832 0
461 1832 0
462 1832 0
463 1832 0
464 1832 0
465 1832 0
466 1832 0
467 1832 0
468 1832 0
469 1832 0
470 1832 0
471 1832 0
472 1832 0
473 1832 0
474 1832 0
475 1832 0
476 1832 0.99509004789631994
477 1832 0
478 1832 0
479 1832 0
480 1832 0
1345 1832 0
1346 1832 0
1347 1832 0
1348 1832 0
457 1833 0
458 1833 0
459 1833 0
460 1833 0
461 1833 0
462 1833 0
463 1833 0
464 1833 0
465 1833 0
466 1833 0
467 1833 0
468 1833 0
469 1833 0
470 1833 0
471 1833 0
472 1833 0
473 1833 0
474 1833 0
475 1833 0
476 1833 0
477 1833 0.99509004789631994
478 1833 0
479 1833 0
480 1833 0
1345 1833 0
1346 1833 0
1347 1833 0
1348 1833 0
457 1834 0
458 1834 0
459 1834 0
460 1834 0
461 1834 0
462 1834 0
463 1834 0
464 1834 0
465 1834 0
466 1834 0
467 1834 0
468 1834 0
469 1834 0
470 1834 0
471 1834 0
472 1834 0
473 1834 0
474 1834 0
475 1834 0
476 1834 0
477 1834 0
478 1834 0.99509004789631994
479 1834 0
480 1834 0
1345 1834 0
1346 1834 0
1347 1834 0
1348 1834 0
457 1835 0
458 1835 0
459 1835 0
460 1835 0
461 1835 0
462 1835 0
463 1835 0
464 1835 0
465 1835 0
466 1835 0
467 1835 0
468 1835 0
469 1835 0
470 1835 0
471 1835 0
472 1835 0
473 1835 0
474 1835 0
475 1835 0
476 1835 0
477 1835 0
478 1835 0
479 1835 0.99509004789631994
480 1835 0
1345 1835 0
1346 1835 0
1347 1835 0
1348 1835 0
457 1836 0
458 1836 0
459 1836 0
460 1836 0
461 1836 0
462 1836 0
463 1836 0
464 1836 0
465 1836 0
466 1836 0
467 1836 0
468 1836 0
469 1836 0
470 1836 0
471 1836 0
472 1836 0
473 1836 0
474 1836 0
475 1836 0
476 1836 0
477 1836 0
478 1836 0
479 1836 0
480 1836 0.99509004789631994
1345 1836 0
1346 1836 0
1347 1836 0
1348 1836 0
1341 1837 0
1342 1837 0
1343 1837 0
1344 1837 0
1631 1837 0
1341 1838 0.99878751991636638
1342 1838 0
1343 1838 0
1344 1838 0
1631 1838 0
1341 1839 0
1342 1839 0.99886974093913028
1343 1839 0
1344 1839 0
1631 1839 0
1341 1840 0
1342 1840 0
1343 1840 0.99859691322799182
1344 1840 0
1631 1840 0
1341 1841 0
1342 1841 0
1343 1841 0
1344 1841 0.99879118685427859
1631 1841 0
1341 1842 0
1342 1842 0
1343 1842 0
1344 1842 0
1631 1842 1
445 1843 -0.99509004789631994
446 1843 -0
447 1843 -0
448 1843 -0
449 1843 -0
450 1843 -0
451 1843 -0
452 1843 -0
453 1843 -0
454 1843 -0
455 1843 -0
456 1843 -0
457 1843 0
458 1843 0
459 1843 0
460 1843 0
461 1843 0
462 1843 0
463 1843 0
464 1843 0
465 1843 0
466 1843 0
467 1843 0
468 1843 0
1341 1843 -0.1803189598547551
1342 1843 -0.25584631152049064
1343 1843 -0.074765084896359371
1344 1843 -0.06244980534901011
445 1844 -0
446 1844 -0.99509004789631994
447 1844 -0
448 1844 -0
449 1844 -0
450 1844 -0
451 1844 -0
452 1844 -0
453 1844 -0
454 1844 -0
455 1844 -0
456 1844 -0
457 1844 0
458 1844 0
459 1844 0
460 1844 0
461 1844 0
462 1844 0
463 1844 0
464 1844 0
465 1844 0
466 1844 0
467 1844 0
468 1844 0
1341 1844 0.10820261428783474
1342 1844 0.080196783561304039
1343 1844 -0.016866001348705428
1344 1844 -0.17094248486675911
445 1845 -0
446 1845 -0
447 1845 -0.99509004789631994
448 1845 -0
449 1845 -0
450 1845 -0
451 1845 -0
452 1845 -0
453 1845 -0
454 1845 -0
455 1845 -0
456 1845 -0
457 1845 0
458 1845 0
459 1845 0
460 1845 0
461 1845 0
462 1845 0
463 1845 0
464 1845 0
465 1845 0
466 1845 0
467 1845 0
468 1845 0
1341 1845 0.021296203412182201
1342 1845 0.06379387941368389
1343 1845 0.33227429440027084
1344 1845 0.038055274961526345
445 1846 -0
446 1846 -0
447 1846 -0
448 1846 -0.99509004789631994
449 1846 -0
450 1846 -0
451 1846 -0
452 1846 -0
453 1846 -0
454 1846 -0
455 1846 -0
456 1846 -0
457 1846 0
458 1846 0
459 1846 0
460 1846 0
461 1846 0
462 1846 0
463 1846 0
464 1846 0
465 1846 0
466 1846 0
467 1846 0
468 1846 0
1341 1846 0.19846746771042395
1342 1846 0.13291349456905685
1343 1846 -0.11659569025066187
1344 1846 0.1709989853023412
445 1847 -0
446 1847 -0
447 1847 -0
448 1847 -0
449 1847 -0.99509004789631994
450 1847 -0
451 1847 -0
452 1847 -0
453 1847 -0
454 1847 -0
455 1847 -0
456 1847 -0
457 1847 0
458 1847 0
459 1847 0
460 1847 0
461 1847 0
462 1847 0
463 1847 0
464 1847 0
465 1847 0
466 1847 0
467 1847 0
468 1847 0
1341 1847 0.06406726430169403
1342 1847 0.0077975121873435499
1343 1847 -0.012888481757033089
1344 1847 0.1821584263174176
445 1848 -0
446 1848 -0
447 1848 -0
448 1848 -0
449 1848 -0
450 1848 -0.99509004789631994
451 1848 -0
452 1848 -0
453 1848 -0
454 1848 -0
455 1848 -0
456 1848 -0
457 1848 0
458 1848 0
459 1848 0
460 1848 0
461 1848 0
462 1848 0
463 1848 0
464 1848 0
465 1848 0
466 1848 0
467 1848 0
468 1848 0
1341 1848 0.14930176975937659
1342 1848 -0.1220518999462523
1343 1848 -0.21437482240798272
1344 1848 -0.27728111366749703
445 1849 -0
446 1849 -0
447 1849 -0
448 1849 -0
449 1849 -0
450 1849 -0
451 1849 -0.99509004789631994
452 1849 -0
453 1849 -0
454 1849 -0
455 1849 -0
456 1849 -0
457 1849 0
458 1849 0
459 1849 0
460 1849 0
461 1849 0
462 1849 0
463 1849 0
464 1849 0
465 1849 0
466 1849 0
467 1849 0
468 1849 0
1341 1849 -0.27832449100114248
1342 1849 -0.023030066571549251
1343 1849 0.085999904285044407
1344 1849 0.14042558666593874
445 1850 -0
446 1850 -0
447 1850 -0
448 1850 -0
449 1850 -0
450 1850 -0
451 1850 -0
452 1850 -0.99509004789631994
453 1850 -0
454 1850 -0
455 1850 -0
456 1850 -0
457 1850 0
458 1850 0
459 1850 0
460 1850 0
461 1850 0
462 1850 0
463 1850 0
464 1850 0
465 1850 0
466 1850 0
467 1850 0
468 1850 0
1341 1850 0.14426661227624929
1342 1850 0.019112219351713613
1343 1850 -0.3383340256558125
1344 1850 -0.26332006554483989
445 1851 -0
446 1851 -0
447 1851 -0
448 1851 -0
449 1851 -0
450 1851 -0
451 1851 -0
452 1851 -0
453 1851 -0.99509004789631994
454 1851 -0
455 1851 -0
456 1851 -0
457 1851 0
458 1851 0
459 1851 0
460 1851 0
461 1851 0
462 1851 0
463 1851 0
464 1851 0
465 1851 0
466 1851 0
467 1851 0
468 1851 0
1341 1851 -0.11462509557936003
1342 1851 -0.065598224589830417
1343 1851 0.12045547271290091
1344 1851 0.066735657880519217
445 1852 -0
446 1852 -0
447 1852 -0
448 1852 -0
449 1852 -0
450 1852 -0
451 1852 -0
452 1852 -0
453 1852 -0
454 1852 -0.99509004789631994
455 1852 -0
456 1852 -0
457 1852 0
458 1852 0
459 1852 0
460 1852 0
461 1852 0
462 1852 0
463 1852 0
464 1852 0
465 1852 0
466 1852 0
467 1852 0
468 1852 0
1341 1852 0.1112726701807888
1342 1852 -0.18163442438886057
1343 1852 -0.24934842404473068
1344 1852 0.087619788974651794
445 1853 -0
446 1853 -0
447 1853 -0
448 1853 -0
449 1853 -0
450 1853 -0
451 1853 -0
452 1853 -0
453 1853 -0
454 1853 -0
455 1853 -0.99509004789631994
456 1853 -0
457 1853 0
458 1853 0
459 1853 0
460 1853 0
461 1853 0
462 1853 0
463 1853 0
464 1853 0
465 1853 0
466 1853 0
467 1853 0
468 1853 0
1341 1853 0.0048220099123521959
1342 1853 -0.09230703811323461
1343 1853 -0.22028815111069383
1344 1853 -0.062540089363958593
445 1854 -0
446 1854 -0
447 1854 -0
448 1854 -0
449 1854 -0
450 1854 -0
451 1854 -0
452 1854 -0
453 1854 -0
454 1854 -0
455 1854 -0
456 1854 -0.99509004789631994
457 1854 0
458 1854 0
459 1854 0
460 1854 0
461 1854 0
462 1854 0
463 1854 0
464 1854 0
465 1854 0
466 1854 0
467 1854 0
468 1854 0
1341 1854 0.22589481330245723
1342 1854 0.085512196920050021
1343 1854 -0.209328877595194
1344 1854 0.014853171089538656
445 1855 0
446 1855 0
447 1855 0
448 1855 0
449 1855 0
450 1855 0
451 1855 0
452 1855 0
453 1855 0
454 1855 0
455 1855 0
456 1855 0
457 1855 0.99509004789631994
458 1855 0
459 1855 0
460 1855 0
461 1855 0
462 1855 0
463 1855 0
464 1855 0
465 1855 0
466 1855 0
467 1855 0
468 1855 0
1341 1855 0
1342 1855 0
1343 1855 0
1344 1855 0
445 1856 0
446 1856 0
447 1856 0
448 1856 0
449 1856 0
450 1856 0
451 1856 0
452 1856 0
453 1856 0
454 1856 0
455 1856 0
456 1856 0
457 1856 0
458 1856 0.99509004789631994
459 1856 0
460 1856 0
461 1856 0
462 1856 0
463 1856 0
464 1856 0
465 1856 0
466 1856 0
467 1856 0
468 1856 0
1341 1856 0
1342 1856 0
1343 1856 0
1344 1856 0
445 1857 0
446 1857 0
447 1857 0
448 1857 0
449 1857 0
450 1857 0
451 1857 0
452 1857 0
453 1857 0
454 1857 0
455 1857 0
456 1857 0
457 1857 0
458 1857 0
459 1857 0.99509004789631994
460 1857 0
461 1857 0
462 1857 0
463 1857 0
464 1857 0
465 1857 0
466 1857 0
467 1857 0
468 1857 0
1341 1857 0
1342 1857 0
1343 1857 0
1344 1857 0
445 1858 0
446 1858 0
447 1858 0
448 1858 0
449 1858 0
450 1858 0
451 1858 0
452 1858 0
453 1858 0
454 1858 0
455 1858 0
456 1858 0
457 1858 0
458 1858 0
459 1858 0
460 1858 0.99509004789631994
461 1858 0
462 1858 0
463 1858 0
464 1858 0
465 1858 0
466 1858 0
467 1858 0
468 1858 0
1341 1858 0
1342 1858 0
1343 1858 0
1344 1858 0
445 1859 0
446 1859 0
447 1859 0
448 1859 0
449 1859 0
450 1859 0
451 1859 0
452 1859 0
453 1859 0
454 1859 0
455 1859 0
456 1859 0
457 1859 0
458 1859 0
459 1859 0
460 1859 0
461 1859 0.99509004789631994
462 1859 0
463 1859 0
464 1859 0
465 1859 0
466 1859 0
467 1859 0
468 1859 0
1341 1859 0
1342 1859 0
1343 1859 0
1344 1859 0
445 1860 0
446 1860 0
447 1860 0
448 1860 0
449 1860 0
450 1860 0
451 1860 0
452 1860 0
453 1860 0
454 1860 0
455 1860 0
456 1860 0
457 1860 0
458 1860 0
459 1860 0
460 1860 0
461 1860 0
462 1860 0.99509004789631994
463 1860 0
464 1860 0
465 1860 0
466 1860 0
467 1860 0
468 1860 0
1341 1860 0
1342 1860 0
1343 1860 0
1344 1860 0
445 1861 0
446 1861 0
447 1861 0
448 1861 0
449 1861 0
450 1861 0
451 1861 0
452 1861 0
453 1861 0
454 1861 0
455 1861 0
456 1861 0
457 1861 0
458 1861 0
459 1861 0
460 1861 0
461 1861 0
462 1861 0
463 1861 0.99509004789631994
464 1861 0
465 1861 0
466 1861 0
467 1861 0
468 1861 0
1341 1861 0
1342 1861 0
1343 1861 0
1344 1861 0
445 1862 0
446 1862 0
447 1862 0
448 1862 0
449 1862 0
450 1862 0
451 1862 0
452 1862 0
453 1862 0
454 1862 0
455 1862 0
456 1862 0
457 1862 0
458 1862 0
459 1862 0
460 1862 0
461 1862 0
462 1862 0
463 1862 0
464 1862 0.99509004789631994
465 1862 0
466 1862 0
467 1862 0
468 1862 0
1341 1862 0
1342 1862 0
1343 1862 0
1344 1862 0
445 1863 0
446 1863 0
447 1863 0
448 1863 0
449 1863 0
450 1863 0
451 1863 0
452 1863 0
453 1863 0
454 1863 0
455 1863 0
456 1863 0
457 1863 0
458 1863 0
459 1863 0
460 1863 0
461 1863 0
462 1863 0
463 1863 0
464 1863 0
465 1863 0.99509004789631994
466 1863 0
467 1863 0
468 1863 0
1341 1863 0
1342 1863 0
1343 1863 0
1344 1863 0
445 1864 0
446 1864 0
447 1864 0
448 1864 0
449 1864 0
450 1864 0
451 1864 0
452 1864 0
453 1864 0
454 1864 0
455 1864 0
456 1864 0
457 1864 0
458 1864 0
459 1864 0
460 1864 0
461 1864 0
462 1864 0
463 1864 0
464 1864 0
465 1864 0
466 1864 0.99509004789631994
467 1864 0
468 1864 0
1341 1864 0
1342 1864 0
1343 1864 0
1344 1864 0
445 1865 0
446 1865 0
447 1865 0
448 1865 0
449 1865 0
450 1865 0
451 1865 0
452 1865 0
453 1865 0
454 1865 0
455 1865 0
456 1865 0
457 1865 0
458 1865 0
459 1865 0
460 1865 0
461 1865 0
462 1865 0
463 1865 0
464 1865 0
465 1865 0
466 1865 0
467 1865 0.99509004789631994
468 1865 0
1341 1865 0
1342 1865 0
1343 1865 0
1344 1865 0
445 1866 0
446 1866 0
447 1866 0
448 1866 0
449 1866 0
450 1866 0
451 1866 0
452 1866 0
453 1866 0
454 1866 0
455 1866 0
456 1866 0
457 1866 0
458 1866 0
459 1866 0
460 1866 0
461 1866 0
462 1866 0
463 1866 0
464 1866 0
465 1866 0
466 1866 0
467 1866 0
468 1866 0.99509004789631994
1341 1866 0
1342 1866 0
1343 1866 0
1344 1866 0
1337 1867 0
1338 1867 0
1339 1867 0
1340 1867 0
1630 1867 0
1337 1868 0.99878751991636638
1338 1868 0
1339 1868 0
1340 1868 0
1630 1868 0
1337 1869 0
1338 1869 0.99886974093913028
1339 1869 0
1340 1869 0
1630 1869 0
1337 1870 0
1338 1870 0
1339 1870 0.99859691322799182
1340 1870 0
1630 1870 0
1337 1871 0
1338 1871 0
1339 1871 0
1340 1871 0.99879118685427859
1630 1871 0
1337 1872 0
1338 1872 0
1339 1872 0
1340 1872 0
1630 1872 1
433 1873 -0.99509004789631994
434 1873 -0
435 1873 -0
436 1873 -0
437 1873 -0
438 1873 -0
439 1873 -0
440 1873 -0
441 1873 -0
442 1873 -0
443 1873 -0
444 1873 -0
445 1873 0
446 1873 0
447 1873 0
448 1873 0
449 1873 0
450 1873 0
451 1873 0
452 1873 0
453 1873 0
454 1873 0
455 1873 0
456 1873 0
1337 1873 -0.1803189598547551
1338 1873 -0.25584631152049064
1339 1873 -0.074765084896359371
1340 1873 -0.06244980534901011
433 1874 -0
434 1874 -0.99509004789631994
435 1874 -0
436 1874 -0
437 1874 -0
438 1874 -0
439 1874 -0
440 1874 -0
441 1874 -0
442 1874 -0
443 1874 -0
444 1874 -0
445 1874 0
446 1874 0
447 1874 0
448 1874 0
449 1874 0
450 1874 0
451 1874 0
452 1874 0
453 1874 0
454 1874 0
455 1874 0
456 1874 0
1337 1874 0.10820261428783474
1338 1874 0.080196783561304039
1339 1874 -0.016866001348705428
1340 1874 -0.17094248486675911
433 1875 -0
434 1875 -0
435 1875 -0.99509004789631994
436 1875 -0
437 1875 -0
438 1875 -0
439 1875 -0
440 1875 -0
441 1875 -0
442 1875 -0
443 1875 -0
444 1875 -0
445 1875 0
446 1875 0
447 1875 0
448 1875 0
449 1875 0
450 1875 0
451 1875 0
452 1875 0
453 1875 0
454 1875 0
455 1875 0
456 1875 0
1337 1875 0.021296203412182201
1338 1875 0.06379387941368389
1339 1875 0.33227429440027084
1340 1875 0.038055274961526345
433 1876 -0
434 1876 -0
435 1876 -0
436 1876 -0.99509004789631994
437 1876 -0
438 1876 -0
439 1876 -0
440 1876 -0
441 1876 -0
442 1876 -0
443 1876 -0
444 1876 -0
445 1876 0
446 1876 0
447 1876 0
448 1876 0
449 1876 0
450 1876 0
451 1876 0
452 1876 0
453 1876 0
454 1876 0
455 1876 0
456 1876 0
1337 1876 0.19846746771042395
1338 1876 0.13291349456905685
1339 1876 -0.11659569025066187
1340 1876 0.1709989853023412
433 1877 -0
434 1877 -0
435 1877 -0
436 1877 -0
437 1877 -0.99509004789631994
438 1877 -0
439 1877 -0
440 1877 -0
441 1877 -0
442 1877 -0
443 1877 -0
444 1877 -0
445 1877 0
446 1877 0
447 1877 0
448 1877 0
449 1877 0
450 1877 0
451 1877 0
452 1877 0
453 1877 0
454 1877 0
455 1877 0
456 1877 0
1337 1877 0.06406726430169403
1338 1877 0.0077975121873435499
1339 1877 -0.012888481757033089
1340 1877 0.1821584263174176
433 1878 -0
434 1878 -0
435 1878 -0
436 1878 -0
437 1878 -0
438 1878 -0.99509004789631994
439 1878 -0
440 1878 -0
441 1878 -0
442 1878 -0
443 1878 -0
444 1878 -0
445 1878 0
446 1878 0
447 1878 0
448 1878 0
449 1878 0
450 1878 0
451 1878 0
452 1878 0
453 1878 0
454 1878 0
455 1878 0
456 1878 0
1337 1878 0.14930176975937659
1338 1878 -0.1220518999462523
1339 1878 -0.21437482240798272
1340 1878 -0.27728111366749703
433 1879 -0
434 1879 -0
435 1879 -0
436 1879 -0
437 1879 -0
438 1879 -0
439 1879 -0.99509004789631994
440 1879 -0
441 1879 -0
442 1879 -0
443 1879 -0
444 1879 -0
445 1879 0
446 1879 0
447 1879 0
448 1879 0
449 1879 0
450 1879 0
451 1879 0
452 1879 0
453 1879 0
454 1879 0
455 1879 0
456 1879 0
1337 1879 -0.27832449100114248
1338 1879 -0.023030066571549251
1339 1879 0.085999904285044407
1340 1879 0.14042558666593874
433 1880 -0
434 1880 -0
435 1880 -0
436 1880 -0
437 1880 -0
438 1880 -0
439 1880 -0
440 1880 -0.99509004789631994
441 1880 -0
442 1880 -0
443 1880 -0
444 1880 -0
445 1880 0
446 1880 0
447 1880 0
448 1880 0
449 1880 0
450 1880 0
451 1880 0
452 1880 0
453 1880 0
454 1880 0
455 1880 0
456 1880 0
1337 1880 0.14426661227624929
1338 1880 0.019112219351713613
1339 1880 -0.3383340256558125
1340 1880 -0.26332006554483989
433 1881 -0
434 1881 -0
435 1881 -0
436 1881 -0
437 1881 -0
438 1881 -0
439 1881 -0
440 1881 -0
441 1881 -0.99509004789631994
442 1881 -0
443 1881 -0
444 1881 -0
445 1881 0
446 1881 0
447 1881 0
448 1881 0
449 1881 0
450 1881 0
451 1881 0
452 1881 0
453 1881 0
454 1881 0
455 1881 0
456 1881 0
1337 1881 -0.11462509557936003
1338 1881 -0.065598224589830417
1339 1881 0.12045547271290091
1340 1881 0.066735657880519217
433 1882 -0
434 1882 -0
435 1882 -0
436 1882 -0
437 1882 -0
438 1882 -0
439 1882 -0
440 1882 -0
441 1882 -0
442 1882 -0.99509004789631994
443 1882 -0
444 1882 -0
445 1882 0
446 1882 0
447 1882 0
448 1882 0
449 1882 0
450 1882 0
451 1882 0
452 1882 0
453 1882 0
454 1882 0
455 1882 0
456 1882 0
1337 1882 0.1112726701807888
1338 1882 -0.18163442438886057
1339 1882 -0.24934842404473068
1340 1882 0.087619788974651794
433 1883 -0
434 1883 -0
435 1883 -0
436 1883 -0
437 1883 -0
438 1883 -0
439 1883 -0
440 1883 -0
441 1883 -0
442 1883 -0
443 1883 -0.99509004789631994
444 1883 -0
445 1883 0
446 1883 0
447 1883 0
448 1883 0
449 1883 0
450 1883 0
451 1883 0
452 1883 0
453 1883 0
454 1883 0
455 1883 0
456 1883 0
1337 1883 0.0048220099123521959
1338 1883 -0.09230703811323461
1339 1883 -0.22028815111069383
1340 1883 -0.062540089363958593
433 1884 -0
434 1884 -0
435 1884 -0
436 1884 -0
437 1884 -0
438 1884 -0
439 1884 -0
440 1884 -0
441 1884 -0
442 1884 -0
443 1884 -0
444 1884 -0.99509004789631994
445 1884 0
446 1884 0
447 1884 0
448 1884 0
449 1884 0
450 1884 0
451 1884 0
452 1884 0
453 1884 0
454 1884 0
455 1884 0
456 1884 0
1337 1884 0.22589481330245723
1338 1884 0.085512196920050021
1339 1884 -0.209328877595194
1340 1884 0.014853171089538656
433 1885 0
434 1885 0
435 1885 0
436 1885 0
437 1885 0
438 1885 0
439 1885 0
440 1885 0
441 1885 0
442 1885 0
443 1885 0
444 1885 0
445 1885 0.99509004789631994
446 1885 0
447 1885 0
448 1885 0
449 1885 0
450 1885 0
451 1885 0
452 1885 0
453 1885 0
454 1885 0
455 1885 0
456 1885 0
1337 1885 0
1338 1885 0
1339 1885 0
1340 1885 0
433 1886 0
434 1886 0
435 1886 0
436 1886 0
437 1886 0
438 1886 0
439 1886 0
440 1886 0
441 1886 0
442 1886 0
443 1886 0
444 1886 0
445 1886 0
446 1886 0.99509004789631994
447 1886 0
448 1886 0
449 1886 0
450 1886 0
451 1886 0
452 1886 0
453 1886 0
454 1886 0
455 1886 0
456 1886 0
1337 1886 0
1338 1886 0
1339 1886 0
1340 1886 0
433 1887 0
434 1887 0
435 1887 0
436 1887 0
437 1887 0
438 1887 0
439 1887 0
440 1887 0
441 1887 0
442 1887 0
443 1887 0
444 1887 0
445 1887 0
446 1887 0
447 1887 0.99509004789631994
448 1887 0
449 1887 0
450 1887 0
451 1887 0
452 1887 0
453 1887 0
454 1887 0
455 1887 0
456 1887 0
1337 1887 0
1338 1887 0
1339 1887 0
1340 1887 0
433 1888 0
434 1888 0
435 1888 0
436 1888 0
437 1888 0
438 1888 0
439 1888 0
440 1888 0
441 1888 0
442 1888 0
443 1888 0
444 1888 0
445 1888 0
446 1888 0
447 1888 0
448 1888 0.99509004789631994
449 1888 0
450 1888 0
451 1888 0
452 1888 0
453 1888 0
454 1888 0
455 1888 0
456 1888 0
1337 1888 0
1338 1888 0
1339 1888 0
1340 1888 0
433 1889 0
434 1889 0
435 1889 0
436 1889 0
437 1889 0
438 1889 0
439 1889 0
440 1889 0
441 1889 0
442 1889 0
443 1889 0
444 1889 0
445 1889 0
446 1889 0
447 1889 0
448 1889 0
449 1889 0.99509004789631994
450 1889 0
451 1889 0
452 1889 0
453 1889 0
454 1889 0
455 1889 0
456 1889 0
1337 1889 0
1338 1889 0
1339 1889 0
1340 1889 0
433 1890 0
434 1890 0
435 1890 0
436 1890 0
437 1890 0
438 1890 0
439 1890 0
440 1890 0
441 1890 0
442 1890 0
443 1890 0
444 1890 0
445 1890 0
446 1890 0
447 1890 0
448 1890 0
449 1890 0
450 1890 0.99509004789631994
451 1890 0
452 1890 0
453 1890 0
454 1890 0
455 1890 0
456 1890 0
1337 1890 0
1338 1890 0
1339 1890 0
1340 1890 0
433 1891 0
434 1891 0
435 1891 0
436 1891 0
437 1891 0
438 1891 0
439 1891 0
440 1891 0
441 1891 0
442 1891 0
443 1891 0
444 1891 0
445 1891 0
446 1891 0
447 1891 0
448 1891 0
449 1891 0
450 1891 0
451 1891 0.99509004789631994
452 1891 0
453 1891 0
454 1891 0
455 1891 0
456 1891 0
1337 1891 0
1338 1891 0
1339 1891 0
1340 1891 0
433 1892 0
434 1892 0
435 1892 0
436 1892 0
437 1892 0
438 1892 0
439 1892 0
440 1892 0
441 1892 0
442 1892 0
443 1892 0
444 1892 0
445 1892 0
446 1892 0
447 1892 0
448 1892 0
449 1892 0
450 1892 0
451 1892 0
452 1892 0.99509004789631994
453 1892 0
454 1892 0
455 1892 0
456 1892 0
1337 1892 0
1338 1892 0
1339 1892 0
1340 1892 0
433 1893 0
434 1893 0
435 1893 0
436 1893 0
437 1893 0
438 1893 0
439 1893 0
440 1893 0
441 1893 0
442 1893 0
443 1893 0
444 1893 0
445 1893 0
446 1893 0
447 1893 0
448 1893 0
449 1893 0
450 1893 0
451 1893 0
452 1893 0
453 1893 0.99509004789631994
454 1893 0
455 1893 0
456 1893 0
1337 1893 0
1338 1893 0
1339 1893 0
1340 1893 0
433 1894 0
434 1894 0
435 1894 0
436 1894 0
437 1894 0
438 1894 0
439 1894 0
440 1894 0
441 1894 0
442 1894 0
443 1894 0
444 1894 0
445 1894 0
446 1894 0
447 1894 0
448 1894 0
449 1894 0
450 1894 0
451 1894 0
452 1894 0
453 1894 0
454 1894 0.99509004789631994
455 1894 0
456 1894 0
1337 1894 0
1338 1894 0
1339 1894 0
1340 1894 0
433 1895 0
434 1895 0
435 1895 0
436 1895 0
437 1895 0
438 1895 0
439 1895 0
440 1895 0
441 1895 0
442 1895 0
443 1895 0
444 1895 0
445 1895 0
446 1895 0
447 1895 0
448 1895 0
449 1895 0
450 1895 0
451 1895 0
452 1895 0
453 1895 0
454 1895 0
455 1895 0.99509004789631994
456 1895 0
1337 1895 0
1338 1895 0
1339 1895 0
1340 1895 0
433 1896 0
434 1896 0
435 1896 0
436 1896 0
437 1896 0
438 1896 0
439 1896 0
440 1896 0
441 1896 0
442 1896 0
443 1896 0
444 1896 0
445 1896 0
446 1896 0
447 1896 0
448 1896 0
449 1896 0
450 1896 0
451 1896 0
452 1896 0
453 1896 0
454 1896 0
455 1896 0
456 1896 0.99509004789631994
1337 1896 0
1338 1896 0
1339 1896 0
1340 1896 0
1333 1897 0
1334 1897 0
1335 1897 0
1336 1897 0
1629 1897 0
1333 1898 0.99878751991636638
1334 1898 0
1335 1898 0
1336 1898 0
1629 1898 0
1333 1899 0
1334 1899 0.99886974093913028
1335 1899 0
1336 1899 0
1629 1899 0
1333 1900 0
1334 1900 0
1335 1900 0.99859691322799182
1336 1900 0
1629 1900 0
1333 1901 0
1334 1901 0
1335 1901 0
1336 1901 0.99879118685427859
1629 1901 0
1333 1902 0
1334 1902 0
1335 1902 0
1336 1902 0
1629 1902 1
421 1903 -0.99509004789631994
422 1903 -0
423 1903 -0
424 1903 -0
425 1903 -0
426 1903 -0
427 1903 -0
428 1903 -0
429 1903 -0
430 1903 -0
431 1903 -0
432 1903 -0
433 1903 0
434 1903 0
435 1903 0
436 1903 0
437 1903 0
438 1903 0
439 1903 0
440 1903 0
441 1903 0
442 1903 0
443 1903 0
444 1903 0
1333 1903 -0.1803189598547551
1334 1903 -0.25584631152049064
1335 1903 -0.074765084896359371
1336 1903 -0.06244980534901011
421 1904 -0
422 1904 -0.99509004789631994
423 1904 -0
424 1904 -0
425 1904 -0
426 1904 -0
427 1904 -0
428 1904 -0
429 1904 -0
430 1904 -0
431 1904 -0
432 1904 -0
433 1904 0
434 1904 0
435 1904 0
436 1904 0
437 1904 0
438 1904 0
439 1904 0
440 1904 0
441 1904 0
442 1904 0
443 1904 0
444 1904 0
1333 1904 0.10820261428783474
1334 1904 0.080196783561304039
1335 1904 -0.016866001348705428
1336 1904 -0.17094248486675911
421 1905 -0
422 1905 -0
423 1905 -0.99509004789631994
424 1905 -0
425 1905 -0
426 1905 -0
427 1905 -0
428 1905 -0
429 1905 -0
430 1905 -0
431 1905 -0
432 1905 -0
433 1905 0
434 1905 0
435 1905 0
436 1905 0
437 1905 0
438 1905 0
439 1905 0
440 1905 0
441 1905 0
442 1905 0
443 1905 0
444 1905 0
1333 1905 0.021296203412182201
1334 1905 0.06379387941368389
1335 1905 0.33227429440027084
1336 1905 0.038055274961526345
421 1906 -0
422 1906 -0
423 1906 -0
424 1906 -0.99509004789631994
425 1906 -0
426 1906 -0
427 1906 -0
428 1906 -0
429 1906 -0
430 1906 -0
431 1906 -0
432 1906 -0
433 1906 0
434 1906 0
435 1906 0
436 1906 0
437 1906 0
438 1906 0
439 1906 0
440 1906 0
441 1906 0
442 1906 0
443 1906 0
444 1906 0
1333 1906 0.19846746771042395
1334 1906 0.13291349456905685
1335 1906 -0.11659569025066187
1336 1906 0.1709989853023412
421 1907 -0
422 1907 -0
423 1907 -0
424 1907 -0
425 1907 -0.99509004789631994
426 1907 -0
427 1907 -0
428 1907 -0
429 1907 -0
430 1907 -0
431 1907 -0
432 1907 -0
433 1907 0
434 1907 0
435 1907 0
436 1907 0
437 1907 0
438 1907 0
439 1907 0
440 1907 0
441 1907 0
442 1907 0
443 1907 0
444 1907 0
1333 1907 0.06406726430169403
1334 1907 0.0077975121873435499
1335 1907 -0.012888481757033089
1336 1907 0.1821584263174176
421 1908 -0
422 1908 -0
423 1908 -0
424 1908 -0
425 1908 -0
426 1908 -0.99509004789631994
427 1908 -0
428 1908 -0
429 1908 -0
430 1908 -0
431 1908 -0
432 1908 -0
433 1908 0
434 1908 0
435 1908 0
436 1908 0
437 1908 0
438 1908 0
439 1908 0
440 1908 0
441 1908 0
442 1908 0
443 1908 0
444 1908 0
1333 1908 0.14930176975937659
1334 1908 -0.1220518999462523
1335 1908 -0.21437482240798272
1336 1908 -0.27728111366749703
421 1909 -0
422 1909 -0
423 1909 -0
424 1909 -0
425 1909 -0
426 1909 -0
427 1909 -0.99509004789631994
428 1909 -0
429 1909 -0
430 1909 -0
431 1909 -0
432 1909 -0
433 1909 0
434 1909 0
435 1909 0
436 1909 0
437 1909 0
438 1909 0
439 1909 0
440 1909 0
441 1909 0
442 1909 0
443 1909 0
444 1909 0
1333 1909 -0.27832449100114248
1334 1909 -0.023030066571549251
1335 1909 0.085999904285044407
1336 1909 0.14042558666593874
421 1910 -0
422 1910 -0
423 1910 -0
424 1910 -0
425 1910 -0
426 1910 -0
427 1910 -0
428 1910 -0.99509004789631994
429 1910 -0
430 1910 -0
431 1910 -0
432 1910 -0
433 1910 0
434 1910 0
435 1910 0
436 1910 0
437 1910 0
438 1910 0
439 1910 0
440 1910 0
441 1910 0
442 1910 0
443 1910 0
444 1910 0
1333 1910 0.14426661227624929
1334 1910 0.019112219351713613
1335 1910 -0.3383340256558125
1336 1910 -0.26332006554483989
421 1911 -0
422 1911 -0
423 1911 -0
424 1911 -0
425 1911 -0
426 1911 -0
427 1911 -0
428 1911 -0
429 1911 -0.99509004789631994
430 1911 -0
431 1911 -0
432 1911 -0
433 1911 0
434 1911 0
435 1911 0
436 1911 0
437 1911 0
438 1911 0
439 1911 0
440 1911 0
441 1911 0
442 1911 0
443 1911 0
444 1911 0
1333 1911 -0.11462509557936003
1334 1911 -0.065598224589830417
1335 1911 0.12045547271290091
1336 1911 0.066735657880519217
421 1912 -0
422 1912 -0
423 1912 -0
424 1912 -0
425 1912 -0
426 1912 -0
427 1912 -0
428 1912 -0
429 1912 -0
430 1912 -0.99509004789631994
431 1912 -0
432 1912 -0
433 1912 0
434 1912 0
435 1912 0
436 1912 0
437 1912 0
438 1912 0
439 1912 0
440 1912 0
441 1912 0
442 1912 0
443 1912 0
444 1912 0
1333 1912 0.1112726701807888
1334 1912 -0.18163442438886057
1335 1912 -0.24934842404473068
1336 1912 0.087619788974651794
421 1913 -0
422 1913 -0
423 1913 -0
424 1913 -0
425 1913 -0
426 1913 -0
427 1913 -0
428 1913 -0
429 1913 -0
430 1913 -0
431 1913 -0.99509004789631994
432 1913 -0
433 1913 0
434 1913 0
435 1913 0
436 1913 0
437 1913 0
438 1913 0
439 1913 0
440 1913 0
441 1913 0
442 1913 0
443 1913 0
444 1913 0
1333 1913 0.0048220099123521959
1334 1913 -0.09230703811323461
1335 1913 -0.22028815111069383
1336 1913 -0.062540089363958593
421 1914 -0
422 1914 -0
423 1914 -0
424 1914 -0
425 1914 -0
426 1914 -0
427 1914 -0
428 1914 -0
429 1914 -0
430 1914 -0
431 1914 -0
432 1914 -0.99509004789631994
433 1914 0
434 1914 0
435 1914 0
436 1914 0
437 1914 0
438 1914 0
439 1914 0
440 1914 0
441 1914 0
442 1914 0
443 1914 0
444 1914 0
1333 1914 0.22589481330245723
1334 1914 0.085512196920050021
1335 1914 -0.209328877595194
1336 1914 0.014853171089538656
421 1915 0
422 1915 0
423 1915 0
424 1915 0
425 1915 0
426 1915 0
427 1915 0
428 1915 0
429 1915 0
430 1915 0
431 1915 0
432 1915 0
433 1915 0.99509004789631994
434 1915 0
435 1915 0
436 1915 0
437 1915 0
438 1915 0
439 1915 0
440 1915 0
441 1915 0
442 1915 0
443 1915 0
444 1915 0
1333 1915 0
1334 1915 0
1335 1915 0
1336 1915 0
421 1916 0
422 1916 0
423 1916 0
424 1916 0
425 1916 0
426 1916 0
427 1916 0
428 1916 0
429 1916 0
430 1916 0
431 1916 0
432 1916 0
433 1916 0
434 1916 0.99509004789631994
435 1916 0
436 1916 0
437 1916 0
438 1916 0
439 1916 0
440 1916 0
441 1916 0
442 1916 0
443 1916 0
444 1916 0
1333 1916 0
1334 1916 0
1335 1916 0
1336 1916 0
421 1917 0
422 1917 0
423 1917 0
424 1917 0
425 1917 0
426 1917 0
427 1917 0
428 1917 0
429 1917 0
430 1917 0
431 1917 0
432 1917 0
433 1917 0
434 1917 0
435 1917 0.99509004789631994
436 1917 0
437 1917 0
438 1917 0
439 1917 0
440 1917 0
441 1917 0
442 1917 0
443 1917 0
444 1917 0
1333 1917 0
1334 1917 0
1335 1917 0
1336 1917 0
421 1918 0
422 1918 0
423 1918 0
424 1918 0
425 1918 0
426 1918 0
427 1918 0
428 1918 0
429 1918 0
430 1918 0
431 1918 0
432 1918 0
433 1918 0
434 1918 0
435 1918 0
436 1918 0.99509004789631994
437 1918 0
438 1918 0
439 1918 0
440 1918 0
441 1918 0
442 1918 0
443 1918 0
444 1918 0
1333 1918 0
1334 1918 0
1335 1918 0
1336 1918 0
421 1919 0
422 1919 0
423 1919 0
424 1919 0
425 1919 0
426 1919 0
427 1919 0
428 1919 0
429 1919 0
430 1919 0
431 1919 0
432 1919 0
433 1919 0
434 1919 0
435 1919 0
436 1919 0
437 1919 0.99509004789631994
438 1919 0
439 1919 0
440 1919 0
441 1919 0
442 1919 0
443 1919 0
444 1919 0
1333 1919 0
1334 1919 0
1335 1919 0
1336 1919 0
421 1920 0
422 1920 0
423 1920 0
424 1920 0
425 1920 0
426 1920 0
427 1920 0
428 1920 0
429 1920 0
430 1920 0
431 1920 0
432 1920 0
433 1920 0
434 1920 0
435 1920 0
436 1920 0
437 1920 0
438 1920 0.99509004789631994
439 1920 0
440 1920 0
441 1920 0
442 1920 0
443 1920 0
444 1920 0
1333 1920 0
1334 1920 0
1335 1920 0
1336 1920 0
421 1921 0
422 1921 0
423 1921 0
424 1921 0
425 1921 0
426 1921 0
427 1921 0
428 1921 0
429 1921 0
430 1921 0
431 1921 0
432 1921 0
433 1921 0
434 1921 0
435 1921 0
436 1921 0
437 1921 0
438 1921 0
439 1921 0.99509004789631994
440 1921 0
441 1921 0
442 1921 0
443 1921 0
444 1921 0
1333 1921 0
1334 1921 0
1335 1921 0
1336 1921 0
421 1922 0
422 1922 0
423 1922 0
424 1922 0
425 1922 0
426 1922 0
427 1922 0
428 1922 0
429 1922 0
430 1922 0
431 1922 0
432 1922 0
433 1922 0
434 1922 0
435 1922 0
436 1922 0
437 1922 0
438 1922 0
439 1922 0
440 1922 0.99509004789631994
441 1922 0
442 1922 0
443 1922 0
444 1922 0
1333 1922 0
1334 1922 0
1335 1922 0
1336 1922 0
421 1923 0
422 1923 0
423 1923 0
424 1923 0
425 1923 0
426 1923 0
427 1923 0
428 1923 0
429 1923 0
430 1923 0
431 1923 0
432 1923 0
433 1923 0
434 1923 0
435 1923 0
436 1923 0
437 1923 0
438 1923 0
439 1923 0
440 1923 0
441 1923 0.99509004789631994
442 1923 0
443 1923 0
444 1923 0
1333 1923 0
1334 1923 0
1335 1923 0
1336 1923 0
421 1924 0
422 1924 0
423 1924 0
424 1924 0
425 1924 0
426 1924 0
427 1924 0
428 1924 0
429 1924 0
430 1924 0
431 1924 0
432 1924 0
433 1924 0
434 1924 0
435 1924 0
436 1924 0
437 1924 0
438 1924 0
439 1924 0
440 1924 0
441 1924 0
442 1924 0.99509004789631994
443 1924 0
444 1924 0
1333 1924 0
1334 1924 0
1335 1924 0
1336 1924 0
421 1925 0
422 1925 0
423 1925 0
424 1925 0
425 1925 0
426 1925 0
427 1925 0
428 1925 0
429 1925 0
430 1925 0
431 1925 0
432 1925 0
433 1925 0
434 1925 0
435 1925 0
436 1925 0
437 1925 0
438 1925 0
439 1925 0
440 1925 0
441 1925 0
442 1925 0
443 1925 0.99509004789631994
444 1925 0
1333 1925 0
1334 1925 0
1335 1925 0
1336 1925 0
421 1926 0
422 1926 0
423 1926 0
424 1926 0
425 1926 0
426 1926 0
427 1926 0
428 1926 0
429 1926 0
430 1926 0
431 1926 0
432 1926 0
433 1926 0
434 1926 0
435 1926 0
436 1926 0
437 1926 0
438 1926 0
439 1926 0
440 1926 0
441 1926 0
442 1926 0
443 1926 0
444 1926 0.99509004789631994
1333 1926 0
1334 1926 0
1335 1926 0
1336 1926 0
1329 1927 0
1330 1927 0
1331 1927 0
1332 1927 0
1628 1927 0
1329 1928 0.99878751991636638
1330 1928 0
1331 1928 0
1332 1928 0
1628 1928 0
1329 1929 0
1330 1929 0.99886974093913028
1331 1929 0
1332 1929 0
1628 1929 0
1329 1930 0
1330 1930 0
1331 1930 0.99859691322799182
1332 1930 0
1628 1930 0
1329 1931 0
1330 1931 0
1331 1931 0
1332 1931 0.99879118685427859
1628 1931 0
1329 1932 0
1330 1932 0
1331 1932 0
1332 1932 0
1628 1932 1
409 1933 -0.99509004789631994
410 1933 -0
411 1933 -0
412 1933 -0
413 1933 -0
414 1933 -0
415 1933 -0
416 1933 -0
417 1933 -0
418 1933 -0
419 1933 -0
420 1933 -0
421 1933 0
422 1933 0
423 1933 0
424 1933 0
425 1933 0
426 1933 0
427 1933 0
428 1933 0
429 1933 0
430 1933 0
431 1933 0
432 1933 0
1329 1933 -0.1803189598547551
1330 1933 -0.25584631152049064
1331 1933 -0.074765084896359371
1332 1933 -0.06244980534901011
409 1934 -0
410 1934 -0.99509004789631994
411 1934 -0
412 1934 -0
413 1934 -0
414 1934 -0
415 1934 -0
416 1934 -0
417 1934 -0
418 1934 -0
419 1934 -0
420 1934 -0
421 1934 0
422 1934 0
423 1934 0
424 1934 0
425 1934 0
426 1934 0
427 1934 0
428 1934 0
429 1934 0
430 1934 0
431 1934 0
432 1934 0
1329 1934 0.10820261428783474
1330 1934 0.080196783561304039
1331 1934 -0.016866001348705428
1332 1934 -0.17094248486675911
409 1935 -0
410 1935 -0
411 1935 -0.99509004789631994
412 1935 -0
413 1935 -0
414 1935 -0
415 1935 -0
416 1935 -0
417 1935 -0
418 1935 -0
419 1935 -0
420 1935 -0
421 1935 0
422 1935 0
423 1935 0
424 1935 0
425 1935 0
426 1935 0
427 1935 0
428 1935 0
429 1935 0
430 1935 0
431 1935 0
432 1935 0
1329 1935 0.021296203412182201
1330 1935 0.06379387941368389
1331 1935 0.33227429440027084
1332 1935 0.038055274961526345
409 1936 -0
410 1936 -0
411 1936 -0
412 1936 -0.99509004789631994
413 1936 -0
414 1936 -0
415 1936 -0
416 1936 -0
417 1936 -0
418 1936 -0
419 1936 -0
420 1936 -0
421 1936 0
422 1936 0
423 1936 0
424 1936 0
425 1936 0
426 1936 0
427 1936 0
428 1936 0
429 1936 0
430 1936 0
431 1936 0
432 1936 0
1329 1936 0.19846746771042395
1330 1936 0.13291349456905685
1331 1936 -0.11659569025066187
1332 1936 0.1709989853023412
409 1937 -0
410 1937 -0
411 1937 -0
412 1937 -0
413 1937 -0.99509004789631994
414 1937 -0
415 1937 -0
416 1937 -0
417 1937 -0
418 1937 -0
419 1937 -0
420 1937 -0
421 1937 0
422 1937 0
423 1937 0
424 1937 0
425 1937 0
426 1937 0
427 1937 0
428 1937 0
429 1937 0
430 1937 0
431 1937 0
432 1937 0
1329 1937 0.06406726430169403
1330 1937 0.0077975121873435499
1331 1937 -0.012888481757033089
1332 1937 0.1821584263174176
409 1938 -0
410 1938 -0
411 1938 -0
412 1938 -0
413 1938 -0
414 1938 -0.99509004789631994
415 1938 -0
416 1938 -0
417 1938 -0
418 1938 -0
419 1938 -0
420 1938 -0
421 1938 0
422 1938 0
423 1938 0
424 1938 0
425 1938 0
426 1938 0
427 1938 0
428 1938 0
429 1938 0
430 1938 0
431 1938 0
432 1938 0
1329 1938 0.14930176975937659
1330 1938 -0.1220518999462523
1331 1938 -0.21437482240798272
1332 1938 -0.27728111366749703
409 1939 -0
410 1939 -0
411 1939 -0
412 1939 -0
413 1939 -0
414 1939 -0
415 1939 -0.99509004789631994
416 1939 -0
417 1939 -0
418 1939 -0
419 1939 -0
420 1939 -0
421 1939 0
422 1939 0
423 1939 0
424 1939 0
425 1939 0
426 1939 0
427 1939 0
428 1939 0
429 1939 0
430 1939 0
431 1939 0
432 1939 0
1329 1939 -0.27832449100114248
1330 1939 -0.023030066571549251
1331 1939 0.085999904285044407
1332 1939 0.14042558666593874
409 1940 -0
410 1940 -0
411 1940 -0
412 1940 -0
413 1940 -0
414 1940 -0
415 1940 -0
416 1940 -0.99509004789631994
417 1940 -0
418 1940 -0
419 1940 -0
420 1940 -0
421 1940 0
422 1940 0
423 1940 0
424 1940 0
425 1940 0
426 1940 0
427 1940 0
428 1940 0
429 1940 0
430 1940 0
431 1940 0
432 1940 0
1329 1940 0.14426661227624929
1330 1940 0.019112219351713613
1331 1940 -0.3383340256558125
1332 1940 -0.26332006554483989
409 1941 -0
410 1941 -0
411 1941 -0
412 1941 -0
413 1941 -0
414 1941 -0
415 1941 -0
416 1941 -0
417 1941 -0.99509004789631994
418 1941 -0
419 1941 -0
420 1941 -0
421 1941 0
422 1941 0
423 1941 0
424 1941 0
425 1941 0
426 1941 0
427 1941 0
428 1941 0
429 1941 0
430 1941 0
431 1941 0
432 1941 0
1329 1941 -0.11462509557936003
1330 1941 -0.065598224589830417
1331 1941 0.12045547271290091
1332 1941 0.066735657880519217
409 1942 -0
410 1942 -0
411 1942 -0
412 1942 -0
413 1942 -0
414 1942 -0
415 1942 -0
416 1942 -0
417 1942 -0
418 1942 -0.99509004789631994
419 1942 -0
420 1942 -0
421 1942 0
422 1942 0
423 1942 0
424 1942 0
425 1942 0
426 1942 0
427 1942 0
428 1942 0
429 1942 0
430 1942 0
431 1942 0
432 1942 0
1329 1942 0.1112726701807888
1330 1942 -0.18163442438886057
1331 1942 -0.24934842404473068
1332 1942 0.087619788974651794
409 1943 -0
410 1943 -0
411 1943 -0
412 1943 -0
413 1943 -0
414 1943 -0
415 1943 -0
416 1943 -0
417 1943 -0
418 1943 -0
419 1943 -0.99509004789631994
420 1943 -0
421 1943 0
422 1943 0
423 1943 0
424 1943 0
425 1943 0
426 1943 0
427 1943 0
428 1943 0
429 1943 0
430 1943 0
431 1943 0
432 1943 0
1329 1943 0.0048220099123521959
1330 1943 -0.09230703811323461
1331 1943 -0.22028815111069383
1332 1943 -0.062540089363958593
409 1944 -0
410 1944 -0
411 1944 -0
412 1944 -0
413 1944 -0
414 1944 -0
415 1944 -0
416 1944 -0
417 1944 -0
418 1944 -0
419 1944 -0
420 1944 -0.99509004789631994
421 1944 0
422 1944 0
423 1944 0
424 1944 0
425 1944 0
426 1944 0
427 1944 0
428 1944 0
429 1944 0
430 1944 0
431 1944 0
432 1944 0
1329 1944 0.22589481330245723
1330 1944 0.085512196920050021
1331 1944 -0.209328877595194
1332 1944 0.014853171089538656
409 1945 0
410 1945 0
411 1945 0
412 1945 0
413 1945 0
414 1945 0
415 1945 0
416 1945 0
417 1945 0
418 1945 0
419 1945 0
420 1945 0
421 1945 0.99509004789631994
422 1945 0
423 1945 0
424 1945 0
425 1945 0
426 1945 0
427 1945 0
428 1945 0
429 1945 0
430 1945 0
431 1945 0
432 1945 0
1329 1945 0
1330 1945 0
1331 1945 0
1332 1945 0
409 1946 0
410 1946 0
411 1946 0
412 1946 0
413 1946 0
414 1946 0
415 1946 0
416 1946 0
417 1946 0
418 1946 0
419 1946 0
420 1946 0
421 1946 0
422 1946 0.99509004789631994
423 1946 0
424 1946 0
425 1946 0
426 1946 0
427 1946 0
428 1946 0
429 1946 0
430 1946 0
431 1946 0
432 1946 0
1329 1946 0
1330 1946 0
1331 1946 0
1332 1946 0
409 1947 0
410 1947 0
411 1947 0
412 1947 0
413 1947 0
414 1947 0
415 1947 0
416 1947 0
417 1947 0
418 1947 0
419 1947 0
420 1947 0
421 1947 0
422 1947 0
423 1947 0.99509004789631994
424 1947 0
425 1947 0
426 1947 0
427 1947 0
428 1947 0
429 1947 0
430 1947 0
431 1947 0
432 1947 0
1329 1947 0
1330 1947 0
1331 1947 0
1332 1947 0
409 1948 0
410 1948 0
411 1948 0
412 1948 0
413 1948 0
414 1948 0
415 1948 0
416 1948 0
417 1948 0
418 1948 0
419 1948 0
420 1948 0
421 1948 0
422 1948 0
423 1948 0
424 1948 0.99509004789631994
425 1948 0
426 1948 0
427 1948 0
428 1948 0
429 1948 0
430 1948 0
431 1948 0
432 1948 0
1329 1948 0
1330 1948 0
1331 1948 0
1332 1948 0
409 1949 0
410 1949 0
411 1949 0
412 1949 0
413 1949 0
414 1949 0
415 1949 0
416 1949 0
417 1949 0
418 1949 0
419 1949 0
420 1949 0
421 1949 0
422 1949 0
423 1949 0
424 1949 0
425 1949 0.99509004789631994
426 1949 0
427 1949 0
428 1949 0
429 1949 0
430 1949 0
431 1949 0
432 1949 0
1329 1949 0
1330 1949 0
1331 1949 0
1332 1949 0
409 1950 0
410 1950 0
411 1950 0
412 1950 0
413 1950 0
414 1950 0
415 1950 0
416 1950 0
417 1950 0
418 1950 0
419 1950 0
420 1950 0
421 1950 0
422 1950 0
423 1950 0
424 1950 0
425 1950 0
426 1950 0.99509004789631994
427 1950 0
428 1950 0
429 1950 0
430 1950 0
431 1950 0
432 1950 0
1329 1950 0
1330 1950 0
1331 1950 0
1332 1950 0
409 1951 0
410 1951 0
411 1951 0
412 1951 0
413 1951 0
414 1951 0
415 1951 0
416 1951 0
417 1951 0
418 1951 0
419 1951 0
420 1951 0
421 1951 0
422 1951 0
423 1951 0
424 1951 0
425 1951 0
426 1951 0
427 1951 0.99509004789631994
428 1951 0
429 1951 0
430 1951 0
431 1951 0
432 1951 0
1329 1951 0
1330 1951 0
1331 1951 0
1332 1951 0
409 1952 0
410 1952 0
411 1952 0
412 1952 0
413 1952 0
414 1952 0
415 1952 0
416 1952 0
417 1952 0
418 1952 0
419 1952 0
420 1952 0
421 1952 0
422 1952 0
423 1952 0
424 1952 0
425 1952 0
426 1952 0
427 1952 0
428 1952 0.99509004789631994
429 1952 0
430 1952 0
431 1952 0
432 1952 0
1329 1952 0
1330 1952 0
1331 1952 0
1332 1952 0
409 1953 0
410 1953 0
411 1953 0
412 1953 0
413 1953 0
414 1953 0
415 1953 0
416 1953 0
417 1953 0
418 1953 0
419 1953 0
420 1953 0
421 1953 0
422 1953 0
423 1953 0
424 1953 0
425 1953 0
426 1953 0
427 1953 0
428 1953 0
429 1953 0.99509004789631994
430 1953 0
431 1953 0
432 1953 0
1329 1953 0
1330 1953 0
1331 1953 0
1332 1953 0
409 1954 0
410 1954 0
411 1954 0
412 1954 0
413 1954 0
414 1954 0
415 1954 0
416 1954 0
417 1954 0
418 1954 0
419 1954 0
420 1954 0
421 1954 0
422 1954 0
423 1954 0
424 1954 0
425 1954 0
426 1954 0
427 1954 0
428 1954 0
429 1954 0
430 1954 0.99509004789631994
431 1954 0
432 1954 0
1329 1954 0
1330 1954 0
1331 1954 0
1332 1954 0
409 1955 0
410 1955 0
411 1955 0
412 1955 0
413 1955 0
414 1955 0
415 1955 0
416 1955 0
417 1955 0
418 1955 0
419 1955 0
420 1955 0
421 1955 0
422 1955 0
423 1955 0
424 1955 0
425 1955 0
426 1955 0
427 1955 0
428 1955 0
429 1955 0
430 1955 0
431 1955 0.99509004789631994
432 1955 0
1329 1955 0
1330 1955 0
1331 1955 0
1332 1955 0
409 1956 0
410 1956 0
411 1956 0
412 1956 0
413 1956 0
414 1956 0
415 1956 0
416 1956 0
417 1956 0
418 1956 0
419 1956 0
420 1956 0
421 1956 0
422 1956 0
423 1956 0
424 1956 0
425 1956 0
426 1956 0
427 1956 0
428 1956 0
429 1956 0
430 1956 0
431 1956 0
432 1956 0.99509004789631994
1329 1956 0
1330 1956 0
1331 1956 0
1332 1956 0
1325 1957 0
1326 1957 0
1327 1957 0
1328 1957 0
1627 1957 0
1325 1958 0.99878751991636638
1326 1958 0
1327 1958 0
1328 1958 0
1627 1958 0
1325 1959 0
1326 1959 0.99886974093913028
1327 1959 0
1328 1959 0
1627 1959 0
1325 1960 0
1326 1960 0
1327 1960 0.99859691322799182
1328 1960 0
1627 1960 0
1325 1961 0
1326 1961 0
1327 1961 0
1328 1961 0.99879118685427859
1627 1961 0
1325 1962 0
1326 1962 0
1327 1962 0
1328 1962 0
1627 1962 1
397 1963 -0.99509004789631994
398 1963 -0
399 1963 -0
400 1963 -0
401 1963 -0
402 1963 -0
403 1963 -0
404 1963 -0
405 1963 -0
406 1963 -0
407 1963 -0
408 1963 -0
409 1963 0
410 1963 0
411 1963 0
412 1963 0
413 1963 0
414 1963 0
415 1963 0
416 1963 0
417 1963 0
418 1963 0
419 1963 0
420 1963 0
1325 1963 -0.1803189598547551
1326 1963 -0.25584631152049064
1327 1963 -0.074765084896359371
1328 1963 -0.06244980534901011
397 1964 -0
398 1964 -0.99509004789631994
399 1964 -0
400 1964 -0
401 1964 -0
402 1964 -0
403 1964 -0
404 1964 -0
405 1964 -0
406 1964 -0
407 1964 -0
408 1964 -0
409 1964 0
410 1964 0
411 1964 0
412 1964 0
413 1964 0
414 1964 0
415 1964 0
416 1964 0
417 1964 0
418 1964 0
419 1964 0
420 1964 0
1325 1964 0.10820261428783474
1326 1964 0.080196783561304039
1327 1964 -0.016866001348705428
1328 1964 -0.17094248486675911
397 1965 -0
398 1965 -0
399 1965 -0.99509004789631994
400 1965 -0
401 1965 -0
402 1965 -0
403 1965 -0
404 1965 -0
405 1965 -0
406 1965 -0
407 1965 -0
408 1965 -0
409 1965 0
410 1965 0
411 1965 0
412 1965 0
413 1965 0
414 1965 0
415 1965 0
416 1965 0
417 1965 0
418 1965 0
419 1965 0
420 1965 0
1325 1965 0.021296203412182201
1326 1965 0.06379387941368389
1327 1965 0.33227429440027084
1328 1965 0.038055274961526345
397 1966 -0
398 1966 -0
399 1966 -0
400 1966 -0.99509004789631994
401 1966 -0
402 1966 -0
403 1966 -0
404 1966 -0
405 1966 -0
406 1966 -0
407 1966 -0
408 1966 -0
409 1966 0
410 1966 0
411 1966 0
412 1966 0
413 1966 0
414 1966 0
415 1966 0
416 1966 0
417 1966 0
418 1966 0
419 1966 0
420 1966 0
1325 1966 0.19846746771042395
1326 1966 0.13291349456905685
1327 1966 -0.11659569025066187
1328 1966 0.1709989853023412
397 1967 -0
398 1967 -0
399 1967 -0
400 1967 -0
401 1967 -0.99509004789631994
402 1967 -0
403 1967 -0
404 1967 -0
405 1967 -0
406 1967 -0
407 1967 -0
408 1967 -0
409 1967 0
410 1967 0
411 1967 0
412 1967 0
413 1967 0
414 1967 0
415 1967 0
416 1967 0
417 1967 0
418 1967 0
419 1967 0
420 1967 0
1325 1967 0.06406726430169403
1326 1967 0.0077975121873435499
1327 1967 -0.012888481757033089
1328 1967 0.1821584263174176
397 1968 -0
398 1968 -0
399 1968 -0
400 1968 -0
401 1968 -0
402 1968 -0.99509004789631994
403 1968 -0
404 1968 -0
405 1968 -0
406 1968 -0
407 1968 -0
408 1968 -0
409 1968 0
410 1968 0
411 1968 0
412 1968 0
413 1968 0
414 1968 0
415 1968 0
416 1968 0
417 1968 0
418 1968 0
419 1968 0
420 1968 0
1325 1968 0.14930176975937659
1326 1968 -0.1220518999462523
1327 1968 -0.21437482240798272
1328 1968 -0.27728111366749703
397 1969 -0
398 1969 -0
399 1969 -0
400 1969 -0
401 1969 -0
402 1969 -0
403 1969 -0.99509004789631994
404 1969 -0
405 1969 -0
406 1969 -0
407 1969 -0
408 1969 -0
409 1969 0
410 1969 0
411 1969 0
412 1969 0
413 1969 0
414 1969 0
415 1969 0
416 1969 0
417 1969 0
418 1969 0
419 1969 0
420 1969 0
1325 1969 -0.27832449100114248
1326 1969 -0.023030066571549251
1327 1969 0.085999904285044407
1328 1969 0.14042558666593874
397 1970 -0
398 1970 -0
399 1970 -0
400 1970 -0
401 1970 -0
402 1970 -0
403 1970 -0
404 1970 -0.99509004789631994
405 1970 -0
406 1970 -0
407 1970 -0
408 1970 -0
409 1970 0
410 1970 0
411 1970 0
412 1970 0
413 1970 0
414 1970 0
415 1970 0
416 1970 0
417 1970 0
418 1970 0
419 1970 0
420 1970 0
1325 1970 0.14426661227624929
1326 1970 0.019112219351713613
1327 1970 -0.3383340256558125
1328 1970 -0.26332006554483989
397 1971 -0
398 1971 -0
399 1971 -0
400 1971 -0
401 1971 -0
402 1971 -0
403 1971 -0
404 1971 -0
405 1971 -0.99509004789631994
406 1971 -0
407 1971 -0
408 1971 -0
409 1971 0
410 1971 0
411 1971 0
412 1971 0
413 1971 0
414 1971 0
415 1971 0
416 1971 0
417 1971 0
418 1971 0
419 1971 0
420 1971 0
1325 1971 -0.11462509557936003
1326 1971 -0.065598224589830417
1327 1971 0.12045547271290091
1328 1971 0.066735657880519217
397 1972 -0
398 1972 -0
399 1972 -0
400 1972 -0
401 1972 -0
402 1972 -0
403 1972 -0
404 1972 -0
405 1972 -0
406 1972 -0.99509004789631994
407 1972 -0
408 1972 -0
409 1972 0
410 1972 0
411 1972 0
412 1972 0
413 1972 0
414 1972 0
415 1972 0
416 1972 0
417 1972 0
418 1972 0
419 1972 0
420 1972 0
1325 1972 0.1112726701807888
1326 1972 -0.18163442438886057
1327 1972 -0.24934842404473068
1328 1972 0.087619788974651794
397 1973 -0
398 1973 -0
399 1973 -0
400 1973 -0
401 1973 -0
402 1973 -0
403 1973 -0
404 1973 -0
405 1973 -0
406 1973 -0
407 1973 -0.99509004789631994
408 1973 -0
409 1973 0
410 1973 0
411 1973 0
412 1973 0
413 1973 0
414 1973 0
415 1973 0
416 1973 0
417 1973 0
418 1973 0
419 1973 0
420 1973 0
1325 1973 0.0048220099123521959
1326 1973 -0.09230703811323461
1327 1973 -0.22028815111069383
1328 1973 -0.062540089363958593
397 1974 -0
398 1974 -0
399 1974 -0
400 1974 -0
401 1974 -0
402 1974 -0
403 1974 -0
404 1974 -0
405 1974 -0
406 1974 -0
407 1974 -0
408 1974 -0.99509004789631994
409 1974 0
410 1974 0
411 1974 0
412 1974 0
413 1974 0
414 1974 0
415 1974 0
416 1974 0
417 1974 0
418 1974 0
419 1974 0
420 1974 0
1325 1974 0.22589481330245723
1326 1974 0.085512196920050021
1327 1974 -0.209328877595194
1328 1974 0.014853171089538656
397 1975 0
398 1975 0
399 1975 0
400 1975 0
401 1975 0
402 1975 0
403 1975 0
404 1975 0
405 1975 0
406 1975 0
407 1975 0
408 1975 0
409 1975 0.99509004789631994
410 1975 0
411 1975 0
412 1975 0
413 1975 0
414 1975 0
415 1975 0
416 1975 0
417 1975 0
418 1975 0
419 1975 0
420 1975 0
1325 1975 0
1326 1975 0
1327 1975 0
1328 1975 0
397 1976 0
398 1976 0
399 1976 0
400 1976 0
401 1976 0
402 1976 0
403 1976 0
404 1976 0
405 1976 0
406 1976 0
407 1976 0
408 1976 0
409 1976 0
410 1976 0.99509004789631994
411 1976 0
412 1976 0
413 1976 0
414 1976 0
415 1976 0
416 1976 0
417 1976 0
418 1976 0
419 1976 0
420 1976 0
1325 1976 0
1326 1976 0
1327 1976 0
1328 1976 0
397 1977 0
398 1977 0
399 1977 0
400 1977 0
401 1977 0
402 1977 0
403 1977 0
404 1977 0
405 1977 0
406 1977 0
407 1977 0
408 1977 0
409 1977 0
410 1977 0
411 1977 0.99509004789631994
412 1977 0
413 1977 0
414 1977 0
415 1977 0
416 1977 0
417 1977 0
418 1977 0
419 1977 0
420 1977 0
1325 1977 0
1326 1977 0
1327 1977 0
1328 1977 0
397 1978 0
398 1978 0
399 1978 0
400 1978 0
401 1978 0
402 1978 0
403 1978 0
404 1978 0
405 1978 0
406 1978 0
407 1978 0
408 1978 0
409 1978 0
410 1978 0
411 1978 0
412 1978 0.99509004789631994
413 1978 0
414 1978 0
415 1978 0
416 1978 0
417 1978 0
418 1978 0
419 1978 0
420 1978 0
1325 1978 0
1326 1978 0
1327 1978 0
1328 1978 0
397 1979 0
398 1979 0
399 1979 0
400 1979 0
401 1979 0
402 1979 0
403 1979 0
404 1979 0
405 1979 0
406 1979 0
407 1979 0
408 1979 0
409 1979 0
410 1979 0
411 1979 0
412 1979 0
413 1979 0.99509004789631994
414 1979 0
415 1979 0
416 1979 0
417 1979 0
418 1979 0
419 1979 0
420 1979 0
1325 1979 0
1326 1979 0
1327 1979 0
1328 1979 0
397 1980 0
398 1980 0
399 1980 0
400 1980 0
401 1980 0
402 1980 0
403 1980 0
404 1980 0
405 1980 0
406 1980 0
407 1980 0
408 1980 0
409 1980 0
410 1980 0
411 1980 0
412 1980 0
413 1980 0
414 1980 0.99509004789631994
415 1980 0
416 1980 0
417 1980 0
418 1980 0
419 1980 0
420 1980 0
1325 1980 0
1326 1980 0
1327 1980 0
1328 1980 0
397 1981 0
398 1981 0
399 1981 0
400 1981 0
401 1981 0
402 1981 0
403 1981 0
404 1981 0
405 1981 0
406 1981 0
407 1981 0
408 1981 0
409 1981 0
410 1981 0
411 1981 0
412 1981 0
413 1981 0
414 1981 0
415 1981 0.99509004789631994
416 1981 0
417 1981 0
418 1981 0
419 1981 0
420 1981 0
1325 1981 0
1326 1981 0
1327 1981 0
1328 1981 0
397 1982 0
398 1982 0
399 1982 0
400 1982 0
401 1982 0
402 1982 0
403 1982 0
404 1982 0
405 1982 0
406 1982 0
407 1982 0
408 1982 0
409 1982 0
410 1982 0
411 1982 0
412 1982 0
413 1982 0
414 1982 0
415 1982 0
416 1982 0.99509004789631994
417 1982 0
418 1982 0
419 1982 0
420 1982 0
1325 1982 0
1326 1982 0
1327 1982 0
1328 1982 0
397 1983 0
398 1983 0
399 1983 0
400 1983 0
401 1983 0
402 1983 0
403 1983 0
404 1983 0
405 1983 0
406 1983 0
407 1983 0
408 1983 0
409 1983 0
410 1983 0
411 1983 0
412 1983 0
413 1983 0
414 1983 0
415 1983 0
416 1983 0
417 1983 0.99509004789631994
418 1983 0
419 1983 0
420 1983 0
1325 1983 0
1326 1983 0
1327 1983 0
1328 1983 0
397 1984 0
398 1984 0
399 1984 0
400 1984 0
401 1984 0
402 1984 0
403 1984 0
404 1984 0
405 1984 0
406 1984 0
407 1984 0
408 1984 0
409 1984 0
410 1984 0
411 1984 0
412 1984 0
413 1984 0
414 1984 0
415 1984 0
416 1984 0
417 1984 0
418 1984 0.99509004789631994
419 1984 0
420 1984 0
1325 1984 0
1326 1984 0
1327 1984 0
1328 1984 0
397 1985 0
398 1985 0
399 1985 0
400 1985 0
401 1985 0
402 1985 0
403 1985 0
404 1985 0
405 1985 0
406 1985 0
407 1985 0
408 1985 0
409 1985 0
410 1985 0
411 1985 0
412 1985 0
413 1985 0
414 1985 0
415 1985 0
416 1985 0
417 1985 0
418 1985 0
419 1985 0.99509004789631994
420 1985 0
1325 1985 0
1326 1985 0
1327 1985 0
1328 1985 0
397 1986 0
398 1986 0
399 1986 0
400 1986 0
401 1986 0
402 1986 0
403 1986 0
404 1986 0
405 1986 0
406 1986 0
407 1986 0
408 1986 0
409 1986 0
410 1986 0
411 1986 0
412 1986 0
413 1986 0
414 1986 0
415 1986 0
416 1986 0
417 1986 0
418 1986 0
419 1986 0
420 1986 0.99509004789631994
1325 1986 0
1326 1986 0
1327 1986 0
1328 1986 0
1321 1987 0
1322 1987 0
1323 1987 0
1324 1987 0
1626 1987 0
1321 1988 0.99878751991636638
1322 1988 0
1323 1988 0
1324 1988 0
1626 1988 0
1321 1989 0
1322 1989 0.99886974093913028
1323 1989 0
1324 1989 0
1626 1989 0
1321 1990 0
1322 1990 0
1323 1990 0.99859691322799182
1324 1990 0
1626 1990 0
1321 1991 0
1322 1991 0
1323 1991 0
1324 1991 0.99879118685427859
1626 1991 0
1321 1992 0
1322 1992 0
1323 1992 0
1324 1992 0
1626 1992 1
385 1993 -0.99509004789631994
386 1993 -0
387 1993 -0
388 1993 -0
389 1993 -0
390 1993 -0
391 1993 -0
392 1993 -0
393 1993 -0
394 1993 -0
395 1993 -0
396 1993 -0
397 1993 0
398 1993 0
399 1993 0
400 1993 0
401 1993 0
402 1993 0
403 1993 0
404 1993 0
405 1993 0
406 1993 0
407 1993 0
408 1993 0
1321 1993 -0.1803189598547551
1322 1993 -0.25584631152049064
1323 1993 -0.074765084896359371
1324 1993 -0.06244980534901011
385 1994 -0
386 1994 -0.99509004789631994
387 1994 -0
388 1994 -0
389 1994 -0
390 1994 -0
391 1994 -0
392 1994 -0
393 1994 -0
394 1994 -0
395 1994 -0
396 1994 -0
397 1994 0
398 1994 0
399 1994 0
400 1994 0
401 1994 0
402 1994 0
403 1994 0
404 1994 0
405 1994 0
406 1994 0
407 1994 0
408 1994 0
1321 1994 0.10820261428783474
1322 1994 0.080196783561304039
1323 1994 -0.016866001348705428
1324 1994 -0.17094248486675911
385 1995 -0
386 1995 -0
387 1995 -0.99509004789631994
388 1995 -0
389 1995 -0
390 1995 -0
391 1995 -0
392 1995 -0
393 1995 -0
394 1995 -0
395 1995 -0
396 1995 -0
397 1995 0
398 1995 0
399 1995 0
400 1995 0
401 1995 0
402 1995 0
403 1995 0
404 1995 0
405 1995 0
406 1995 0
407 1995 0
408 1995 0
1321 1995 0.021296203412182201
1322 1995 0.06379387941368389
1323 1995 0.33227429440027084
1324 1995 0.038055274961526345
385 1996 -0
386 1996 -0
387 1996 -0
388 1996 -0.99509004789631994
389 1996 -0
390 1996 -0
391 1996 -0
392 1996 -0
393 1996 -0
394 1996 -0
395 1996 -0
396 1996 -0
397 1996 0
398 1996 0
399 1996 0
400 1996 0
401 1996 0
402 1996 0
403 1996 0
404 1996 0
405 1996 0
406 1996 0
407 1996 0
408 1996 0
1321 1996 0.19846746771042395
1322 1996 0.13291349456905685
1323 1996 -0.11659569025066187
1324 1996 0.1709989853023412
385 1997 -0
386 1997 -0
387 1997 -0
388 1997 -0
389 1997 -0.99509004789631994
390 1997 -0
391 1997 -0
392 1997 -0
393 1997 -0
394 1997 -0
395 1997 -0
396 1997 -0
397 1997 0
398 1997 0
399 1997 0
400 1997 0
401 1997 0
402 1997 0
403 1997 0
404 1997 0
405 1997 0
406 1997 0
407 1997 0
408 1997 0
1321 1997 0.06406726430169403
1322 1997 0.0077975121873435499
1323 1997 -0.012888481757033089
1324 1997 0.1821584263174176
385 1998 -0
386 1998 -0
387 1998 -0
388 1998 -0
389 1998 -0
390 1998 -0.99509004789631994
391 1998 -0
392 1998 -0
393 1998 -0
394 1998 -0
395 1998 -0
396 1998 -0
397 1998 0
398 1998 0
399 1998 0
400 1998 0
401 1998 0
402 1998 0
403 1998 0
404 1998 0
405 1998 0
406 1998 0
407 1998 0
408 1998 0
1321 1998 0.14930176975937659
1322 1998 -0.1220518999462523
1323 1998 -0.21437482240798272
1324 1998 -0.27728111366749703
385 1999 -0
386 1999 -0
387 1999 -0
388 1999 -0
389 1999 -0
390 1999 -0
391 1999 -0.99509004789631994
392 1999 -0
393 1999 -0
394 1999 -0
395 1999 -0
396 1999 -0
397 1999 0
398 1999 0
399 1999 0
400 1999 0
401 1999 0
402 1999 0
403 1999 0
404 1999 0
405 1999 0
406 1999 0
407 1999 0
408 1999 0
1321 1999 -0.27832449100114248
1322 1999 -0.023030066571549251
1323 1999 0.085999904285044407
1324 1999 0.14042558666593874
385 2000 -0
386 2000 -0
387 2000 -0
388 2000 -0
389 2000 -0
390 2000 -0
391 2000 -0
392 2000 -0.99509004789631994
393 2000 -0
394 2000 -0
395 2000 -0
396 2000 -0
397 2000 0
398 2000 0
399 2000 0
400 2000 0
401 2000 0
402 2000 0
403 2000 0
404 2000 0
405 2000 0
406 2000 0
407 2000 0
408 2000 0
1321 2000 0.14426661227624929
1322 2000 0.019112219351713613
1323 2000 -0.3383340256558125
1324 2000 -0.26332006554483989
385 2001 -0
386 2001 -0
387 2001 -0
388 2001 -0
389 2001 -0
390 2001 -0
391 2001 -0
392 2001 -0
393 2001 -0.99509004789631994
394 2001 -0
395 2001 -0
396 2001 -0
397 2001 0
398 2001 0
399 2001 0
400 2001 0
401 2001 0
402 2001 0
403 2001 0
404 2001 0
405 2001 0
406 2001 0
407 2001 0
408 2001 0
1321 2001 -0.11462509557936003
1322 2001 -0.065598224589830417
1323 2001 0.12045547271290091
1324 2001 0.066735657880519217
385 2002 -0
386 2002 -0
387 2002 -0
388 2002 -0
389 2002 -0
390 2002 -0
391 2002 -0
392 2002 -0
393 2002 -0
394 2002 -0.99509004789631994
395 2002 -0
396 2002 -0
397 2002 0
398 2002 0
399 2002 0
400 2002 0
401 2002 0
402 2002 0
403 2002 0
404 2002 0
405 2002 0
406 2002 0
407 2002 0
408 2002 0
1321 2002 0.1112726701807888
1322 2002 -0.18163442438886057
1323 2002 -0.24934842404473068
1324 2002 0.087619788974651794
385 2003 -0
386 2003 -0
387 2003 -0
388 2003 -0
389 2003 -0
390 2003 -0
391 2003 -0
392 2003 -0
393 2003 -0
394 2003 -0
395 2003 -0.99509004789631994
396 2003 -0
397 2003 0
398 2003 0
399 2003 0
400 2003 0
401 2003 0
402 2003 0
403 2003 0
404 2003 0
405 2003 0
406 2003 0
407 2003 0
408 2003 0
1321 2003 0.0048220099123521959
1322 2003 -0.09230703811323461
1323 2003 -0.22028815111069383
1324 2003 -0.062540089363958593
385 2004 -0
386 2004 -0
387 2004 -0
388 2004 -0
389 2004 -0
390 2004 -0
391 2004 -0
392 2004 -0
393 2004 -0
394 2004 -0
395 2004 -0
396 2004 -0.99509004789631994
397 2004 0
398 2004 0
399 2004 0
400 2004 0
401 2004 0
402 2004 0
403 2004 0
404 2004 0
405 2004 0
406 2004 0
407 2004 0
408 2004 0
1321 2004 0.22589481330245723
1322 2004 0.085512196920050021
1323 2004 -0.209328877595194
1324 2004 0.014853171089538656
385 2005 0
386 2005 0
387 2005 0
388 2005 0
389 2005 0
390 2005 0
391 2005 0
392 2005 0
393 2005 0
394 2005 0
395 2005 0
396 2005 0
397 2005 0.99509004789631994
398 2005 0
399 2005 0
400 2005 0
401 2005 0
402 2005 0
403 2005 0
404 2005 0
405 2005 0
406 2005 0
407 2005 0
408 2005 0
1321 2005 0
1322 2005 0
1323 2005 0
1324 2005 0
385 2006 0
386 2006 0
387 2006 0
388 2006 0
389 2006 0
390 2006 0
391 2006 0
392 2006 0
393 2006 0
394 2006 0
395 2006 0
396 2006 0
397 2006 0
398 2006 0.99509004789631994
399 2006 0
400 2006 0
401 2006 0
402 2006 0
403 2006 0
404 2006 0
405 2006 0
406 2006 0
407 2006 0
408 2006 0
1321 2006 0
1322 2006 0
1323 2006 0
1324 2006 0
385 2007 0
386 2007 0
387 2007 0
388 2007 0
389 2007 0
390 2007 0
391 2007 0
392 2007 0
393 2007 0
394 2007 0
395 2007 0
396 2007 0
397 2007 0
398 2007 0
399 2007 0.99509004789631994
400 2007 0
401 2007 0
402 2007 0
403 2007 0
404 2007 0
405 2007 0
406 2007 0
407 2007 0
408 2007 0
1321 2007 0
1322 2007 0
1323 2007 0
1324 2007 0
385 2008 0
386 2008 0
387 2008 0
388 2008 0
389 2008 0
390 2008 0
391 2008 0
392 2008 0
393 2008 0
394 2008 0
395 2008 0
396 2008 0
397 2008 0
398 2008 0
399 2008 0
400 2008 0.99509004789631994
401 2008 0
402 2008 0
403 2008 0
404 2008 0
405 2008 0
406 2008 0
407 2008 0
408 2008 0
1321 2008 0
1322 2008 0
1323 2008 0
1324 2008 0
385 2009 0
386 2009 0
387 2009 0
388 2009 0
389 2009 0
390 2009 0
391 2009 0
392 2009 0
393 2009 0
394 2009 0
395 2009 0
396 2009 0
397 2009 0
398 2009 0
399 2009 0
400 2009 0
401 2009 0.99509004789631994
402 2009 0
403 2009 0
404 2009 0
405 2009 0
406 2009 0
407 2009 0
408 2009 0
1321 2009 0
1322 2009 0
1323 2009 0
1324 2009 0
385 2010 0
386 2010 0
387 2010 0
388 2010 0
389 2010 0
390 2010 0
391 2010 0
392 2010 0
393 2010 0
394 2010 0
395 2010 0
396 2010 0
397 2010 0
398 2010 0
399 2010 0
400 2010 0
401 2010 0
402 2010 0.99509004789631994
403 2010 0
404 2010 0
405 2010 0
406 2010 0
407 2010 0
408 2010 0
1321 2010 0
1322 2010 0
1323 2010 0
1324 2010 0
385 2011 0
386 2011 0
387 2011 0
388 2011 0
389 2011 0
390 2011 0
391 2011 0
392 2011 0
393 2011 0
394 2011 0
395 2011 0
396 2011 0
397 2011 0
398 2011 0
399 2011 0
400 2011 0
401 2011 0
402 2011 0
403 2011 0.99509004789631994
404 2011 0
405 2011 0
406 2011 0
407 2011 0
408 2011 0
1321 2011 0
1322 2011 0
1323 2011 0
1324 2011 0
385 2012 0
386 2012 0
387 2012 0
388 2012 0
389 2012 0
390 2012 0
391 2012 0
392 2012 0
393 2012 0
394 2012 0
395 2012 0
396 2012 0
397 2012 0
398 2012 0
399 2012 0
400 2012 0
401 2012 0
402 2012 0
403 2012 0
404 2012 0.99509004789631994
405 2012 0
406 2012 0
407 2012 0
408 2012 0
1321 2012 0
1322 2012 0
1323 2012 0
1324 2012 0
385 2013 0
386 2013 0
387 2013 0
388 2013 0
389 2013 0
390 2013 0
391 2013 0
392 2013 0
393 2013 0
394 2013 0
395 2013 0
396 2013 0
397 2013 0
398 2013 0
399 2013 0
400 2013 0
401 2013 0
402 2013 0
403 2013 0
404 2013 0
405 2013 0.99509004789631994
406 2013 0
407 2013 0
408 2013 0
1321 2013 0
1322 2013 0
1323 2013 0
1324 2013 0
385 2014 0
386 2014 0
387 2014 0
388 2014 0
389 2014 0
390 2014 0
391 2014 0
392 2014 0
393 2014 0
394 2014 0
395 2014 0
396 2014 0
397 2014 0
398 2014 0
399 2014 0
400 2014 0
401 2014 0
402 2014 0
403 2014 0
404 2014 0
405 2014 0
406 2014 0.99509004789631994
407 2014 0
408 2014 0
1321 2014 0
1322 2014 0
1323 2014 0
1324 2014 0
385 2015 0
386 2015 0
387 2015 0
388 2015 0
389 2015 0
390 2015 0
391 2015 0
392 2015 0
393 2015 0
394 2015 0
395 2015 0
396 2015 0
397 2015 0
398 2015 0
399 2015 0
400 2015 0
401 2015 0
402 2015 0
403 2015 0
404 2015 0
405 2015 0
406 2015 0
407 2015 0.99509004789631994
408 2015 0
1321 2015 0
1322 2015 0
1323 2015 0
1324 2015 0
385 2016 0
386 2016 0
387 2016 0
388 2016 0
389 2016 0
390 2016 0
391 2016 0
392 2016 0
393 2016 0
394 2016 0
395 2016 0
396 2016 0
397 2016 0
398 2016 0
399 2016 0
400 2016 0
401 2016 0
402 2016 0
403 2016 0
404 2016 0
405 2016 0
406 2016 0
407 2016 0
408 2016 0.99509004789631994
1321 2016 0
1322 2016 0
1323 2016 0
1324 2016 0
1317 2017 0
1318 2017 0
1319 2017 0
1320 2017 0
1625 2017 0
1317 2018 0.99878751991636638
1318 2018 0
1319 2018 0
1320 2018 0
1625 2018 0
1317 2019 0
1318 2019 0.99886974093913028
1319 2019 0
1320 2019 0
1625 2019 0
1317 2020 0
1318 2020 0
1319 2020 0.99859691322799182
1320 2020 0
1625 2020 0
1317 2021 0
1318 2021 0
1319 2021 0
1320 2021 0.99879118685427859
1625 2021 0
1317 2022 0
1318 2022 0
1319 2022 0
1320 2022 0
1625 2022 1
373 2023 -0.99509004789631994
374 2023 -0
375 2023 -0
376 2023 -0
377 2023 -0
378 2023 -0
379 2023 -0
380 2023 -0
381 2023 -0
382 2023 -0
383 2023 -0
384 2023 -0
385 2023 0
386 2023 0
387 2023 0
388 2023 0
389 2023 0
390 2023 0
391 2023 0
392 2023 0
393 2023 0
394 2023 0
395 2023 0
396 2023 0
1317 2023 -0.1803189598547551
1318 2023 -0.25584631152049064
1319 2023 -0.074765084896359371
1320 2023 -0.06244980534901011
373 2024 -0
374 2024 -0.99509004789631994
375 2024 -0
376 2024 -0
377 2024 -0
378 2024 -0
379 2024 -0
380 2024 -0
381 2024 -0
382 2024 -0
383 2024 -0
384 2024 -0
385 2024 0
386 2024 0
387 2024 0
388 2024 0
389 2024 0
390 2024 0
391 2024 0
392 2024 0
393 2024 0
394 2024 0
395 2024 0
396 2024 0
1317 2024 0.10820261428783474
1318 2024 0.080196783561304039
1319 2024 -0.016866001348705428
1320 2024 -0.17094248486675911
373 2025 -0
374 2025 -0
375 2025 -0.99509004789631994
376 2025 -0
377 2025 -0
378 2025 -0
379 2025 -0
380 2025 -0
381 2025 -0
382 2025 -0
383 2025 -0
384 2025 -0
385 2025 0
386 2025 0
387 2025 0
388 2025 0
389 2025 0
390 2025 0
391 2025 0
392 2025 0
393 2025 0
394 2025 0
395 2025 0
396 2025 0
1317 2025 0.021296203412182201
1318 2025 0.06379387941368389
1319 2025 0.33227429440027084
1320 2025 0.038055274961526345
373 2026 -0
374 2026 -0
375 2026 -0
376 2026 -0.99509004789631994
377 2026 -0
378 2026 -0
379 2026 -0
380 2026 -0
381 2026 -0
382 2026 -0
383 2026 -0
384 2026 -0
385 2026 0
386 2026 0
387 2026 0
388 2026 0
389 2026 0
390 2026 0
391 2026 0
392 2026 0
393 2026 0
394 2026 0
395 2026 0
396 2026 0
1317 2026 0.19846746771042395
1318 2026 0.13291349456905685
1319 2026 -0.11659569025066187
1320 2026 0.1709989853023412
373 2027 -0
374 2027 -0
375 2027 -0
376 2027 -0
377 2027 -0.99509004789631994
378 2027 -0
379 2027 -0
380 2027 -0
381 2027 -0
382 2027 -0
383 2027 -0
384 2027 -0
385 2027 0
386 2027 0
387 2027 0
388 2027 0
389 2027 0
390 2027 0
391 2027 0
392 2027 0
393 2027 0
394 2027 0
395 2027 0
396 2027 0
1317 2027 0.06406726430169403
1318 2027 0.0077975121873435499
1319 2027 -0.012888481757033089
1320 2027 0.1821584263174176
373 2028 -0
374 2028 -0
375 2028 -0
376 2028 -0
377 2028 -0
378 2028 -0.99509004789631994
379 2028 -0
380 2028 -0
381 2028 -0
382 2028 -0
383 2028 -0
384 2028 -0
385 2028 0
386 2028 0
387 2028 0
388 2028 0
389 2028 0
390 2028 0
391 2028 0
392 2028 0
393 2028 0
394 2028 0
395 2028 0
396 2028 0
1317 2028 0.14930176975937659
1318 2028 -0.1220518999462523
1319 2028 -0.21437482240798272
1320 2028 -0.27728111366749703
373 2029 -0
374 2029 -0
375 2029 -0
376 2029 -0
377 2029 -0
378 2029 -0
379 2029 -0.99509004789631994
380 2029 -0
381 2029 -0
382 2029 -0
383 2029 -0
384 2029 -0
385 2029 0
386 2029 0
387 2029 0
388 2029 0
389 2029 0
390 2029 0
391 2029 0
392 2029 0
393 2029 0
394 2029 0
395 2029 0
396 2029 0
1317 2029 -0.27832449100114248
1318 2029 -0.023030066571549251
1319 2029 0.085999904285044407
1320 2029 0.14042558666593874
373 2030 -0
374 2030 -0
375 2030 -0
376 2030 -0
377 2030 -0
378 2030 -0
379 2030 -0
380 2030 -0.99509004789631994
381 2030 -0
382 2030 -0
383 2030 -0
384 2030 -0
385 2030 0
386 2030 0
387 2030 0
388 2030 0
389 2030 0
390 2030 0
391 2030 0
392 2030 0
393 2030 0
394 2030 0
395 2030 0
396 2030 0
1317 2030 0.14426661227624929
1318 2030 0.019112219351713613
1319 2030 -0.3383340256558125
1320 2030 -0.26332006554483989
373 2031 -0
374 2031 -0
375 2031 -0
376 2031 -0
377 2031 -0
378 2031 -0
379 2031 -0
380 2031 -0
381 2031 -0.99509004789631994
382 2031 -0
383 2031 -0
384 2031 -0
385 2031 0
386 2031 0
387 2031 0
388 2031 0
389 2031 0
390 2031 0
391 2031 0
392 2031 0
393 2031 0
394 2031 0
395 2031 0
396 2031 0
1317 2031 -0.11462509557936003
1318 2031 -0.065598224589830417
1319 2031 0.12045547271290091
1320 2031 0.066735657880519217
373 2032 -0
374 2032 -0
375 2032 -0
376 2032 -0
377 2032 -0
378 2032 -0
379 2032 -0
380 2032 -0
381 2032 -0
382 2032 -0.99509004789631994
383 2032 -0
384 2032 -0
385 2032 0
386 2032 0
387 2032 0
388 2032 0
389 2032 0
390 2032 0
391 2032 0
392 2032 0
393 2032 0
394 2032 0
395 2032 0
396 2032 0
1317 2032 0.1112726701807888
1318 2032 -0.18163442438886057
1319 2032 -0.24934842404473068
1320 2032 0.087619788974651794
373 2033 -0
374 2033 -0
375 2033 -0
376 2033 -0
377 2033 -0
378 2033 -0
379 2033 -0
380 2033 -0
381 2033 -0
382 2033 -0
383 2033 -0.99509004789631994
384 2033 -0
385 2033 0
386 2033 0
387 2033 0
388 2033 0
389 2033 0
390 2033 0
391 2033 0
392 2033 0
393 2033 0
394 2033 0
395 2033 0
396 2033 0
1317 2033 0.0048220099123521959
1318 2033 -0.09230703811323461
1319 2033 -0.22028815111069383
1320 2033 -0.062540089363958593
373 2034 -0
374 2034 -0
375 2034 -0
376 2034 -0
377 2034 -0
378 2034 -0
379 2034 -0
380 2034 -0
381 2034 -0
382 2034 -0
383 2034 -0
384 2034 -0.99509004789631994
385 2034 0
386 2034 0
387 2034 0
388 2034 0
389 2034 0
390 2034 0
391 2034 0
392 2034 0
393 2034 0
394 2034 0
395 2034 0
396 2034 0
1317 2034 0.22589481330245723
1318 2034 0.085512196920050021
1319 2034 -0.209328877595194
1320 2034 0.014853171089538656
373 2035 0
374 2035 0
375 2035 0
376 2035 0
377 2035 0
378 2035 0
379 2035 0
380 2035 0
381 2035 0
382 2035 0
383 2035 0
384 2035 0
385 2035 0.99509004789631994
386 2035 0
387 2035 0
388 2035 0
389 2035 0
390 2035 0
391 2035 0
392 2035 0
393 2035 0
394 2035 0
395 2035 0
396 2035 0
1317 2035 0
1318 2035 0
1319 2035 0
1320 2035 0
373 2036 0
374 2036 0
375 2036 0
376 2036 0
377 2036 0
378 2036 0
379 2036 0
380 2036 0
381 2036 0
382 2036 0
383 2036 0
384 2036 0
385 2036 0
386 2036 0.99509004789631994
387 2036 0
388 2036 0
389 2036 0
390 2036 0
391 2036 0
392 2036 0
393 2036 0
394 2036 0
395 2036 0
396 2036 0
1317 2036 0
1318 2036 0
1319 2036 0
1320 2036 0
373 2037 0
374 2037 0
375 2037 0
376 2037 0
377 2037 0
378 2037 0
379 2037 0
380 2037 0
381 2037 0
382 2037 0
383 2037 0
384 2037 0
385 2037 0
386 2037 0
387 2037 0.99509004789631994
388 2037 0
389 2037 0
390 2037 0
391 2037 0
392 2037 0
393 2037 0
394 2037 0
395 2037 0
396 2037 0
1317 2037 0
1318 2037 0
1319 2037 0
1320 2037 0
373 2038 0
374 2038 0
375 2038 0
376 2038 0
377 2038 0
378 2038 0
379 2038 0
380 2038 0
381 2038 0
382 2038 0
383 2038 0
384 2038 0
385 2038 0
386 2038 0
387 2038 0
388 2038 0.99509004789631994
389 2038 0
390 2038 0
391 2038 0
392 2038 0
393 2038 0
394 2038 0
395 2038 0
396 2038 0
1317 2038 0
1318 2038 0
1319 2038 0
1320 2038 0
373 2039 0
374 2039 0
375 2039 0
376 2039 0
377 2039 0
378 2039 0
379 2039 0
380 2039 0
381 2039 0
382 2039 0
383 2039 0
384 2039 0
385 2039 0
386 2039 0
387 2039 0
388 2039 0
389 2039 0.99509004789631994
390 2039 0
391 2039 0
392 2039 0
393 2039 0
394 2039 0
395 2039 0
396 2039 0
1317 2039 0
1318 2039 0
1319 2039 0
1320 2039 0
373 2040 0
374 2040 0
375 2040 0
376 2040 0
377 2040 0
378 2040 0
379 2040 0
380 2040 0
381 2040 0
382 2040 0
383 2040 0
384 2040 0
385 2040 0
386 2040 0
387 2040 0
388 2040 0
389 2040 0
390 2040 0.99509004789631994
391 2040 0
392 2040 0
393 2040 0
394 2040 0
395 2040 0
396 2040 0
1317 2040 0
1318 2040 0
1319 2040 0
1320 2040 0
373 2041 0
374 2041 0
375 2041 0
376 2041 0
377 2041 0
378 2041 0
379 2041 0
380 2041 0
381 2041 0
382 2041 0
383 2041 0
384 2041 0
385 2041 0
386 2041 0
387 2041 0
388 2041 0
389 2041 0
390 2041 0
391 2041 0.99509004789631994
392 2041 0
393 2041 0
394 2041 0
395 2041 0
396 2041 0
1317 2041 0
1318 2041 0
1319 2041 0
1320 2041 0
373 2042 0
374 2042 0
375 2042 0
376 2042 0
377 2042 0
378 2042 0
379 2042 0
380 2042 0
381 2042 0
382 2042 0
383 2042 0
384 2042 0
385 2042 0
386 2042 0
387 2042 0
388 2042 0
389 2042 0
390 2042 0
391 2042 0
392 2042 0.99509004789631994
393 2042 0
394 2042 0
395 2042 0
396 2042 0
1317 2042 0
1318 2042 0
1319 2042 0
1320 2042 0
373 2043 0
374 2043 0
375 2043 0
376 2043 0
377 2043 0
378 2043 0
379 2043 0
380 2043 0
381 2043 0
382 2043 0
383 2043 0
384 2043 0
385 2043 0
386 2043 0
387 2043 0
388 2043 0
389 2043 0
390 2043 0
391 2043 0
392 2043 0
393 2043 0.99509004789631994
394 2043 0
395 2043 0
396 2043 0
1317 2043 0
1318 2043 0
1319 2043 0
1320 2043 0
373 2044 0
374 2044 0
375 2044 0
376 2044 0
377 2044 0
378 2044 0
379 2044 0
380 2044 0
381 2044 0
382 2044 0
383 2044 0
384 2044 0
385 2044 0
386 2044 0
387 2044 0
388 2044 0
389 2044 0
390 2044 0
391 2044 0
392 2044 0
393 2044 0
394 2044 0.99509004789631994
395 2044 0
396 2044 0
1317 2044 0
1318 2044 0
1319 2044 0
1320 2044 0
373 2045 0
374 2045 0
375 2045 0
376 2045 0
377 2045 0
378 2045 0
379 2045 0
380 2045 0
381 2045 0
382 2045 0
383 2045 0
384 2045 0
385 2045 0
386 2045 0
387 2045 0
388 2045 0
389 2045 0
390 2045 0
391 2045 0
392 2045 0
393 2045 0
394 2045 0
395 2045 0.99509004789631994
396 2045 0
1317 2045 0
1318 2045 0
1319 2045 0
1320 2045 0
373 2046 0
374 2046 0
375 2046 0
376 2046 0
377 2046 0
378 2046 0
379 2046 0
380 2046 0
381 2046 0
382 2046 0
383 2046 0
384 2046 0
385 2046 0
386 2046 0
387 2046 0
388 2046 0
389 2046 0
390 2046 0
391 2046 0
392 2046 0
393 2046 0
394 2046 0
395 2046 0
396 2046 0.99509004789631994
1317 2046 0
1318 2046 0
1319 2046 0
1320 2046 0
1313 2047 0
1314 2047 0
1315 2047 0
1316 2047 0
1624 2047 0
1313 2048 0.99878751991636638
1314 2048 0
1315 2048 0
1316 2048 0
1624 2048 0
1313 2049 0
1314 2049 0.99886974093913028
1315 2049 0
1316 2049 0
1624 2049 0
1313 2050 0
1314 2050 0
1315 2050 0.99859691322799182
1316 2050 0
1624 2050 0
1313 2051 0
1314 2051 0
1315 2051 0
1316 2051 0.99879118685427859
1624 2051 0
1313 2052 0
1314 2052 0
1315 2052 0
1316 2052 0
1624 2052 1
361 2053 -0.99509004789631994
362 2053 -0
363 2053 -0
364 2053 -0
365 2053 -0
366 2053 -0
367 2053 -0
368 2053 -0
369 2053 -0
370 2053 -0
371 2053 -0
372 2053 -0
373 2053 0
374 2053 0
375 2053 0
376 2053 0
377 2053 0
378 2053 0
379 2053 0
380 2053 0
381 2053 0
382 2053 0
383 2053 0
384 2053 0
1313 2053 -0.1803189598547551
1314 2053 -0.25584631152049064
1315 2053 -0.074765084896359371
1316 2053 -0.06244980534901011
361 2054 -0
362 2054 -0.99509004789631994
363 2054 -0
364 2054 -0
365 2054 -0
366 2054 -0
367 2054 -0
368 2054 -0
369 2054 -0
370 2054 -0
371 2054 -0
372 2054 -0
373 2054 0
374 2054 0
375 2054 0
376 2054 0
377 2054 0
378 2054 0
379 2054 0
380 2054 0
381 2054 0
382 2054 0
383 2054 0
384 2054 0
1313 2054 0.10820261428783474
1314 2054 0.080196783561304039
1315 2054 -0.016866001348705428
1316 2054 -0.17094248486675911
361 2055 -0
362 2055 -0
363 2055 -0.99509004789631994
364 2055 -0
365 2055 -0
366 2055 -0
367 2055 -0
368 2055 -0
369 2055 -0
370 2055 -0
371 2055 -0
372 2055 -0
373 2055 0
374 2055 0
375 2055 0
376 2055 0
377 2055 0
378 2055 0
379 2055 0
380 2055 0
381 2055 0
382 2055 0
383 2055 0
384 2055 0
1313 2055 0.021296203412182201
1314 2055 0.06379387941368389
1315 2055 0.33227429440027084
1316 2055 0.038055274961526345
361 2056 -0
362 2056 -0
363 2056 -0
364 2056 -0.99509004789631994
365 2056 -0
366 2056 -0
367 2056 -0
368 2056 -0
369 2056 -0
370 2056 -0
371 2056 -0
372 2056 -0
373 2056 0
374 2056 0
375 2056 0
376 2056 0
377 2056 0
378 2056 0
379 2056 0
380 2056 0
381 2056 0
382 2056 0
383 2056 0
384 2056 0
1313 2056 0.19846746771042395
1314 2056 0.13291349456905685
1315 2056 -0.11659569025066187
1316 2056 0.1709989853023412
361 2057 -0
362 2057 -0
363 2057 -0
364 2057 -0
365 2057 -0.99509004789631994
366 2057 -0
367 2057 -0
368 2057 -0
369 2057 -0
370 2057 -0
371 2057 -0
372 2057 -0
373 2057 0
374 2057 0
375 2057 0
376 2057 0
377 2057 0
378 2057 0
379 2057 0
380 2057 0
381 2057 0
382 2057 0
383 2057 0
384 2057 0
1313 2057 0.06406726430169403
1314 2057 0.0077975121873435499
1315 2057 -0.012888481757033089
1316 2057 0.1821584263174176
361 2058 -0
362 2058 -0
363 2058 -0
364 2058 -0
365 2058 -0
366 2058 -0.99509004789631994
367 2058 -0
368 2058 -0
369 2058 -0
370 2058 -0
371 2058 -0
372 2058 -0
373 2058 0
374 2058 0
375 2058 0
376 2058 0
377 2058 0
378 2058 0
379 2058 0
380 2058 0
381 2058 0
382 2058 0
383 2058 0
384 2058 0
1313 2058 0.14930176975937659
1314 2058 -0.1220518999462523
1315 2058 -0.21437482240798272
1316 2058 -0.27728111366749703
361 2059 -0
362 2059 -0
363 2059 -0
364 2059 -0
365 2059 -0
366 2059 -0
367 2059 -0.99509004789631994
368 2059 -0
369 2059 -0
370 2059 -0
371 2059 -0
372 2059 -0
373 2059 0
374 2059 0
375 2059 0
376 2059 0
377 2059 0
378 2059 0
379 2059 0
380 2059 0
381 2059 0
382 2059 0
383 2059 0
384 2059 0
1313 2059 -0.27832449100114248
1314 2059 -0.023030066571549251
1315 2059 0.085999904285044407
1316 2059 0.14042558666593874
361 2060 -0
362 2060 -0
363 2060 -0
364 2060 -0
365 2060 -0
366 2060 -0
367 2060 -0
368 2060 -0.99509004789631994
369 2060 -0
370 2060 -0
371 2060 -0
372 2060 -0
373 2060 0
374 2060 0
375 2060 0
376 2060 0
377 2060 0
378 2060 0
379 2060 0
380 2060 0
381 2060 0
382 2060 0
383 2060 0
384 2060 0
1313 2060 0.14426661227624929
1314 2060 0.019112219351713613
1315 2060 -0.3383340256558125
1316 2060 -0.26332006554483989
361 2061 -0
362 2061 -0
363 2061 -0
364 2061 -0
365 2061 -0
366 2061 -0
367 2061 -0
368 2061 -0
369 2061 -0.99509004789631994
370 2061 -0
371 2061 -0
372 2061 -0
373 2061 0
374 2061 0
375 2061 0
376 2061 0
377 2061 0
378 2061 0
379 2061 0
380 2061 0
381 2061 0
382 2061 0
383 2061 0
384 2061 0
1313 2061 -0.11462509557936003
1314 2061 -0.065598224589830417
1315 2061 0.12045547271290091
1316 2061 0.066735657880519217
361 2062 -0
362 2062 -0
363 2062 -0
364 2062 -0
365 2062 -0
366 2062 -0
367 2062 -0
368 2062 -0
369 2062 -0
370 2062 -0.99509004789631994
371 2062 -0
372 2062 -0
373 2062 0
374 2062 0
375 2062 0
376 2062 0
377 2062 0
378 2062 0
379 2062 0
380 2062 0
381 2062 0
382 2062 0
383 2062 0
384 2062 0
1313 2062 0.1112726701807888
1314 2062 -0.18163442438886057
1315 2062 -0.24934842404473068
1316 2062 0.087619788974651794
361 2063 -0
362 2063 -0
363 2063 -0
364 2063 -0
365 2063 -0
366 2063 -0
367 2063 -0
368 2063 -0
369 2063 -0
370 2063 -0
371 2063 -0.99509004789631994
372 2063 -0
373 2063 0
374 2063 0
375 2063 0
376 2063 0
377 2063 0
378 2063 0
379 2063 0
380 2063 0
381 2063 0
382 2063 0
383 2063 0
384 2063 0
1313 2063 0.0048220099123521959
1314 2063 -0.09230703811323461
1315 2063 -0.22028815111069383
1316 2063 -0.062540089363958593
361 2064 -0
362 2064 -0
363 2064 -0
364 2064 -0
365 2064 -0
366 2064 -0
367 2064 -0
368 2064 -0
369 2064 -0
370 2064 -0
371 2064 -0
372 2064 -0.99509004789631994
373 2064 0
374 2064 0
375 2064 0
376 2064 0
377 2064 0
378 2064 0
379 2064 0
380 2064 0
381 2064 0
382 2064 0
383 2064 0
384 2064 0
1313 2064 0.22589481330245723
1314 2064 0.085512196920050021
1315 2064 -0.209328877595194
1316 2064 0.014853171089538656
361 2065 0
362 2065 0
363 2065 0
364 2065 0
365 2065 0
366 2065 0
367 2065 0
368 2065 0
369 2065 0
370 2065 0
371 2065 0
372 2065 0
373 2065 0.99509004789631994
374 2065 0
375 2065 0
376 2065 0
377 2065 0
378 2065 0
379 2065 0
380 2065 0
381 2065 0
382 2065 0
383 2065 0
384 2065 0
1313 2065 0
1314 2065 0
1315 2065 0
1316 2065 0
361 2066 0
362 2066 0
363 2066 0
364 2066 0
365 2066 0
366 2066 0
367 2066 0
368 2066 0
369 2066 0
370 2066 0
371 2066 0
372 2066 0
373 2066 0
374 2066 0.99509004789631994
375 2066 0
376 2066 0
377 2066 0
378 2066 0
379 2066 0
380 2066 0
381 2066 0
382 2066 0
383 2066 0
384 2066 0
1313 2066 0
1314 2066 0
1315 2066 0
1316 2066 0
361 2067 0
362 2067 0
363 2067 0
364 2067 0
365 2067 0
366 2067 0
367 2067 0
368 2067 0
369 2067 0
370 2067 0
371 2067 0
372 2067 0
373 2067 0
374 2067 0
375 2067 0.99509004789631994
376 2067 0
377 2067 0
378 2067 0
379 2067 0
380 2067 0
381 2067 0
382 2067 0
383 2067 0
384 2067 0
1313 2067 0
1314 2067 0
1315 2067 0
1316 2067 0
361 2068 0
362 2068 0
363 2068 0
364 2068 0
365 2068 0
366 2068 0
367 2068 0
368 2068 0
369 2068 0
370 2068 0
371 2068 0
372 2068 0
373 2068 0
374 2068 0
375 2068 0
376 2068 0.99509004789631994
377 2068 0
378 2068 0
379 2068 0
380 2068 0
381 2068 0
382 2068 0
383 2068 0
384 2068 0
1313 2068 0
1314 2068 0
1315 2068 0
1316 2068 0
361 2069 0
362 2069 0
363 2069 0
364 2069 0
365 2069 0
366 2069 0
367 2069 0
368 2069 0
369 2069 0
370 2069 0
371 2069 0
372 2069 0
373 2069 0
374 2069 0
375 2069 0
376 2069 0
377 2069 0.99509004789631994
378 2069 0
379 2069 0
380 2069 0
381 2069 0
382 2069 0
383 2069 0
384 2069 0
1313 2069 0
1314 2069 0
1315 2069 0
1316 2069 0
361 2070 0
362 2070 0
363 2070 0
364 2070 0
365 2070 0
366 2070 0
367 2070 0
368 2070 0
369 2070 0
370 2070 0
371 2070 0
372 2070 0
373 2070 0
374 2070 0
375 2070 0
376 2070 0
377 2070 0
378 2070 0.99509004789631994
379 2070 0
380 2070 0
381 2070 0
382 2070 0
383 2070 0
384 2070 0
1313 2070 0
1314 2070 0
1315 2070 0
1316 2070 0
361 2071 0
362 2071 0
363 2071 0
364 2071 0
365 2071 0
366 2071 0
367 2071 0
368 2071 0
369 2071 0
370 2071 0
371 2071 0
372 2071 0
373 2071 0
374 2071 0
375 2071 0
376 2071 0
377 2071 0
378 2071 0
379 2071 0.99509004789631994
380 2071 0
381 2071 0
382 2071 0
383 2071 0
384 2071 0
1313 2071 0
1314 2071 0
1315 2071 0
1316 2071 0
361 2072 0
362 2072 0
363 2072 0
364 2072 0
365 2072 0
366 2072 0
367 2072 0
368 2072 0
369 2072 0
370 2072 0
371 2072 0
372 2072 0
373 2072 0
374 2072 0
375 2072 0
376 2072 0
377 2072 0
378 2072 0
379 2072 0
380 2072 0.99509004789631994
381 2072 0
382 2072 0
383 2072 0
384 2072 0
1313 2072 0
1314 2072 0
1315 2072 0
1316 2072 0
361 2073 0
362 2073 0
363 2073 0
364 2073 0
365 2073 0
366 2073 0
367 2073 0
368 2073 0
369 2073 0
370 2073 0
371 2073 0
372 2073 0
373 2073 0
374 2073 0
375 2073 0
376 2073 0
377 2073 0
378 2073 0
379 2073 0
380 2073 0
381 2073 0.99509004789631994
382 2073 0
383 2073 0
384 2073 0
1313 2073 0
1314 2073 0
1315 2073 0
1316 2073 0
361 2074 0
362 2074 0
363 2074 0
364 2074 0
365 2074 0
366 2074 0
367 2074 0
368 2074 0
369 2074 0
370 2074 0
371 2074 0
372 2074 0
373 2074 0
374 2074 0
375 2074 0
376 2074 0
377 2074 0
378 2074 0
379 2074 0
380 2074 0
381 2074 0
382 2074 0.99509004789631994
383 2074 0
384 2074 0
1313 2074 0
1314 2074 0
1315 2074 0
1316 2074 0
361 2075 0
362 2075 0
363 2075 0
364 2075 0
365 2075 0
366 2075 0
367 2075 0
368 2075 0
369 2075 0
370 2075 0
371 2075 0
372 2075 0
373 2075 0
374 2075 0
375 2075 0
376 2075 0
377 2075 0
378 2075 0
379 2075 0
380 2075 0
381 2075 0
382 2075 0
383 2075 0.99509004789631994
384 2075 0
1313 2075 0
1314 2075 0
1315 2075 0
1316 2075 0
361 2076 0
362 2076 0
363 2076 0
364 2076 0
365 2076 0
366 2076 0
367 2076 0
368 2076 0
369 2076 0
370 2076 0
371 2076 0
372 2076 0
373 2076 0
374 2076 0
375 2076 0
376 2076 0
377 2076 0
378 2076 0
379 2076 0
380 2076 0
381 2076 0
382 2076 0
383 2076 0
384 2076 0.99509004789631994
1313 2076 0
1314 2076 0
1315 2076 0
1316 2076 0
1309 2077 0
1310 2077 0
1311 2077 0
1312 2077 0
1623 2077 0
1309 2078 0.99878751991636638
1310 2078 0
1311 2078 0
1312 2078 0
1623 2078 0
1309 2079 0
1310 2079 0.99886974093913028
1311 2079 0
1312 2079 0
1623 2079 0
1309 2080 0
1310 2080 0
1311 2080 0.99859691322799182
1312 2080 0
1623 2080 0
1309 2081 0
1310 2081 0
1311 2081 0
1312 2081 0.99879118685427859
1623 2081 0
1309 2082 0
1310 2082 0
1311 2082 0
1312 2082 0
1623 2082 1
349 2083 -0.99509004789631994
350 2083 -0
351 2083 -0
352 2083 -0
353 2083 -0
354 2083 -0
355 2083 -0
356 2083 -0
357 2083 -0
358 2083 -0
359 2083 -0
360 2083 -0
361 2083 0
362 2083 0
363 2083 0
364 2083 0
365 2083 0
366 2083 0
367 2083 0
368 2083 0
369 2083 0
370 2083 0
371 2083 0
372 2083 0
1309 2083 -0.1803189598547551
1310 2083 -0.25584631152049064
1311 2083 -0.074765084896359371
1312 2083 -0.06244980534901011
349 2084 -0
350 2084 -0.99509004789631994
351 2084 -0
352 2084 -0
353 2084 -0
354 2084 -0
355 2084 -0
356 2084 -0
357 2084 -0
358 2084 -0
359 2084 -0
360 2084 -0
361 2084 0
362 2084 0
363 2084 0
364 2084 0
365 2084 0
366 2084 0
367 2084 0
368 2084 0
369 2084 0
370 2084 0
371 2084 0
372 2084 0
1309 2084 0.10820261428783474
1310 2084 0.080196783561304039
1311 2084 -0.016866001348705428
1312 2084 -0.17094248486675911
349 2085 -0
350 2085 -0
351 2085 -0.99509004789631994
352 2085 -0
353 2085 -0
354 2085 -0
355 2085 -0
356 2085 -0
357 2085 -0
358 2085 -0
359 2085 -0
360 2085 -0
361 2085 0
362 2085 0
363 2085 0
364 2085 0
365 2085 0
366 2085 0
367 2085 0
368 2085 0
369 2085 0
370 2085 0
371 2085 0
372 2085 0
1309 2085 0.021296203412182201
1310 2085 0.06379387941368389
1311 2085 0.33227429440027084
1312 2085 0.038055274961526345
349 2086 -0
350 2086 -0
351 2086 -0
352 2086 -0.99509004789631994
353 2086 -0
354 2086 -0
355 2086 -0
356 2086 -0
357 2086 -0
358 2086 -0
359 2086 -0
360 2086 -0
361 2086 0
362 2086 0
363 2086 0
364 2086 0
365 2086 0
366 2086 0
367 2086 0
368 2086 0
369 2086 0
370 2086 0
371 2086 0
372 2086 0
1309 2086 0.19846746771042395
1310 2086 0.13291349456905685
1311 2086 -0.11659569025066187
1312 2086 0.1709989853023412
349 2087 -0
350 2087 -0
351 2087 -0
352 2087 -0
353 2087 -0.99509004789631994
354 2087 -0
355 2087 -0
356 2087 -0
357 2087 -0
358 2087 -0
359 2087 -0
360 2087 -0
361 2087 0
362 2087 0
363 2087 0
364 2087 0
365 2087 0
366 2087 0
367 2087 0
368 2087 0
369 2087 0
370 2087 0
371 2087 0
372 2087 0
1309 2087 0.06406726430169403
1310 2087 0.0077975121873435499
1311 2087 -0.012888481757033089
1312 2087 0.1821584263174176
349 2088 -0
350 2088 -0
351 2088 -0
352 2088 -0
353 2088 -0
354 2088 -0.99509004789631994
355 2088 -0
356 2088 -0
357 2088 -0
358 2088 -0
359 2088 -0
360 2088 -0
361 2088 0
362 2088 0
363 2088 0
364 2088 0
365 2088 0
366 2088 0
367 2088 0
368 2088 0
369 2088 0
370 2088 0
371 2088 0
372 2088 0
1309 2088 0.14930176975937659
1310 2088 -0.1220518999462523
1311 2088 -0.21437482240798272
1312 2088 -0.27728111366749703
349 2089 -0
350 2089 -0
351 2089 -0
352 2089 -0
353 2089 -0
354 2089 -0
355 2089 -0.99509004789631994
356 2089 -0
357 2089 -0
358 2089 -0
359 2089 -0
360 2089 -0
361 2089 0
362 2089 0
363 2089 0
364 2089 0
365 2089 0
366 2089 0
367 2089 0
368 2089 0
369 2089 0
370 2089 0
371 2089 0
372 2089 0
1309 2089 -0.27832449100114248
1310 2089 -0.023030066571549251
1311 2089 0.085999904285044407
1312 2089 0.14042558666593874
349 2090 -0
350 2090 -0
351 2090 -0
352 2090 -0
353 2090 -0
354 2090 -0
355 2090 -0
356 2090 -0.99509004789631994
357 2090 -0
358 2090 -0
359 2090 -0
360 2090 -0
361 2090 0
362 2090 0
363 2090 0
364 2090 0
365 2090 0
366 2090 0
367 2090 0
368 2090 0
369 2090 0
370 2090 0
371 2090 0
372 2090 0
1309 2090 0.14426661227624929
1310 2090 0.019112219351713613
1311 2090 -0.3383340256558125
1312 2090 -0.26332006554483989
349 2091 -0
350 2091 -0
351 2091 -0
352 2091 -0
353 2091 -0
354 2091 -0
355 2091 -0
356 2091 -0
357 2091 -0.99509004789631994
358 2091 -0
359 2091 -0
360 2091 -0
361 2091 0
362 2091 0
363 2091 0
364 2091 0
365 2091 0
366 2091 0
367 2091 0
368 2091 0
369 2091 0
370 2091 0
371 2091 0
372 2091 0
1309 2091 -0.11462509557936003
1310 2091 -0.065598224589830417
1311 2091 0.12045547271290091
1312 2091 0.066735657880519217
349 2092 -0
350 2092 -0
351 2092 -0
352 2092 -0
353 2092 -0
354 2092 -0
355 2092 -0
356 2092 -0
357 2092 -0
358 2092 -0.99509004789631994
359 2092 -0
360 2092 -0
361 2092 0
362 2092 0
363 2092 0
364 2092 0
365 2092 0
366 2092 0
367 2092 0
368 2092 0
369 2092 0
370 2092 0
371 2092 0
372 2092 0
1309 2092 0.1112726701807888
1310 2092 -0.18163442438886057
1311 2092 -0.24934842404473068
1312 2092 0.087619788974651794
349 2093 -0
350 2093 -0
351 2093 -0
352 2093 -0
353 2093 -0
354 2093 -0
355 2093 -0
356 2093 -0
357 2093 -0
358 2093 -0
359 2093 -0.99509004789631994
360 2093 -0
361 2093 0
362 2093 0
363 2093 0
364 2093 0
365 2093 0
366 2093 0
367 2093 0
368 2093 0
369 2093 0
370 2093 0
371 2093 0
372 2093 0
1309 2093 0.0048220099123521959
1310 2093 -0.09230703811323461
1311 2093 -0.22028815111069383
1312 2093 -0.062540089363958593
349 2094 -0
350 2094 -0
351 2094 -0
352 2094 -0
353 2094 -0
354 2094 -0
355 2094 -0
356 2094 -0
357 2094 -0
358 2094 -0
359 2094 -0
360 2094 -0.99509004789631994
361 2094 0
362 2094 0
363 2094 0
364 2094 0
365 2094 0
366 2094 0
367 2094 0
368 2094 0
369 2094 0
370 2094 0
371 2094 0
372 2094 0
1309 2094 0.22589481330245723
1310 2094 0.085512196920050021
1311 2094 -0.209328877595194
1312 2094 0.014853171089538656
349 2095 0
350 2095 0
351 2095 0
352 2095 0
353 2095 0
354 2095 0
355 2095 0
356 2095 0
357 2095 0
358 2095 0
359 2095 0
360 2095 0
361 2095 0.99509004789631994
362 2095 0
363 2095 0
364 2095 0
365 2095 0
366 2095 0
367 2095 0
368 2095 0
369 2095 0
370 2095 0
371 2095 0
372 2095 0
1309 2095 0
1310 2095 0
1311 2095 0
1312 2095 0
349 2096 0
350 2096 0
351 2096 0
352 2096 0
353 2096 0
354 2096 0
355 2096 0
356 2096 0
357 2096 0
358 2096 0
359 2096 0
360 2096 0
361 2096 0
362 2096 0.99509004789631994
363 2096 0
364 2096 0
365 2096 0
366 2096 0
367 2096 0
368 2096 0
369 2096 0
370 2096 0
371 2096 0
372 2096 0
1309 2096 0
1310 2096 0
1311 2096 0
1312 2096 0
349 2097 0
350 2097 0
351 2097 0
352 2097 0
353 2097 0
354 2097 0
355 2097 0
356 2097 0
357 2097 0
358 2097 0
359 2097 0
360 2097 0
361 2097 0
362 2097 0
363 2097 0.99509004789631994
364 2097 0
365 2097 0
366 2097 0
367 2097 0
368 2097 0
369 2097 0
370 2097 0
371 2097 0
372 2097 0
1309 2097 0
1310 2097 0
1311 2097 0
1312 2097 0
349 2098 0
350 2098 0
351 2098 0
352 2098 0
353 2098 0
354 2098 0
355 2098 0
356 2098 0
357 2098 0
358 2098 0
359 2098 0
360 2098 0
361 2098 0
362 2098 0
363 2098 0
364 2098 0.99509004789631994
365 2098 0
366 2098 0
367 2098 0
368 2098 0
369 2098 0
370 2098 0
371 2098 0
372 2098 0
1309 2098 0
1310 2098 0
1311 2098 0
1312 2098 0
349 2099 0
350 2099 0
351 2099 0
352 2099 0
353 2099 0
354 2099 0
355 2099 0
356 2099 0
357 2099 0
358 2099 0
359 2099 0
360 2099 0
361 2099 0
362 2099 0
363 2099 0
364 2099 0
365 2099 0.99509004789631994
366 2099 0
367 2099 0
368 2099 0
369 2099 0
370 2099 0
371 2099 0
372 2099 0
1309 2099 0
1310 2099 0
1311 2099 0
1312 2099 0
349 2100 0
350 2100 0
351 2100 0
352 2100 0
353 2100 0
354 2100 0
355 2100 0
356 2100 0
357 2100 0
358 2100 0
359 2100 0
360 2100 0
361 2100 0
362 2100 0
363 2100 0
364 2100 0
365 2100 0
366 2100 0.99509004789631994
367 2100 0
368 2100 0
369 2100 0
370 2100 0
371 2100 0
372 2100 0
1309 2100 0
1310 2100 0
1311 2100 0
1312 2100 0
349 2101 0
350 2101 0
351 2101 0
352 2101 0
353 2101 0
354 2101 0
355 2101 0
356 2101 0
357 2101 0
358 2101 0
359 2101 0
360 2101 0
361 2101 0
362 2101 0
363 2101 0
364 2101 0
365 2101 0
366 2101 0
367 2101 0.99509004789631994
368 2101 0
369 2101 0
370 2101 0
371 2101 0
372 2101 0
1309 2101 0
1310 2101 0
1311 2101 0
1312 2101 0
349 2102 0
350 2102 0
351 2102 0
352 2102 0
353 2102 0
354 2102 0
355 2102 0
356 2102 0
357 2102 0
358 2102 0
359 2102 0
360 2102 0
361 2102 0
362 2102 0
363 2102 0
364 2102 0
365 2102 0
366 2102 0
367 2102 0
368 2102 0.99509004789631994
369 2102 0
370 2102 0
371 2102 0
372 2102 0
1309 2102 0
1310 2102 0
1311 2102 0
1312 2102 0
349 2103 0
350 2103 0
351 2103 0
352 2103 0
353 2103 0
354 2103 0
355 2103 0
356 2103 0
357 2103 0
358 2103 0
359 2103 0
360 2103 0
361 2103 0
362 2103 0
363 2103 0
364 2103 0
365 2103 0
366 2103 0
367 2103 0
368 2103 0
369 2103 0.99509004789631994
370 2103 0
371 2103 0
372 2103 0
1309 2103 0
1310 2103 0
1311 2103 0
1312 2103 0
349 2104 0
350 2104 0
351 2104 0
352 2104 0
353 2104 0
354 2104 0
355 2104 0
356 2104 0
357 2104 0
358 2104 0
359 2104 0
360 2104 0
361 2104 0
362 2104 0
363 2104 0
364 2104 0
365 2104 0
366 2104 0
367 2104 0
368 2104 0
369 2104 0
370 2104 0.99509004789631994
371 2104 0
372 2104 0
1309 2104 0
1310 2104 0
1311 2104 0
1312 2104 0
349 2105 0
350 2105 0
351 2105 0
352 2105 0
353 2105 0
354 2105 0
355 2105 0
356 2105 0
357 2105 0
358 2105 0
359 2105 0
360 2105 0
361 2105 0
362 2105 0
363 2105 0
364 2105 0
365 2105 0
366 2105 0
367 2105 0
368 2105 0
369 2105 0
370 2105 0
371 2105 0.99509004789631994
372 2105 0
1309 2105 0
1310 2105 0
1311 2105 0
1312 2105 0
349 2106 0
350 2106 0
351 2106 0
352 2106 0
353 2106 0
354 2106 0
355 2106 0
356 2106 0
357 2106 0
358 2106 0
359 2106 0
360 2106 0
361 2106 0
362 2106 0
363 2106 0
364 2106 0
365 2106 0
366 2106 0
367 2106 0
368 2106 0
369 2106 0
370 2106 0
371 2106 0
372 2106 0.99509004789631994
1309 2106 0
1310 2106 0
1311 2106 0
1312 2106 0
1305 2107 0
1306 2107 0
1307 2107 0
1308 2107 0
1622 2107 0
1305 2108 0.99878751991636638
1306 2108 0
1307 2108 0
1308 2108 0
1622 2108 0
1305 2109 0
1306 2109 0.99886974093913028
1307 2109 0
1308 2109 0
1622 2109 0
1305 2110 0
1306 2110 0
1307 2110 0.99859691322799182
1308 2110 0
1622 2110 0
1305 2111 0
1306 2111 0
1307 2111 0
1308 2111 0.99879118685427859
1622 2111 0
1305 2112 0
1306 2112 0
1307 2112 0
1308 2112 0
1622 2112 1
337 2113 -0.99509004789631994
338 2113 -0
339 2113 -0
340 2113 -0
341 2113 -0
342 2113 -0
343 2113 -0
344 2113 -0
345 2113 -0
346 2113 -0
347 2113 -0
348 2113 -0
349 2113 0
350 2113 0
351 2113 0
352 2113 0
353 2113 0
354 2113 0
355 2113 0
356 2113 0
357 2113 0
358 2113 0
359 2113 0
360 2113 0
1305 2113 -0.1803189598547551
1306 2113 -0.25584631152049064
1307 2113 -0.074765084896359371
1308 2113 -0.06244980534901011
337 2114 -0
338 2114 -0.99509004789631994
339 2114 -0
340 2114 -0
341 2114 -0
342 2114 -0
343 2114 -0
344 2114 -0
345 2114 -0
346 2114 -0
347 2114 -0
348 2114 -0
349 2114 0
350 2114 0
351 2114 0
352 2114 0
353 2114 0
354 2114 0
355 2114 0
356 2114 0
357 2114 0
358 2114 0
359 2114 0
360 2114 0
1305 2114 0.10820261428783474
1306 2114 0.080196783561304039
1307 2114 -0.016866001348705428
1308 2114 -0.17094248486675911
337 2115 -0
338 2115 -0
339 2115 -0.99509004789631994
340 2115 -0
341 2115 -0
342 2115 -0
343 2115 -0
344 2115 -0
345 2115 -0
346 2115 -0
347 2115 -0
348 2115 -0
349 2115 0
350 2115 0
351 2115 0
352 2115 0
353 2115 0
354 2115 0
355 2115 0
356 2115 0
357 2115 0
358 2115 0
359 2115 0
360 2115 0
1305 2115 0.021296203412182201
1306 2115 0.06379387941368389
1307 2115 0.33227429440027084
1308 2115 0.038055274961526345
337 2116 -0
338 2116 -0
339 2116 -0
340 2116 -0.99509004789631994
341 2116 -0
342 2116 -0
343 2116 -0
344 2116 -0
345 2116 -0
346 2116 -0
347 2116 -0
348 2116 -0
349 2116 0
350 2116 0
351 2116 0
352 2116 0
353 2116 0
354 2116 0
355 2116 0
356 2116 0
357 2116 0
358 2116 0
359 2116 0
360 2116 0
1305 2116 0.19846746771042395
1306 2116 0.13291349456905685
1307 2116 -0.11659569025066187
1308 2116 0.1709989853023412
337 2117 -0
338 2117 -0
339 2117 -0
340 2117 -0
341 2117 -0.99509004789631994
342 2117 -0
343 2117 -0
344 2117 -0
345 2117 -0
346 2117 -0
347 2117 -0
348 2117 -0
349 2117 0
350 2117 0
351 2117 0
352 2117 0
353 2117 0
354 2117 0
355 2117 0
356 2117 0
357 2117 0
358 2117 0
359 2117 0
360 2117 0
1305 2117 0.06406726430169403
1306 2117 0.0077975121873435499
1307 2117 -0.012888481757033089
1308 2117 0.1821584263174176
337 2118 -0
338 2118 -0
339 2118 -0
340 2118 -0
341 2118 -0
342 2118 -0.99509004789631994
343 2118 -0
344 2118 -0
345 2118 -0
346 2118 -0
347 2118 -0
348 2118 -0
349 2118 0
350 2118 0
351 2118 0
352 2118 0
353 2118 0
354 2118 0
355 2118 0
356 2118 0
357 2118 0
358 2118 0
359 2118 0
360 2118 0
1305 2118 0.14930176975937659
1306 2118 -0.1220518999462523
1307 2118 -0.21437482240798272
1308 2118 -0.27728111366749703
337 2119 -0
338 2119 -0
339 2119 -0
340 2119 -0
341 2119 -0
342 2119 -0
343 2119 -0.99509004789631994
344 2119 -0
345 2119 -0
346 2119 -0
347 2119 -0
348 2119 -0
349 2119 0
350 2119 0
351 2119 0
352 2119 0
353 2119 0
354 2119 0
355 2119 0
356 2119 0
357 2119 0
358 2119 0
359 2119 0
360 2119 0
1305 2119 -0.27832449100114248
1306 2119 -0.023030066571549251
1307 2119 0.085999904285044407
1308 2119 0.14042558666593874
337 2120 -0
338 2120 -0
339 2120 -0
340 2120 -0
341 2120 -0
342 2120 -0
343 2120 -0
344 2120 -0.99509004789631994
345 2120 -0
346 2120 -0
347 2120 -0
348 2120 -0
349 2120 0
350 2120 0
351 2120 0
352 2120 0
353 2120 0
354 2120 0
355 2120 0
356 2120 0
357 2120 0
358 2120 0
359 2120 0
360 2120 0
1305 2120 0.14426661227624929
1306 2120 0.019112219351713613
1307 2120 -0.3383340256558125
1308 2120 -0.26332006554483989
337 2121 -0
338 2121 -0
339 2121 -0
340 2121 -0
341 2121 -0
342 2121 -0
343 2121 -0
344 2121 -0
345 2121 -0.99509004789631994
346 2121 -0
347 2121 -0
348 2121 -0
349 2121 0
350 2121 0
351 2121 0
352 2121 0
353 2121 0
354 2121 0
355 2121 0
356 2121 0
357 2121 0
358 2121 0
359 2121 0
360 2121 0
1305 2121 -0.11462509557936003
1306 2121 -0.065598224589830417
1307 2121 0.12045547271290091
1308 2121 0.066735657880519217
337 2122 -0
338 2122 -0
339 2122 -0
340 2122 -0
341 2122 -0
342 2122 -0
343 2122 -0
344 2122 -0
345 2122 -0
346 2122 -0.99509004789631994
347 2122 -0
348 2122 -0
349 2122 0
350 2122 0
351 2122 0
352 2122 0
353 2122 0
354 2122 0
355 2122 0
356 2122 0
357 2122 0
358 2122 0
359 2122 0
360 2122 0
1305 2122 0.1112726701807888
1306 2122 -0.18163442438886057
1307 2122 -0.24934842404473068
1308 2122 0.087619788974651794
337 2123 -0
338 2123 -0
339 2123 -0
340 2123 -0
341 2123 -0
342 2123 -0
343 2123 -0
344 2123 -0
345 2123 -0
346 2123 -0
347 2123 -0.99509004789631994
348 2123 -0
349 2123 0
350 2123 0
351 2123 0
352 2123 0
353 2123 0
354 2123 0
355 2123 0
356 2123 0
357 2123 0
358 2123 0
359 2123 0
360 2123 0
1305 2123 0.0048220099123521959
1306 2123 -0.09230703811323461
1307 2123 -0.22028815111069383
1308 2123 -0.062540089363958593
337 2124 -0
338 2124 -0
339 2124 -0
340 2124 -0
341 2124 -0
342 2124 -0
343 2124 -0
344 2124 -0
345 2124 -0
346 2124 -0
347 2124 -0
348 2124 -0.99509004789631994
349 2124 0
350 2124 0
351 2124 0
352 2124 0
353 2124 0
354 2124 0
355 2124 0
356 2124 0
357 2124 0
358 2124 0
359 2124 0
360 2124 0
1305 2124 0.22589481330245723
1306 2124 0.085512196920050021
1307 2124 -0.209328877595194
1308 2124 0.014853171089538656
337 2125 0
338 2125 0
339 2125 0
340 2125 0
341 2125 0
342 2125 0
343 2125 0
344 2125 0
345 2125 0
346 2125 0
347 2125 0
348 2125 0
349 2125 0.99509004789631994
350 2125 0
351 2125 0
352 2125 0
353 2125 0
354 2125 0
355 2125 0
356 2125 0
357 2125 0
358 2125 0
359 2125 0
360 2125 0
1305 2125 0
1306 2125 0
1307 2125 0
1308 2125 0
337 2126 0
338 2126 0
339 2126 0
340 2126 0
341 2126 0
342 2126 0
343 2126 0
344 2126 0
345 2126 0
346 2126 0
347 2126 0
348 2126 0
349 2126 0
350 2126 0.99509004789631994
351 2126 0
352 2126 0
353 2126 0
354 2126 0
355 2126 0
356 2126 0
357 2126 0
358 2126 0
359 2126 0
360 2126 0
1305 2126 0
1306 2126 0
1307 2126 0
1308 2126 0
337 2127 0
338 2127 0
339 2127 0
340 2127 0
341 2127 0
342 2127 0
343 2127 0
344 2127 0
345 2127 0
346 2127 0
347 2127 0
348 2127 0
349 2127 0
350 2127 0
351 2127 0.99509004789631994
352 2127 0
353 2127 0
354 2127 0
355 2127 0
356 2127 0
357 2127 0
358 2127 0
359 2127 0
360 2127 0
1305 2127 0
1306 2127 0
1307 2127 0
1308 2127 0
337 2128 0
338 2128 0
339 2128 0
340 2128 0
341 2128 0
342 2128 0
343 2128 0
344 2128 0
345 2128 0
346 2128 0
347 2128 0
348 2128 0
349 2128 0
350 2128 0
351 2128 0
352 2128 0.99509004789631994
353 2128 0
354 2128 0
355 2128 0
356 2128 0
357 2128 0
358 2128 0
359 2128 0
360 2128 0
1305 2128 0
1306 2128 0
1307 2128 0
1308 2128 0
337 2129 0
338 2129 0
339 2129 0
340 2129 0
341 2129 0
342 2129 0
343 2129 0
344 2129 0
345 2129 0
346 2129 0
347 2129 0
348 2129 0
349 2129 0
350 2129 0
351 2129 0
352 2129 0
353 2129 0.99509004789631994
354 2129 0
355 2129 0
356 2129 0
357 2129 0
358 2129 0
359 2129 0
360 2129 0
1305 2129 0
1306 2129 0
1307 2129 0
1308 2129 0
337 2130 0
338 2130 0
339 2130 0
340 2130 0
341 2130 0
342 2130 0
343 2130 0
344 2130 0
345 2130 0
346 2130 0
347 2130 0
348 2130 0
349 2130 0
350 2130 0
351 2130 0
352 2130 0
353 2130 0
354 2130 0.99509004789631994
355 2130 0
356 2130 0
357 2130 0
358 2130 0
359 2130 0
360 2130 0
1305 2130 0
1306 2130 0
1307 2130 0
1308 2130 0
337 2131 0
338 2131 0
339 2131 0
340 2131 0
341 2131 0
342 2131 0
343 2131 0
344 2131 0
345 2131 0
346 2131 0
347 2131 0
348 2131 0
349 2131 0
350 2131 0
351 2131 0
352 2131 0
353 2131 0
354 2131 0
355 2131 0.99509004789631994
356 2131 0
357 2131 0
358 2131 0
359 2131 0
360 2131 0
1305 2131 0
1306 2131 0
1307 2131 0
1308 2131 0
337 2132 0
338 2132 0
339 2132 0
340 2132 0
341 2132 0
342 2132 0
343 2132 0
344 2132 0
345 2132 0
346 2132 0
347 2132 0
348 2132 0
349 2132 0
350 2132 0
351 2132 0
352 2132 0
353 2132 0
354 2132 0
355 2132 0
356 2132 0.99509004789631994
357 2132 0
358 2132 0
359 2132 0
360 2132 0
1305 2132 0
1306 2132 0
1307 2132 0
1308 2132 0
337 2133 0
338 2133 0
339 2133 0
340 2133 0
341 2133 0
342 2133 0
343 2133 0
344 2133 0
345 2133 0
346 2133 0
347 2133 0
348 2133 0
349 2133 0
350 2133 0
351 2133 0
352 2133 0
353 2133 0
354 2133 0
355 2133 0
356 2133 0
357 2133 0.99509004789631994
358 2133 0
359 2133 0
360 2133 0
1305 2133 0
1306 2133 0
1307 2133 0
1308 2133 0
337 2134 0
338 2134 0
339 2134 0
340 2134 0
341 2134 0
342 2134 0
343 2134 0
344 2134 0
345 2134 0
346 2134 0
347 2134 0
348 2134 0
349 2134 0
350 2134 0
351 2134 0
352 2134 0
353 2134 0
354 2134 0
355 2134 0
356 2134 0
357 2134 0
358 2134 0.99509004789631994
359 2134 0
360 2134 0
1305 2134 0
1306 2134 0
1307 2134 0
1308 2134 0
337 2135 0
338 2135 0
339 2135 0
340 2135 0
341 2135 0
342 2135 0
343 2135 0
344 2135 0
345 2135 0
346 2135 0
347 2135 0
348 2135 0
349 2135 0
350 2135 0
351 2135 0
352 2135 0
353 2135 0
354 2135 0
355 2135 0
356 2135 0
357 2135 0
358 2135 0
359 2135 0.99509004789631994
360 2135 0
1305 2135 0
1306 2135 0
1307 2135 0
1308 2135 0
337 2136 0
338 2136 0
339 2136 0
340 2136 0
341 2136 0
342 2136 0
343 2136 0
344 2136 0
345 2136 0
346 2136 0
347 2136 0
348 2136 0
349 2136 0
350 2136 0
351 2136 0
352 2136 0
353 2136 0
354 2136 0
355 2136 0
356 2136 0
357 2136 0
358 2136 0
359 2136 0
360 2136 0.99509004789631994
1305 2136 0
1306 2136 0
1307 2136 0
1308 2136 0
1301 2137 0
1302 2137 0
1303 2137 0
1304 2137 0
1621 2137 0
1301 2138 0.99878751991636638
1302 2138 0
1303 2138 0
1304 2138 0
1621 2138 0
1301 2139 0
1302 2139 0.99886974093913028
1303 2139 0
1304 2139 0
1621 2139 0
1301 2140 0
1302 2140 0
1303 2140 0.99859691322799182
1304 2140 0
1621 2140 0
1301 2141 0
1302 2141 0
1303 2141 0
1304 2141 0.99879118685427859
1621 2141 0
1301 2142 0
1302 2142 0
1303 2142 0
1304 2142 0
1621 2142 1
325 2143 -0.99509004789631994
326 2143 -0
327 2143 -0
328 2143 -0
329 2143 -0
330 2143 -0
331 2143 -0
332 2143 -0
333 2143 -0
334 2143 -0
335 2143 -0
336 2143 -0
337 2143 0
338 2143 0
339 2143 0
340 2143 0
341 2143 0
342 2143 0
343 2143 0
344 2143 0
345 2143 0
346 2143 0
347 2143 0
348 2143 0
1301 2143 -0.1803189598547551
1302 2143 -0.25584631152049064
1303 2143 -0.074765084896359371
1304 2143 -0.06244980534901011
325 2144 -0
326 2144 -0.99509004789631994
327 2144 -0
328 2144 -0
329 2144 -0
330 2144 -0
331 2144 -0
332 2144 -0
333 2144 -0
334 2144 -0
335 2144 -0
336 2144 -0
337 2144 0
338 2144 0
339 2144 0
340 2144 0
341 2144 0
342 2144 0
343 2144 0
344 2144 0
345 2144 0
346 2144 0
347 2144 0
348 2144 0
1301 2144 0.10820261428783474
1302 2144 0.080196783561304039
1303 2144 -0.016866001348705428
1304 2144 -0.17094248486675911
325 2145 -0
326 2145 -0
327 2145 -0.99509004789631994
328 2145 -0
329 2145 -0
330 2145 -0
331 2145 -0
332 2145 -0
333 2145 -0
334 2145 -0
335 2145 -0
336 2145 -0
337 2145 0
338 2145 0
339 2145 0
340 2145 0
341 2145 0
342 2145 0
343 2145 0
344 2145 0
345 2145 0
346 2145 0
347 2145 0
348 2145 0
1301 2145 0.021296203412182201
1302 2145 0.06379387941368389
1303 2145 0.33227429440027084
1304 2145 0.038055274961526345
325 2146 -0
326 2146 -0
327 2146 -0
328 2146 -0.99509004789631994
329 2146 -0
330 2146 -0
331 2146 -0
332 2146 -0
333 2146 -0
334 2146 -0
335 2146 -0
336 2146 -0
337 2146 0
338 2146 0
339 2146 0
340 2146 0
341 2146 0
342 2146 0
343 2146 0
344 2146 0
345 2146 0
346 2146 0
347 2146 0
348 2146 0
1301 2146 0.19846746771042395
1302 2146 0.13291349456905685
1303 2146 -0.11659569025066187
1304 2146 0.1709989853023412
325 2147 -0
326 2147 -0
327 2147 -0
328 2147 -0
329 2147 -0.99509004789631994
330 2147 -0
331 2147 -0
332 2147 -0
333 2147 -0
334 2147 -0
335 2147 -0
336 2147 -0
337 2147 0
338 2147 0
339 2147 0
340 2147 0
341 2147 0
342 2147 0
343 2147 0
344 2147 0
345 2147 0
346 2147 0
347 2147 0
348 2147 0
1301 2147 0.06406726430169403
1302 2147 0.0077975121873435499
1303 2147 -0.012888481757033089
1304 2147 0.1821584263174176
325 2148 -0
326 2148 -0
327 2148 -0
328 2148 -0
329 2148 -0
330 2148 -0.99509004789631994
331 2148 -0
332 2148 -0
333 2148 -0
334 2148 -0
335 2148 -0
336 2148 -0
337 2148 0
338 2148 0
339 2148 0
340 2148 0
341 2148 0
342 2148 0
343 2148 0
344 2148 0
345 2148 0
346 2148 0
347 2148 0
348 2148 0
1301 2148 0.14930176975937659
1302 2148 -0.1220518999462523
1303 2148 -0.21437482240798272
1304 2148 -0.27728111366749703
325 2149 -0
326 2149 -0
327 2149 -0
328 2149 -0
329 2149 -0
330 2149 -0
331 2149 -0.99509004789631994
332 2149 -0
333 2149 -0
334 2149 -0
335 2149 -0
336 2149 -0
337 2149 0
338 2149 0
339 2149 0
340 2149 0
341 2149 0
342 2149 0
343 2149 0
344 2149 0
345 2149 0
346 2149 0
347 2149 0
348 2149 0
1301 2149 -0.27832449100114248
1302 2149 -0.023030066571549251
1303 2149 0.085999904285044407
1304 2149 0.14042558666593874
325 2150 -0
326 2150 -0
327 2150 -0
328 2150 -0
329 2150 -0
330 2150 -0
331 2150 -0
332 2150 -0.99509004789631994
333 2150 -0
334 2150 -0
335 2150 -0
336 2150 -0
337 2150 0
338 2150 0
339 2150 0
340 2150 0
341 2150 0
342 2150 0
343 2150 0
344 2150 0
345 2150 0
346 2150 0
347 2150 0
348 2150 0
1301 2150 0.14426661227624929
1302 2150 0.019112219351713613
1303 2150 -0.3383340256558125
1304 2150 -0.26332006554483989
325 2151 -0
326 2151 -0
327 2151 -0
328 2151 -0
329 2151 -0
330 2151 -0
331 2151 -0
332 2151 -0
333 2151 -0.99509004789631994
334 2151 -0
335 2151 -0
336 2151 -0
337 2151 0
338 2151 0
339 2151 0
340 2151 0
341 2151 0
342 2151 0
343 2151 0
344 2151 0
345 2151 0
346 2151 0
347 2151 0
348 2151 0
1301 2151 -0.11462509557936003
1302 2151 -0.065598224589830417
1303 2151 0.12045547271290091
1304 2151 0.066735657880519217
325 2152 -0
326 2152 -0
327 2152 -0
328 2152 -0
329 2152 -0
330 2152 -0
331 2152 -0
332 2152 -0
333 2152 -0
334 2152 -0.99509004789631994
335 2152 -0
336 2152 -0
337 2152 0
338 2152 0
339 2152 0
340 2152 0
341 2152 0
342 2152 0
343 2152 0
344 2152 0
345 2152 0
346 2152 0
347 2152 0
348 2152 0
1301 2152 0.1112726701807888
1302 2152 -0.18163442438886057
1303 2152 -0.24934842404473068
1304 2152 0.087619788974651794
325 2153 -0
326 2153 -0
327 2153 -0
328 2153 -0
329 2153 -0
330 2153 -0
331 2153 -0
332 2153 -0
333 2153 -0
334 2153 -0
335 2153 -0.99509004789631994
336 2153 -0
337 2153 0
338 2153 0
339 2153 0
340 2153 0
341 2153 0
342 2153 0
343 2153 0
344 2153 0
345 2153 0
346 2153 0
347 2153 0
348 2153 0
1301 2153 0.0048220099123521959
1302 2153 -0.09230703811323461
1303 2153 -0.22028815111069383
1304 2153 -0.062540089363958593
325 2154 -0
326 2154 -0
327 2154 -0
328 2154 -0
329 2154 -0
330 2154 -0
331 2154 -0
332 2154 -0
333 2154 -0
334 2154 -0
335 2154 -0
336 2154 -0.99509004789631994
337 2154 0
338 2154 0
339 2154 0
340 2154 0
341 2154 0
342 2154 0
343 2154 0
344 2154 0
345 2154 0
346 2154 0
347 2154 0
348 2154 0
1301 2154 0.22589481330245723
1302 2154 0.085512196920050021
1303 2154 -0.209328877595194
1304 2154 0.014853171089538656
325 2155 0
326 2155 0
327 2155 0
328 2155 0
329 2155 0
330 2155 0
331 2155 0
332 2155 0
333 2155 0
334 2155 0
335 2155 0
336 2155 0
337 2155 0.99509004789631994
338 2155 0
339 2155 0
340 2155 0
341 2155 0
342 2155 0
343 2155 0
344 2155 0
345 2155 0
346 2155 0
347 2155 0
348 2155 0
1301 2155 0
1302 2155 0
1303 2155 0
1304 2155 0
325 2156 0
326 2156 0
327 2156 0
328 2156 0
329 2156 0
330 2156 0
331 2156 0
332 2156 0
333 2156 0
334 2156 0
335 2156 0
336 2156 0
337 2156 0
338 2156 0.99509004789631994
339 2156 0
340 2156 0
341 2156 0
342 2156 0
343 2156 0
344 2156 0
345 2156 0
346 2156 0
347 2156 0
348 2156 0
1301 2156 0
1302 2156 0
1303 2156 0
1304 2156 0
325 2157 0
326 2157 0
327 2157 0
328 2157 0
329 2157 0
330 2157 0
331 2157 0
332 2157 0
333 2157 0
334 2157 0
335 2157 0
336 2157 0
337 2157 0
338 2157 0
339 2157 0.99509004789631994
340 2157 0
341 2157 0
342 2157 0
343 2157 0
344 2157 0
345 2157 0
346 2157 0
347 2157 0
348 2157 0
1301 2157 0
1302 2157 0
1303 2157 0
1304 2157 0
325 2158 0
326 2158 0
327 2158 0
328 2158 0
329 2158 0
330 2158 0
331 2158 0
332 2158 0
333 2158 0
334 2158 0
335 2158 0
336 2158 0
337 2158 0
338 2158 0
339 2158 0
340 2158 0.99509004789631994
341 2158 0
342 2158 0
343 2158 0
344 2158 0
345 2158 0
346 2158 0
347 2158 0
348 2158 0
1301 2158 0
1302 2158 0
1303 2158 0
1304 2158 0
325 2159 0
326 2159 0
327 2159 0
328 2159 0
329 2159 0
330 2159 0
331 2159 0
332 2159 0
333 2159 0
334 2159 0
335 2159 0
336 2159 0
337 2159 0
338 2159 0
339 2159 0
340 2159 0
341 2159 0.99509004789631994
342 2159 0
343 2159 0
344 2159 0
345 2159 0
346 2159 0
347 2159 0
348 2159 0
1301 2159 0
1302 2159 0
1303 2159 0
1304 2159 0
325 2160 0
326 2160 0
327 2160 0
328 2160 0
329 2160 0
330 2160 0
331 2160 0
332 2160 0
333 2160 0
334 2160 0
335 2160 0
336 2160 0
337 2160 0
338 2160 0
339 2160 0
340 2160 0
341 2160 0
342 2160 0.99509004789631994
343 2160 0
344 2160 0
345 2160 0
346 2160 0
347 2160 0
348 2160 0
1301 2160 0
1302 2160 0
1303 2160 0
1304 2160 0
325 2161 0
326 2161 0
327 2161 0
328 2161 0
329 2161 0
330 2161 0
331 2161 0
332 2161 0
333 2161 0
334 2161 0
335 2161 0
336 2161 0
337 2161 0
338 2161 0
339 2161 0
340 2161 0
341 2161 0
342 2161 0
343 2161 0.99509004789631994
344 2161 0
345 2161 0
346 2161 0
347 2161 0
348 2161 0
1301 2161 0
1302 2161 0
1303 2161 0
1304 2161 0
325 2162 0
326 2162 0
327 2162 0
328 2162 0
329 2162 0
330 2162 0
331 2162 0
332 2162 0
333 2162 0
334 2162 0
335 2162 0
336 2162 0
337 2162 0
338 2162 0
339 2162 0
340 2162 0
341 2162 0
342 2162 0
343 2162 0
344 2162 0.99509004789631994
345 2162 0
346 2162 0
347 2162 0
348 2162 0
1301 2162 0
1302 2162 0
1303 2162 0
1304 2162 0
325 2163 0
326 2163 0
327 2163 0
328 2163 0
329 2163 0
330 2163 0
331 2163 0
332 2163 0
333 2163 0
334 2163 0
335 2163 0
336 2163 0
337 2163 0
338 2163 0
339 2163 0
340 2163 0
341 2163 0
342 2163 0
343 2163 0
344 2163 0
345 2163 0.99509004789631994
346 2163 0
347 2163 0
348 2163 0
1301 2163 0
1302 2163 0
1303 2163 0
1304 2163 0
325 2164 0
326 2164 0
327 2164 0
328 2164 0
329 2164 0
330 2164 0
331 2164 0
332 2164 0
333 2164 0
334 2164 0
335 2164 0
336 2164 0
337 2164 0
338 2164 0
339 2164 0
340 2164 0
341 2164 0
342 2164 0
343 2164 0
344 2164 0
345 2164 0
346 2164 0.99509004789631994
347 2164 0
348 2164 0
1301 2164 0
1302 2164 0
1303 2164 0
1304 2164 0
325 2165 0
326 2165 0
327 2165 0
328 2165 0
329 2165 0
330 2165 0
331 2165 0
332 2165 0
333 2165 0
334 2165 0
335 2165 0
336 2165 0
337 2165 0
338 2165 0
339 2165 0
340 2165 0
341 2165 0
342 2165 0
343 2165 0
344 2165 0
345 2165 0
346 2165 0
347 2165 0.99509004789631994
348 2165 0
1301 2165 0
1302 2165 0
1303 2165 0
1304 2165 0
325 2166 0
326 2166 0
327 2166 0
328 2166 0
329 2166 0
330 2166 0
331 2166 0
332 2166 0
333 2166 0
334 2166 0
335 2166 0
336 2166 0
337 2166 0
338 2166 0
339 2166 0
340 2166 0
341 2166 0
342 2166 0
343 2166 0
344 2166 0
345 2166 0
346 2166 0
347 2166 0
348 2166 0.99509004789631994
1301 2166 0
1302 2166 0
1303 2166 0
1304 2166 0
1297 2167 0
1298 2167 0
1299 2167 0
1300 2167 0
1620 2167 0
1297 2168 0.99878751991636638
1298 2168 0
1299 2168 0
1300 2168 0
1620 2168 0
1297 2169 0
1298 2169 0.99886974093913028
1299 2169 0
1300 2169 0
1620 2169 0
1297 2170 0
1298 2170 0
1299 2170 0.99859691322799182
1300 2170 0
1620 2170 0
1297 2171 0
1298 2171 0
1299 2171 0
1300 2171 0.99879118685427859
1620 2171 0
1297 2172 0
1298 2172 0
1299 2172 0
1300 2172 0
1620 2172 1
313 2173 -0.99509004789631994
314 2173 -0
315 2173 -0
316 2173 -0
317 2173 -0
318 2173 -0
319 2173 -0
320 2173 -0
321 2173 -0
322 2173 -0
323 2173 -0
324 2173 -0
325 2173 0
326 2173 0
327 2173 0
328 2173 0
329 2173 0
330 2173 0
331 2173 0
332 2173 0
333 2173 0
334 2173 0
335 2173 0
336 2173 0
1297 2173 -0.1803189598547551
1298 2173 -0.25584631152049064
1299 2173 -0.074765084896359371
1300 2173 -0.06244980534901011
313 2174 -0
314 2174 -0.99509004789631994
315 2174 -0
316 2174 -0
317 2174 -0
318 2174 -0
319 2174 -0
320 2174 -0
321 2174 -0
322 2174 -0
323 2174 -0
324 2174 -0
325 2174 0
326 2174 0
327 2174 0
328 2174 0
329 2174 0
330 2174 0
331 2174 0
332 2174 0
333 2174 0
334 2174 0
335 2174 0
336 2174 0
1297 2174 0.10820261428783474
1298 2174 0.080196783561304039
1299 2174 -0.016866001348705428
1300 2174 -0.17094248486675911
313 2175 -0
314 2175 -0
315 2175 -0.99509004789631994
316 2175 -0
317 2175 -0
318 2175 -0
319 2175 -0
320 2175 -0
321 2175 -0
322 2175 -0
323 2175 -0
324 2175 -0
325 2175 0
326 2175 0
327 2175 0
328 2175 0
329 2175 0
330 2175 0
331 2175 0
332 2175 0
333 2175 0
334 2175 0
335 2175 0
336 2175 0
1297 2175 0.021296203412182201
1298 2175 0.06379387941368389
1299 2175 0.33227429440027084
1300 2175 0.038055274961526345
313 2176 -0
314 2176 -0
315 2176 -0
316 2176 -0.99509004789631994
317 2176 -0
318 2176 -0
319 2176 -0
320 2176 -0
321 2176 -0
322 2176 -0
323 2176 -0
324 2176 -0
325 2176 0
326 2176 0
327 2176 0
328 2176 0
329 2176 0
330 2176 0
331 2176 0
332 2176 0
333 2176 0
334 2176 0
335 2176 0
336 2176 0
1297 2176 0.19846746771042395
1298 2176 0.13291349456905685
1299 2176 -0.11659569025066187
1300 2176 0.1709989853023412
313 2177 -0
314 2177 -0
315 2177 -0
316 2177 -0
317 2177 -0.99509004789631994
318 2177 -0
319 2177 -0
320 2177 -0
321 2177 -0
322 2177 -0
323 2177 -0
324 2177 -0
325 2177 0
326 2177 0
327 2177 0
328 2177 0
329 2177 0
330 2177 0
331 2177 0
332 2177 0
333 2177 0
334 2177 0
335 2177 0
336 2177 0
1297 2177 0.06406726430169403
1298 2177 0.0077975121873435499
1299 2177 -0.012888481757033089
1300 2177 0.1821584263174176
313 2178 -0
314 2178 -0
315 2178 -0
316 2178 -0
317 2178 -0
318 2178 -0.99509004789631994
319 2178 -0
320 2178 -0
321 2178 -0
322 2178 -0
323 2178 -0
324 2178 -0
325 2178 0
326 2178 0
327 2178 0
328 2178 0
329 2178 0
330 2178 0
331 2178 0
332 2178 0
333 2178 0
334 2178 0
335 2178 0
336 2178 0
1297 2178 0.14930176975937659
1298 2178 -0.1220518999462523
1299 2178 -0.21437482240798272
1300 2178 -0.27728111366749703
313 2179 -0
314 2179 -0
315 2179 -0
316 2179 -0
317 2179 -0
318 2179 -0
319 2179 -0.99509004789631994
320 2179 -0
321 2179 -0
322 2179 -0
323 2179 -0
324 2179 -0
325 2179 0
326 2179 0
327 2179 0
328 2179 0
329 2179 0
330 2179 0
331 2179 0
332 2179 0
333 2179 0
334 2179 0
335 2179 0
336 2179 0
1297 2179 -0.27832449100114248
1298 2179 -0.023030066571549251
1299 2179 0.085999904285044407
1300 2179 0.14042558666593874
313 2180 -0
314 2180 -0
315 2180 -0
316 2180 -0
317 2180 -0
318 2180 -0
319 2180 -0
320 2180 -0.99509004789631994
321 2180 -0
322 2180 -0
323 2180 -0
324 2180 -0
325 2180 0
326 2180 0
327 2180 0
328 2180 0
329 2180 0
330 2180 0
331 2180 0
332 2180 0
333 2180 0
334 2180 0
335 2180 0
336 2180 0
1297 2180 0.14426661227624929
1298 2180 0.019112219351713613
1299 2180 -0.3383340256558125
1300 2180 -0.26332006554483989
313 2181 -0
314 2181 -0
315 2181 -0
316 2181 -0
317 2181 -0
318 2181 -0
319 2181 -0
320 2181 -0
321 2181 -0.99509004789631994
322 2181 -0
323 2181 -0
324 2181 -0
325 2181 0
326 2181 0
327 2181 0
328 2181 0
329 2181 0
330 2181 0
331 2181 0
332 2181 0
333 2181 0
334 2181 0
335 2181 0
336 2181 0
1297 2181 -0.11462509557936003
1298 2181 -0.065598224589830417
1299 2181 0.12045547271290091
1300 2181 0.066735657880519217
313 2182 -0
314 2182 -0
315 2182 -0
316 2182 -0
317 2182 -0
318 2182 -0
319 2182 -0
320 2182 -0
321 2182 -0
322 2182 -0.99509004789631994
323 2182 -0
324 2182 -0
325 2182 0
326 2182 0
327 2182 0
328 2182 0
329 2182 0
330 2182 0
331 2182 0
332 2182 0
333 2182 0
334 2182 0
335 2182 0
336 2182 0
1297 2182 0.1112726701807888
1298 2182 -0.18163442438886057
1299 2182 -0.24934842404473068
1300 2182 0.087619788974651794
313 2183 -0
314 2183 -0
315 2183 -0
316 2183 -0
317 2183 -0
318 2183 -0
319 2183 -0
320 2183 -0
321 2183 -0
322 2183 -0
323 2183 -0.99509004789631994
324 2183 -0
325 2183 0
326 2183 0
327 2183 0
328 2183 0
329 2183 0
330 2183 0
331 2183 0
332 2183 0
333 2183 0
334 2183 0
335 2183 0
336 2183 0
1297 2183 0.0048220099123521959
1298 2183 -0.09230703811323461
1299 2183 -0.22028815111069383
1300 2183 -0.062540089363958593
313 2184 -0
314 2184 -0
315 2184 -0
316 2184 -0
317 2184 -0
318 2184 -0
319 2184 -0
320 2184 -0
321 2184 -0
322 2184 -0
323 2184 -0
324 2184 -0.99509004789631994
325 2184 0
326 2184 0
327 2184 0
328 2184 0
329 2184 0
330 2184 0
331 2184 0
332 2184 0
333 2184 0
334 2184 0
335 2184 0
336 2184 0
1297 2184 0.22589481330245723
1298 2184 0.085512196920050021
1299 2184 -0.209328877595194
1300 2184 0.014853171089538656
313 2185 0
314 2185 0
315 2185 0
316 2185 0
317 2185 0
318 2185 0
319 2185 0
320 2185 0
321 2185 0
322 2185 0
323 2185 0
324 2185 0
325 2185 0.99509004789631994
326 2185 0
327 2185 0
328 2185 0
329 2185 0
330 2185 0
331 2185 0
332 2185 0
333 2185 0
334 2185 0
335 2185 0
336 2185 0
1297 2185 0
1298 2185 0
1299 2185 0
1300 2185 0
313 2186 0
314 2186 0
315 2186 0
316 2186 0
317 2186 0
318 2186 0
319 2186 0
320 2186 0
321 2186 0
322 2186 0
323 2186 0
324 2186 0
325 2186 0
326 2186 0.99509004789631994
327 2186 0
328 2186 0
329 2186 0
330 2186 0
331 2186 0
332 2186 0
333 2186 0
334 2186 0
335 2186 0
336 2186 0
1297 2186 0
1298 2186 0
1299 2186 0
1300 2186 0
313 2187 0
314 2187 0
315 2187 0
316 2187 0
317 2187 0
318 2187 0
319 2187 0
320 2187 0
321 2187 0
322 2187 0
323 2187 0
324 2187 0
325 2187 0
326 2187 0
327 2187 0.99509004789631994
328 2187 0
329 2187 0
330 2187 0
331 2187 0
332 2187 0
333 2187 0
334 2187 0
335 2187 0
336 2187 0
1297 2187 0
1298 2187 0
1299 2187 0
1300 2187 0
313 2188 0
314 2188 0
315 2188 0
316 2188 0
317 2188 0
318 2188 0
319 2188 0
320 2188 0
321 2188 0
322 2188 0
323 2188 0
324 2188 0
325 2188 0
326 2188 0
327 2188 0
328 2188 0.99509004789631994
329 2188 0
330 2188 0
331 2188 0
332 2188 0
333 2188 0
334 2188 0
335 2188 0
336 2188 0
1297 2188 0
1298 2188 0
1299 2188 0
1300 2188 0
313 2189 0
314 2189 0
315 2189 0
316 2189 0
317 2189 0
318 2189 0
319 2189 0
320 2189 0
321 2189 0
322 2189 0
323 2189 0
324 2189 0
325 2189 0
326 2189 0
327 2189 0
328 2189 0
329 2189 0.99509004789631994
330 2189 0
331 2189 0
332 2189 0
333 2189 0
334 2189 0
335 2189 0
336 2189 0
1297 2189 0
1298 2189 0
1299 2189 0
1300 2189 0
313 2190 0
314 2190 0
315 2190 0
316 2190 0
317 2190 0
318 2190 0
319 2190 0
320 2190 0
321 2190 0
322 2190 0
323 2190 0
324 2190 0
325 2190 0
326 2190 0
327 2190 0
328 2190 0
329 2190 0
330 2190 0.99509004789631994
331 2190 0
332 2190 0
333 2190 0
334 2190 0
335 2190 0
336 2190 0
1297 2190 0
1298 2190 0
1299 2190 0
1300 2190 0
313 2191 0
314 2191 0
315 2191 0
316 2191 0
317 2191 0
318 2191 0
319 2191 0
320 2191 0
321 2191 0
322 2191 0
323 2191 0
324 2191 0
325 2191 0
326 2191 0
327 2191 0
328 2191 0
329 2191 0
330 2191 0
331 2191 0.99509004789631994
332 2191 0
333 2191 0
334 2191 0
335 2191 0
336 2191 0
1297 2191 0
1298 2191 0
1299 2191 0
1300 2191 0
313 2192 0
314 2192 0
315 2192 0
316 2192 0
317 2192 0
318 2192 0
319 2192 0
320 2192 0
321 2192 0
322 2192 0
323 2192 0
324 2192 0
325 2192 0
326 2192 0
327 2192 0
328 2192 0
329 2192 0
330 2192 0
331 2192 0
332 2192 0.99509004789631994
333 2192 0
334 2192 0
335 2192 0
336 2192 0
1297 2192 0
1298 2192 0
1299 2192 0
1300 2192 0
313 2193 0
314 2193 0
315 2193 0
316 2193 0
317 2193 0
318 2193 0
319 2193 0
320 2193 0
321 2193 0
322 2193 0
323 2193 0
324 2193 0
325 2193 0
326 2193 0
327 2193 0
328 2193 0
329 2193 0
330 2193 0
331 2193 0
332 2193 0
333 2193 0.99509004789631994
334 2193 0
335 2193 0
336 2193 0
1297 2193 0
1298 2193 0
1299 2193 0
1300 2193 0
313 2194 0
314 2194 0
315 2194 0
316 2194 0
317 2194 0
318 2194 0
319 2194 0
320 2194 0
321 2194 0
322 2194 0
323 2194 0
324 2194 0
325 2194 0
326 2194 0
327 2194 0
328 2194 0
329 2194 0
330 2194 0
331 2194 0
332 2194 0
333 2194 0
334 2194 0.99509004789631994
335 2194 0
336 2194 0
1297 2194 0
1298 2194 0
1299 2194 0
1300 2194 0
313 2195 0
314 2195 0
315 2195 0
316 2195 0
317 2195 0
318 2195 0
319 2195 0
320 2195 0
321 2195 0
322 2195 0
323 2195 0
324 2195 0
325 2195 0
326 2195 0
327 2195 0
328 2195 0
329 2195 0
330 2195 0
331 2195 0
332 2195 0
333 2195 0
334 2195 0
335 2195 0.99509004789631994
336 2195 0
1297 2195 0
1298 2195 0
1299 2195 0
1300 2195 0
313 2196 0
314 2196 0
315 2196 0
316 2196 0
317 2196 0
318 2196 0
319 2196 0
320 2196 0
321 2196 0
322 2196 0
323 2196 0
324 2196 0
325 2196 0
326 2196 0
327 2196 0
328 2196 0
329 2196 0
330 2196 0
331 2196 0
332 2196 0
333 2196 0
334 2196 0
335 2196 0
336 2196 0.99509004789631994
1297 2196 0
1298 2196 0
1299 2196 0
1300 2196 0
1293 2197 0
1294 2197 0
1295 2197 0
1296 2197 0
1619 2197 0
1293 2198 0.99878751991636638
1294 2198 0
1295 2198 0
1296 2198 0
1619 2198 0
1293 2199 0
1294 2199 0.99886974093913028
1295 2199 0
1296 2199 0
1619 2199 0
1293 2200 0
1294 2200 0
1295 2200 0.99859691322799182
1296 2200 0
1619 2200 0
1293 2201 0
1294 2201 0
1295 2201 0
1296 2201 0.99879118685427859
1619 2201 0
1293 2202 0
1294 2202 0
1295 2202 0
1296 2202 0
1619 2202 1
301 2203 -0.99509004789631994
302 2203 -0
303 2203 -0
304 2203 -0
305 2203 -0
306 2203 -0
307 2203 -0
308 2203 -0
309 2203 -0
310 2203 -0
311 2203 -0
312 2203 -0
313 2203 0
314 2203 0
315 2203 0
316 2203 0
317 2203 0
318 2203 0
319 2203 0
320 2203 0
321 2203 0
322 2203 0
323 2203 0
324 2203 0
1293 2203 -0.1803189598547551
1294 2203 -0.25584631152049064
1295 2203 -0.074765084896359371
1296 2203 -0.06244980534901011
301 2204 -0
302 2204 -0.99509004789631994
303 2204 -0
304 2204 -0
305 2204 -0
306 2204 -0
307 2204 -0
308 2204 -0
309 2204 -0
310 2204 -0
311 2204 -0
312 2204 -0
313 2204 0
314 2204 0
315 2204 0
316 2204 0
317 2204 0
318 2204 0
319 2204 0
320 2204 0
321 2204 0
322 2204 0
323 2204 0
324 2204 0
1293 2204 0.10820261428783474
1294 2204 0.080196783561304039
1295 2204 -0.016866001348705428
1296 2204 -0.17094248486675911
301 2205 -0
302 2205 -0
303 2205 -0.99509004789631994
304 2205 -0
305 2205 -0
306 2205 -0
307 2205 -0
308 2205 -0
309 2205 -0
310 2205 -0
311 2205 -0
312 2205 -0
313 2205 0
314 2205 0
315 2205 0
316 2205 0
317 2205 0
318 2205 0
319 2205 0
320 2205 0
321 2205 0
322 2205 0
323 2205 0
324 2205 0
1293 2205 0.021296203412182201
1294 2205 0.06379387941368389
1295 2205 0.33227429440027084
1296 2205 0.038055274961526345
301 2206 -0
302 2206 -0
303 2206 -0
304 2206 -0.99509004789631994
305 2206 -0
306 2206 -0
307 2206 -0
308 2206 -0
309 2206 -0
310 2206 -0
311 2206 -0
312 2206 -0
313 2206 0
314 2206 0
315 2206 0
316 2206 0
317 2206 0
318 2206 0
319 2206 0
320 2206 0
321 2206 0
322 2206 0
323 2206 0
324 2206 0
1293 2206 0.19846746771042395
1294 2206 0.13291349456905685
1295 2206 -0.11659569025066187
1296 2206 0.1709989853023412
301 2207 -0
302 2207 -0
303 2207 -0
304 2207 -0
305 2207 -0.99509004789631994
306 2207 -0
307 2207 -0
308 2207 -0
309 2207 -0
310 2207 -0
311 2207 -0
312 2207 -0
313 2207 0
314 2207 0
315 2207 0
316 2207 0
317 2207 0
318 2207 0
319 2207 0
320 2207 0
321 2207 0
322 2207 0
323 2207 0
324 2207 0
1293 2207 0.06406726430169403
1294 2207 0.0077975121873435499
1295 2207 -0.012888481757033089
1296 2207 0.1821584263174176
301 2208 -0
302 2208 -0
303 2208 -0
304 2208 -0
305 2208 -0
306 2208 -0.99509004789631994
307 2208 -0
308 2208 -0
309 2208 -0
310 2208 -0
311 2208 -0
312 2208 -0
313 2208 0
314 2208 0
315 2208 0
316 2208 0
317 2208 0
318 2208 0
319 2208 0
320 2208 0
321 2208 0
322 2208 0
323 2208 0
324 2208 0
1293 2208 0.14930176975937659
1294 2208 -0.1220518999462523
1295 2208 -0.21437482240798272
1296 2208 -0.27728111366749703
301 2209 -0
302 2209 -0
303 2209 -0
304 2209 -0
305 2209 -0
306 2209 -0
307 2209 -0.99509004789631994
308 2209 -0
309 2209 -0
310 2209 -0
311 2209 -0
312 2209 -0
313 2209 0
314 2209 0
315 2209 0
316 2209 0
317 2209 0
318 2209 0
319 2209 0
320 2209 0
321 2209 0
322 2209 0
323 2209 0
324 2209 0
1293 2209 -0.27832449100114248
1294 2209 -0.023030066571549251
1295 2209 0.085999904285044407
1296 2209 0.14042558666593874
301 2210 -0
302 2210 -0
303 2210 -0
304 2210 -0
305 2210 -0
306 2210 -0
307 2210 -0
308 2210 -0.99509004789631994
309 2210 -0
310 2210 -0
311 2210 -0
312 2210 -0
313 2210 0
314 2210 0
315 2210 0
316 2210 0
317 2210 0
318 2210 0
319 2210 0
320 2210 0
321 2210 0
322 2210 0
323 2210 0
324 2210 0
1293 2210 0.14426661227624929
1294 2210 0.019112219351713613
1295 2210 -0.3383340256558125
1296 2210 -0.26332006554483989
301 2211 -0
302 2211 -0
303 2211 -0
304 2211 -0
305 2211 -0
306 2211 -0
307 2211 -0
308 2211 -0
309 2211 -0.99509004789631994
310 2211 -0
311 2211 -0
312 2211 -0
313 2211 0
314 2211 0
315 2211 0
316 2211 0
317 2211 0
318 2211 0
319 2211 0
320 2211 0
321 2211 0
322 2211 0
323 2211 0
324 2211 0
1293 2211 -0.11462509557936003
1294 2211 -0.065598224589830417
1295 2211 0.12045547271290091
1296 2211 0.066735657880519217
301 2212 -0
302 2212 -0
303 2212 -0
304 2212 -0
305 2212 -0
306 2212 -0
307 2212 -0
308 2212 -0
309 2212 -0
310 2212 -0.99509004789631994
311 2212 -0
312 2212 -0
313 2212 0
314 2212 0
315 2212 0
316 2212 0
317 2212 0
318 2212 0
319 2212 0
320 2212 0
321 2212 0
322 2212 0
323 2212 0
324 2212 0
1293 2212 0.1112726701807888
1294 2212 -0.18163442438886057
1295 2212 -0.24934842404473068
1296 2212 0.087619788974651794
301 2213 -0
302 2213 -0
303 2213 -0
304 2213 -0
305 2213 -0
306 2213 -0
307 2213 -0
308 2213 -0
309 2213 -0
310 2213 -0
311 2213 -0.99509004789631994
312 2213 -0
313 2213 0
314 2213 0
315 2213 0
316 2213 0
317 2213 0
318 2213 0
319 2213 0
320 2213 0
321 2213 0
322 2213 0
323 2213 0
324 2213 0
1293 2213 0.0048220099123521959
1294 2213 -0.09230703811323461
1295 2213 -0.22028815111069383
1296 2213 -0.062540089363958593
301 2214 -0
302 2214 -0
303 2214 -0
304 2214 -0
305 2214 -0
306 2214 -0
307 2214 -0
308 2214 -0
309 2214 -0
310 2214 -0
311 2214 -0
312 2214 -0.99509004789631994
313 2214 0
314 2214 0
315 2214 0
316 2214 0
317 2214 0
318 2214 0
319 2214 0
320 2214 0
321 2214 0
322 2214 0
323 2214 0
324 2214 0
1293 2214 0.22589481330245723
1294 2214 0.085512196920050021
1295 2214 -0.209328877595194
1296 2214 0.014853171089538656
301 2215 0
302 2215 0
303 2215 0
304 2215 0
305 2215 0
306 2215 0
307 2215 0
308 2215 0
309 2215 0
310 2215 0
311 2215 0
312 2215 0
313 2215 0.99509004789631994
314 2215 0
315 2215 0
316 2215 0
317 2215 0
318 2215 0
319 2215 0
320 2215 0
321 2215 0
322 2215 0
323 2215 0
324 2215 0
1293 2215 0
1294 2215 0
1295 2215 0
1296 2215 0
301 2216 0
302 2216 0
303 2216 0
304 2216 0
305 2216 0
306 2216 0
307 2216 0
308 2216 0
309 2216 0
310 2216 0
311 2216 0
312 2216 0
313 2216 0
314 2216 0.99509004789631994
315 2216 0
316 2216 0
317 2216 0
318 2216 0
319 2216 0
320 2216 0
321 2216 0
322 2216 0
323 2216 0
324 2216 0
1293 2216 0
1294 2216 0
1295 2216 0
1296 2216 0
301 2217 0
302 2217 0
303 2217 0
304 2217 0
305 2217 0
306 2217 0
307 2217 0
308 2217 0
309 2217 0
310 2217 0
311 2217 0
312 2217 0
313 2217 0
314 2217 0
315 2217 0.99509004789631994
316 2217 0
317 2217 0
318 2217 0
319 2217 0
320 2217 0
321 2217 0
322 2217 0
323 2217 0
324 2217 0
1293 2217 0
1294 2217 0
1295 2217 0
1296 2217 0
301 2218 0
302 2218 0
303 2218 0
304 2218 0
305 2218 0
306 2218 0
307 2218 0
308 2218 0
309 2218 0
310 2218 0
311 2218 0
312 2218 0
313 2218 0
314 2218 0
315 2218 0
316 2218 0.99509004789631994
317 2218 0
318 2218 0
319 2218 0
320 2218 0
321 2218 0
322 2218 0
323 2218 0
324 2218 0
1293 2218 0
1294 2218 0
1295 2218 0
1296 2218 0
301 2219 0
302 2219 0
303 2219 0
304 2219 0
305 2219 0
306 2219 0
307 2219 0
308 2219 0
309 2219 0
310 2219 0
311 2219 0
312 2219 0
313 2219 0
314 2219 0
315 2219 0
316 2219 0
317 2219 0.99509004789631994
318 2219 0
319 2219 0
320 2219 0
321 2219 0
322 2219 0
323 2219 0
324 2219 0
1293 2219 0
1294 2219 0
1295 2219 0
1296 2219 0
301 2220 0
302 2220 0
303 2220 0
304 2220 0
305 2220 0
306 2220 0
307 2220 0
308 2220 0
309 2220 0
310 2220 0
311 2220 0
312 2220 0
313 2220 0
314 2220 0
315 2220 0
316 2220 0
317 2220 0
318 2220 0.99509004789631994
319 2220 0
320 2220 0
321 2220 0
322 2220 0
323 2220 0
324 2220 0
1293 2220 0
1294 2220 0
1295 2220 0
1296 2220 0
301 2221 0
302 2221 0
303 2221 0
304 2221 0
305 2221 0
306 2221 0
307 2221 0
308 2221 0
309 2221 0
310 2221 0
311 2221 0
312 2221 0
313 2221 0
314 2221 0
315 2221 0
316 2221 0
317 2221 0
318 2221 0
319 2221 0.99509004789631994
320 2221 0
321 2221 0
322 2221 0
323 2221 0
324 2221 0
1293 2221 0
1294 2221 0
1295 2221 0
1296 2221 0
301 2222 0
302 2222 0
303 2222 0
304 2222 0
305 2222 0
306 2222 0
307 2222 0
308 2222 0
309 2222 0
310 2222 0
311 2222 0
312 2222 0
313 2222 0
314 2222 0
315 2222 0
316 2222 0
317 2222 0
318 2222 0
319 2222 0
320 2222 0.99509004789631994
321 2222 0
322 2222 0
323 2222 0
324 2222 0
1293 2222 0
1294 2222 0
1295 2222 0
1296 2222 0
301 2223 0
302 2223 0
303 2223 0
304 2223 0
305 2223 0
306 2223 0
307 2223 0
308 2223 0
309 2223 0
310 2223 0
311 2223 0
312 2223 0
313 2223 0
314 2223 0
315 2223 0
316 2223 0
317 2223 0
318 2223 0
319 2223 0
320 2223 0
321 2223 0.99509004789631994
322 2223 0
323 2223 0
324 2223 0
1293 2223 0
1294 2223 0
1295 2223 0
1296 2223 0
301 2224 0
302 2224 0
303 2224 0
304 2224 0
305 2224 0
306 2224 0
307 2224 0
308 2224 0
309 2224 0
310 2224 0
311 2224 0
312 2224 0
313 2224 0
314 2224 0
315 2224 0
316 2224 0
317 2224 0
318 2224 0
319 2224 0
320 2224 0
321 2224 0
322 2224 0.99509004789631994
323 2224 0
324 2224 0
1293 2224 0
1294 2224 0
1295 2224 0
1296 2224 0
301 2225 0
302 2225 0
303 2225 0
304 2225 0
305 2225 0
306 2225 0
307 2225 0
308 2225 0
309 2225 0
310 2225 0
311 2225 0
312 2225 0
313 2225 0
314 2225 0
315 2225 0
316 2225 0
317 2225 0
318 2225 0
319 2225 0
320 2225 0
321 2225 0
322 2225 0
323 2225 0.99509004789631994
324 2225 0
1293 2225 0
1294 2225 0
1295 2225 0
1296 2225 0
301 2226 0
302 2226 0
303 2226 0
304 2226 0
305 2226 0
306 2226 0
307 2226 0
308 2226 0
309 2226 0
310 2226 0
311 2226 0
312 2226 0
313 2226 0
314 2226 0
315 2226 0
316 2226 0
317 2226 0
318 2226 0
319 2226 0
320 2226 0
321 2226 0
322 2226 0
323 2226 0
324 2226 0.99509004789631994
1293 2226 0
1294 2226 0
1295 2226 0
1296 2226 0
1289 2227 0
1290 2227 0
1291 2227 0
1292 2227 0
1618 2227 0
1289 2228 0.99878751991636638
1290 2228 0
1291 2228 0
1292 2228 0
1618 2228 0
1289 2229 0
1290 2229 0.99886974093913028
1291 2229 0
1292 2229 0
1618 2229 0
1289 2230 0
1290 2230 0
1291 2230 0.99859691322799182
1292 2230 0
1618 2230 0
1289 2231 0
1290 2231 0
1291 2231 0
1292 2231 0.99879118685427859
1618 2231 0
1289 2232 0
1290 2232 0
1291 2232 0
1292 2232 0
1618 2232 1
289 2233 -0.99509004789631994
290 2233 -0
291 2233 -0
292 2233 -0
293 2233 -0
294 2233 -0
295 2233 -0
296 2233 -0
297 2233 -0
298 2233 -0
299 2233 -0
300 2233 -0
301 2233 0
302 2233 0
303 2233 0
304 2233 0
305 2233 0
306 2233 0
307 2233 0
308 2233 0
309 2233 0
310 2233 0
311 2233 0
312 2233 0
1289 2233 -0.1803189598547551
1290 2233 -0.25584631152049064
1291 2233 -0.074765084896359371
1292 2233 -0.06244980534901011
289 2234 -0
290 2234 -0.99509004789631994
291 2234 -0
292 2234 -0
293 2234 -0
294 2234 -0
295 2234 -0
296 2234 -0
297 2234 -0
298 2234 -0
299 2234 -0
300 2234 -0
301 2234 0
302 2234 0
303 2234 0
304 2234 0
305 2234 0
306 2234 0
307 2234 0
308 2234 0
309 2234 0
310 2234 0
311 2234 0
312 2234 0
1289 2234 0.10820261428783474
1290 2234 0.080196783561304039
1291 2234 -0.016866001348705428
1292 2234 -0.17094248486675911
289 2235 -0
290 2235 -0
291 2235 -0.99509004789631994
292 2235 -0
293 2235 -0
294 2235 -0
295 2235 -0
296 2235 -0
297 2235 -0
298 2235 -0
299 2235 -0
300 2235 -0
301 2235 0
302 2235 0
303 2235 0
304 2235 0
305 2235 0
306 2235 0
307 2235 0
308 2235 0
309 2235 0
310 2235 0
311 2235 0
312 2235 0
1289 2235 0.021296203412182201
1290 2235 0.06379387941368389
1291 2235 0.33227429440027084
1292 2235 0.038055274961526345
289 2236 -0
290 2236 -0
291 2236 -0
292 2236 -0.99509004789631994
293 2236 -0
294 2236 -0
295 2236 -0
296 2236 -0
297 2236 -0
298 2236 -0
299 2236 -0
300 2236 -0
301 2236 0
302 2236 0
303 2236 0
304 2236 0
305 2236 0
306 2236 0
307 2236 0
308 2236 0
309 2236 0
310 2236 0
311 2236 0
312 2236 0
1289 2236 0.19846746771042395
1290 2236 0.13291349456905685
1291 2236 -0.11659569025066187
1292 2236 0.1709989853023412
289 2237 -0
290 2237 -0
291 2237 -0
292 2237 -0
293 2237 -0.99509004789631994
294 2237 -0
295 2237 -0
296 2237 -0
297 2237 -0
298 2237 -0
299 2237 -0
300 2237 -0
301 2237 0
302 2237 0
303 2237 0
304 2237 0
305 2237 0
306 2237 0
307 2237 0
308 2237 0
309 2237 0
310 2237 0
311 2237 0
312 2237 0
1289 2237 0.06406726430169403
1290 2237 0.0077975121873435499
1291 2237 -0.012888481757033089
1292 2237 0.1821584263174176
289 2238 -0
290 2238 -0
291 2238 -0
292 2238 -0
293 2238 -0
294 2238 -0.99509004789631994
295 2238 -0
296 2238 -0
297 2238 -0
298 2238 -0
299 2238 -0
300 2238 -0
301 2238 0
302 2238 0
303 2238 0
304 2238 0
305 2238 0
306 2238 0
307 2238 0
308 2238 0
309 2238 0
310 2238 0
311 2238 0
312 2238 0
1289 2238 0.14930176975937659
1290 2238 -0.1220518999462523
1291 2238 -0.21437482240798272
1292 2238 -0.27728111366749703
289 2239 -0
290 2239 -0
291 2239 -0
292 2239 -0
293 2239 -0
294 2239 -0
295 2239 -0.99509004789631994
296 2239 -0
297 2239 -0
298 2239 -0
299 2239 -0
300 2239 -0
301 2239 0
302 2239 0
303 2239 0
304 2239 0
305 2239 0
306 2239 0
307 2239 0
308 2239 0
309 2239 0
310 2239 0
311 2239 0
312 2239 0
1289 2239 -0.27832449100114248
1290 2239 -0.023030066571549251
1291 2239 0.085999904285044407
1292 2239 0.14042558666593874
289 2240 -0
290 2240 -0
291 2240 -0
292 2240 -0
293 2240 -0
294 2240 -0
295 2240 -0
296 2240 -0.99509004789631994
297 2240 -0
298 2240 -0
299 2240 -0
300 2240 -0
301 2240 0
302 2240 0
303 2240 0
304 2240 0
305 2240 0
306 2240 0
307 2240 0
308 2240 0
309 2240 0
310 2240 0
311 2240 0
312 2240 0
1289 2240 0.14426661227624929
1290 2240 0.019112219351713613
1291 2240 -0.3383340256558125
1292 2240 -0.26332006554483989
289 2241 -0
290 2241 -0
291 2241 -0
292 2241 -0
293 2241 -0
294 2241 -0
295 2241 -0
296 2241 -0
297 2241 -0.99509004789631994
298 2241 -0
299 2241 -0
300 2241 -0
301 2241 0
302 2241 0
303 2241 0
304 2241 0
305 2241 0
306 2241 0
307 2241 0
308 2241 0
309 2241 0
310 2241 0
311 2241 0
312 2241 0
1289 2241 -0.11462509557936003
1290 2241 -0.065598224589830417
1291 2241 0.12045547271290091
1292 2241 0.066735657880519217
289 2242 -0
290 2242 -0
291 2242 -0
292 2242 -0
293 2242 -0
294 2242 -0
295 2242 -0
296 2242 -0
297 2242 -0
298 2242 -0.99509004789631994
299 2242 -0
300 2242 -0
301 2242 0
302 2242 0
303 2242 0
304 2242 0
305 2242 0
306 2242 0
307 2242 0
308 2242 0
309 2242 0
310 2242 0
311 2242 0
312 2242 0
1289 2242 0.1112726701807888
1290 2242 -0.18163442438886057
1291 2242 -0.24934842404473068
1292 2242 0.087619788974651794
289 2243 -0
290 2243 -0
291 2243 -0
292 2243 -0
293 2243 -0
294 2243 -0
295 2243 -0
296 2243 -0
297 2243 -0
298 2243 -0
299 2243 -0.99509004789631994
300 2243 -0
301 2243 0
302 2243 0
303 2243 0
304 2243 0
305 2243 0
306 2243 0
307 2243 0
308 2243 0
309 2243 0
310 2243 0
311 2243 0
312 2243 0
1289 2243 0.0048220099123521959
1290 2243 -0.09230703811323461
1291 2243 -0.22028815111069383
1292 2243 -0.062540089363958593
289 2244 -0
290 2244 -0
291 2244 -0
292 2244 -0
293 2244 -0
294 2244 -0
295 2244 -0
296 2244 -0
297 2244 -0
298 2244 -0
299 2244 -0
300 2244 -0.99509004789631994
301 2244 0
302 2244 0
303 2244 0
304 2244 0
305 2244 0
306 2244 0
307 2244 0
308 2244 0
309 2244 0
310 2244 0
311 2244 0
312 2244 0
1289 2244 0.22589481330245723
1290 2244 0.085512196920050021
1291 2244 -0.209328877595194
1292 2244 0.014853171089538656
289 2245 0
290 2245 0
291 2245 0
292 2245 0
293 2245 0
294 2245 0
295 2245 0
296 2245 0
297 2245 0
298 2245 0
299 2245 0
300 2245 0
301 2245 0.99509004789631994
302 2245 0
303 2245 0
304 2245 0
305 2245 0
306 2245 0
307 2245 0
308 2245 0
309 2245 0
310 2245 0
311 2245 0
312 2245 0
1289 2245 0
1290 2245 0
1291 2245 0
1292 2245 0
289 2246 0
290 2246 0
291 2246 0
292 2246 0
293 2246 0
294 2246 0
295 2246 0
296 2246 0
297 2246 0
298 2246 0
299 2246 0
300 2246 0
301 2246 0
302 2246 0.99509004789631994
303 2246 0
304 2246 0
305 2246 0
306 2246 0
307 2246 0
308 2246 0
309 2246 0
310 2246 0
311 2246 0
312 2246 0
1289 2246 0
1290 2246 0
1291 2246 0
1292 2246 0
289 2247 0
290 2247 0
291 2247 0
292 2247 0
293 2247 0
294 2247 0
295 2247 0
296 2247 0
297 2247 0
298 2247 0
299 2247 0
300 2247 0
301 2247 0
302 2247 0
303 2247 0.99509004789631994
304 2247 0
305 2247 0
306 2247 0
307 2247 0
308 2247 0
309 2247 0
310 2247 0
311 2247 0
312 2247 0
1289 2247 0
1290 2247 0
1291 2247 0
1292 2247 0
289 2248 0
290 2248 0
291 2248 0
292 2248 0
293 2248 0
294 2248 0
295 2248 0
296 2248 0
297 2248 0
298 2248 0
299 2248 0
300 2248 0
301 2248 0
302 2248 0
303 2248 0
304 2248 0.99509004789631994
305 2248 0
306 2248 0
307 2248 0
308 2248 0
309 2248 0
310 2248 0
311 2248 0
312 2248 0
1289 2248 0
1290 2248 0
1291 2248 0
1292 2248 0
289 2249 0
290 2249 0
291 2249 0
292 2249 0
293 2249 0
294 2249 0
295 2249 0
296 2249 0
297 2249 0
298 2249 0
299 2249 0
300 2249 0
301 2249 0
302 2249 0
303 2249 0
304 2249 0
305 2249 0.99509004789631994
306 2249 0
307 2249 0
308 2249 0
309 2249 0
310 2249 0
311 2249 0
312 2249 0
1289 2249 0
1290 2249 0
1291 2249 0
1292 2249 0
289 2250 0
290 2250 0
291 2250 0
292 2250 0
293 2250 0
294 2250 0
295 2250 0
296 2250 0
297 2250 0
298 2250 0
299 2250 0
300 2250 0
301 2250 0
302 2250 0
303 2250 0
304 2250 0
305 2250 0
306 2250 0.99509004789631994
307 2250 0
308 2250 0
309 2250 0
310 2250 0
311 2250 0
312 2250 0
1289 2250 0
1290 2250 0
1291 2250 0
1292 2250 0
289 2251 0
290 2251 0
291 2251 0
292 2251 0
293 2251 0
294 2251 0
295 2251 0
296 2251 0
297 2251 0
298 2251 0
299 2251 0
300 2251 0
301 2251 0
302 2251 0
303 2251 0
304 2251 0
305 2251 0
306 2251 0
307 2251 0.99509004789631994
308 2251 0
309 2251 0
310 2251 0
311 2251 0
312 2251 0
1289 2251 0
1290 2251 0
1291 2251 0
1292 2251 0
289 2252 0
290 2252 0
291 2252 0
292 2252 0
293 2252 0
294 2252 0
295 2252 0
296 2252 0
297 2252 0
298 2252 0
299 2252 0
300 2252 0
301 2252 0
302 2252 0
303 2252 0
304 2252 0
305 2252 0
306 2252 0
307 2252 0
308 2252 0.99509004789631994
309 2252 0
310 2252 0
311 2252 0
312 2252 0
1289 2252 0
1290 2252 0
1291 2252 0
1292 2252 0
289 2253 0
290 2253 0
291 2253 0
292 2253 0
293 2253 0
294 2253 0
295 2253 0
296 2253 0
297 2253 0
298 2253 0
299 2253 0
300 2253 0
301 2253 0
302 2253 0
303 2253 0
304 2253 0
305 2253 0
306 2253 0
307 2253 0
308 2253 0
309 2253 0.99509004789631994
310 2253 0
311 2253 0
312 2253 0
1289 2253 0
1290 2253 0
1291 2253 0
1292 2253 0
289 2254 0
290 2254 0
291 2254 0
292 2254 0
293 2254 0
294 2254 0
295 2254 0
296 2254 0
297 2254 0
298 2254 0
299 2254 0
300 2254 0
301 2254 0
302 2254 0
303 2254 0
304 2254 0
305 2254 0
306 2254 0
307 2254 0
308 2254 0
309 2254 0
310 2254 0.99509004789631994
311 2254 0
312 2254 0
1289 2254 0
1290 2254 0
1291 2254 0
1292 2254 0
289 2255 0
290 2255 0
291 2255 0
292 2255 0
293 2255 0
294 2255 0
295 2255 0
296 2255 0
297 2255 0
298 2255 0
299 2255 0
300 2255 0
301 2255 0
302 2255 0
303 2255 0
304 2255 0
305 2255 0
306 2255 0
307 2255 0
308 2255 0
309 2255 0
310 2255 0
311 2255 0.99509004789631994
312 2255 0
1289 2255 0
1290 2255 0
1291 2255 0
1292 2255 0
289 2256 0
290 2256 0
291 2256 0
292 2256 0
293 2256 0
294 2256 0
295 2256 0
296 2256 0
297 2256 0
298 2256 0
299 2256 0
300 2256 0
301 2256 0
302 2256 0
303 2256 0
304 2256 0
305 2256 0
306 2256 0
307 2256 0
308 2256 0
309 2256 0
310 2256 0
311 2256 0
312 2256 0.99509004789631994
1289 2256 0
1290 2256 0
1291 2256 0
1292 2256 0
1285 2257 0
1286 2257 0
1287 2257 0
1288 2257 0
1617 2257 0
1285 2258 0.99878751991636638
1286 2258 0
1287 2258 0
1288 2258 0
1617 2258 0
1285 2259 0
1286 2259 0.99886974093913028
1287 2259 0
1288 2259 0
1617 2259 0
1285 2260 0
1286 2260 0
1287 2260 0.99859691322799182
1288 2260 0
1617 2260 0
1285 2261 0
1286 2261 0
1287 2261 0
1288 2261 0.99879118685427859
1617 2261 0
1285 2262 0
1286 2262 0
1287 2262 0
1288 2262 0
1617 2262 1
277 2263 -0.99509004789631994
278 2263 -0
279 2263 -0
280 2263 -0
281 2263 -0
282 2263 -0
283 2263 -0
284 2263 -0
285 2263 -0
286 2263 -0
287 2263 -0
288 2263 -0
289 2263 0
290 2263 0
291 2263 0
292 2263 0
293 2263 0
294 2263 0
295 2263 0
296 2263 0
297 2263 0
298 2263 0
299 2263 0
300 2263 0
1285 2263 -0.1803189598547551
1286 2263 -0.25584631152049064
1287 2263 -0.074765084896359371
1288 2263 -0.06244980534901011
277 2264 -0
278 2264 -0.99509004789631994
279 2264 -0
280 2264 -0
281 2264 -0
282 2264 -0
283 2264 -0
284 2264 -0
285 2264 -0
286 2264 -0
287 2264 -0
288 2264 -0
289 2264 0
290 2264 0
291 2264 0
292 2264 0
293 2264 0
294 2264 0
295 2264 0
296 2264 0
297 2264 0
298 2264 0
299 2264 0
300 2264 0
1285 2264 0.10820261428783474
1286 2264 0.080196783561304039
1287 2264 -0.016866001348705428
1288 2264 -0.17094248486675911
277 2265 -0
278 2265 -0
279 2265 -0.99509004789631994
280 2265 -0
281 2265 -0
282 2265 -0
283 2265 -0
284 2265 -0
285 2265 -0
286 2265 -0
287 2265 -0
288 2265 -0
289 2265 0
290 2265 0
291 2265 0
292 2265 0
293 2265 0
294 2265 0
295 2265 0
296 2265 0
297 2265 0
298 2265 0
299 2265 0
300 2265 0
1285 2265 0.021296203412182201
1286 2265 0.06379387941368389
1287 2265 0.33227429440027084
1288 2265 0.038055274961526345
277 2266 -0
278 2266 -0
279 2266 -0
280 2266 -0.99509004789631994
281 2266 -0
282 2266 -0
283 2266 -0
284 2266 -0
285 2266 -0
286 2266 -0
287 2266 -0
288 2266 -0
289 2266 0
290 2266 0
291 2266 0
292 2266 0
293 2266 0
294 2266 0
295 2266 0
296 2266 0
297 2266 0
298 2266 0
299 2266 0
300 2266 0
1285 2266 0.19846746771042395
1286 2266 0.13291349456905685
1287 2266 -0.11659569025066187
1288 2266 0.1709989853023412
277 2267 -0
278 2267 -0
279 2267 -0
280 2267 -0
281 2267 -0.99509004789631994
282 2267 -0
283 2267 -0
284 2267 -0
285 2267 -0
286 2267 -0
287 2267 -0
288 2267 -0
289 2267 0
290 2267 0
291 2267 0
292 2267 0
293 2267 0
294 2267 0
295 2267 0
296 2267 0
297 2267 0
298 2267 0
299 2267 0
300 2267 0
1285 2267 0.06406726430169403
1286 2267 0.0077975121873435499
1287 2267 -0.012888481757033089
1288 2267 0.1821584263174176
277 2268 -0
278 2268 -0
279 2268 -0
280 2268 -0
281 2268 -0
282 2268 -0.99509004789631994
283 2268 -0
284 2268 -0
285 2268 -0
286 2268 -0
287 2268 -0
288 2268 -0
289 2268 0
290 2268 0
291 2268 0
292 2268 0
293 2268 0
294 2268 0
295 2268 0
296 2268 0
297 2268 0
298 2268 0
299 2268 0
300 2268 0
1285 2268 0.14930176975937659
1286 2268 -0.1220518999462523
1287 2268 -0.21437482240798272
1288 2268 -0.27728111366749703
277 2269 -0
278 2269 -0
279 2269 -0
280 2269 -0
281 2269 -0
282 2269 -0
283 2269 -0.99509004789631994
284 2269 -0
285 2269 -0
286 2269 -0
287 2269 -0
288 2269 -0
289 2269 0
290 2269 0
291 2269 0
292 2269 0
293 2269 0
294 2269 0
295 2269 0
296 2269 0
297 2269 0
298 2269 0
299 2269 0
300 2269 0
1285 2269 -0.27832449100114248
1286 2269 -0.023030066571549251
1287 2269 0.085999904285044407
1288 2269 0.14042558666593874
277 2270 -0
278 2270 -0
279 2270 -0
280 2270 -0
281 2270 -0
282 2270 -0
283 2270 -0
284 2270 -0.99509004789631994
285 2270 -0
286 2270 -0
287 2270 -0
288 2270 -0
289 2270 0
290 2270 0
291 2270 0
292 2270 0
293 2270 0
294 2270 0
295 2270 0
296 2270 0
297 2270 0
298 2270 0
299 2270 0
300 2270 0
1285 2270 0.14426661227624929
1286 2270 0.019112219351713613
1287 2270 -0.3383340256558125
1288 2270 -0.26332006554483989
277 2271 -0
278 2271 -0
279 2271 -0
280 2271 -0
281 2271 -0
282 2271 -0
283 2271 -0
284 2271 -0
285 2271 -0.99509004789631994
286 2271 -0
287 2271 -0
288 2271 -0
289 2271 0
290 2271 0
291 2271 0
292 2271 0
293 2271 0
294 2271 0
295 2271 0
296 2271 0
297 2271 0
298 2271 0
299 2271 0
300 2271 0
1285 2271 -0.11462509557936003
1286 2271 -0.065598224589830417
1287 2271 0.12045547271290091
1288 2271 0.066735657880519217
277 2272 -0
278 2272 -0
279 2272 -0
280 2272 -0
281 2272 -0
282 2272 -0
283 2272 -0
284 2272 -0
285 2272 -0
286 2272 -0.99509004789631994
287 2272 -0
288 2272 -0
289 2272 0
290 2272 0
291 2272 0
292 2272 0
293 2272 0
294 2272 0
295 2272 0
296 2272 0
297 2272 0
298 2272 0
299 2272 0
300 2272 0
1285 2272 0.1112726701807888
1286 2272 -0.18163442438886057
1287 2272 -0.24934842404473068
1288 2272 0.087619788974651794
277 2273 -0
278 2273 -0
279 2273 -0
280 2273 -0
281 2273 -0
282 2273 -0
283 2273 -0
284 2273 -0
285 2273 -0
286 2273 -0
287 2273 -0.99509004789631994
288 2273 -0
289 2273 0
290 2273 0
291 2273 0
292 2273 0
293 2273 0
294 2273 0
295 2273 0
296 2273 0
297 2273 0
298 2273 0
299 2273 0
300 2273 0
1285 2273 0.0048220099123521959
1286 2273 -0.09230703811323461
1287 2273 -0.22028815111069383
1288 2273 -0.062540089363958593
277 2274 -0
278 2274 -0
279 2274 -0
280 2274 -0
281 2274 -0
282 2274 -0
283 2274 -0
284 2274 -0
285 2274 -0
286 2274 -0
287 2274 -0
288 2274 -0.99509004789631994
289 2274 0
290 2274 0
291 2274 0
292 2274 0
293 2274 0
294 2274 0
295 2274 0
296 2274 0
297 2274 0
298 2274 0
299 2274 0
300 2274 0
1285 2274 0.22589481330245723
1286 2274 0.085512196920050021
1287 2274 -0.209328877595194
1288 2274 0.014853171089538656
277 2275 0
278 2275 0
279 2275 0
280 2275 0
281 2275 0
282 2275 0
283 2275 0
284 2275 0
285 2275 0
286 2275 0
287 2275 0
288 2275 0
289 2275 0.99509004789631994
290 2275 0
291 2275 0
292 2275 0
293 2275 0
294 2275 0
295 2275 0
296 2275 0
297 2275 0
298 2275 0
299 2275 0
300 2275 0
1285 2275 0
1286 2275 0
1287 2275 0
1288 2275 0
277 2276 0
278 2276 0
279 2276 0
280 2276 0
281 2276 0
282 2276 0
283 2276 0
284 2276 0
285 2276 0
286 2276 0
287 2276 0
288 2276 0
289 2276 0
290 2276 0.99509004789631994
291 2276 0
292 2276 0
293 2276 0
294 2276 0
295 2276 0
296 2276 0
297 2276 0
298 2276 0
299 2276 0
300 2276 0
1285 2276 0
1286 2276 0
1287 2276 0
1288 2276 0
277 2277 0
278 2277 0
279 2277 0
280 2277 0
281 2277 0
282 2277 0
283 2277 0
284 2277 0
285 2277 0
286 2277 0
287 2277 0
288 2277 0
289 2277 0
290 2277 0
291 2277 0.99509004789631994
292 2277 0
293 2277 0
294 2277 0
295 2277 0
296 2277 0
297 2277 0
298 2277 0
299 2277 0
300 2277 0
1285 2277 0
1286 2277 0
1287 2277 0
1288 2277 0
277 2278 0
278 2278 0
279 2278 0
280 2278 0
281 2278 0
282 2278 0
283 2278 0
284 2278 0
285 2278 0
286 2278 0
287 2278 0
288 2278 0
289 2278 0
290 2278 0
291 2278 0
292 2278 0.99509004789631994
293 2278 0
294 2278 0
295 2278 0
296 2278 0
297 2278 0
298 2278 0
299 2278 0
300 2278 0
1285 2278 0
1286 2278 0
1287 2278 0
1288 2278 0
277 2279 0
278 2279 0
279 2279 0
280 2279 0
281 2279 0
282 2279 0
283 2279 0
284 2279 0
285 2279 0
286 2279 0
287 2279 0
288 2279 0
289 2279 0
290 2279 0
291 2279 0
292 2279 0
293 2279 0.99509004789631994
294 2279 0
295 2279 0
296 2279 0
297 2279 0
298 2279 0
299 2279 0
300 2279 0
1285 2279 0
1286 2279 0
1287 2279 0
1288 2279 0
277 2280 0
278 2280 0
279 2280 0
280 2280 0
281 2280 0
282 2280 0
283 2280 0
284 2280 0
285 2280 0
286 2280 0
287 2280 0
288 2280 0
289 2280 0
290 2280 0
291 2280 0
292 2280 0
293 2280 0
294 2280 0.99509004789631994
295 2280 0
296 2280 0
297 2280 0
298 2280 0
299 2280 0
300 2280 0
1285 2280 0
1286 2280 0
1287 2280 0
1288 2280 0
277 2281 0
278 2281 0
279 2281 0
280 2281 0
281 2281 0
282 2281 0
283 2281 0
284 2281 0
285 2281 0
286 2281 0
287 2281 0
288 2281 0
289 2281 0
290 2281 0
291 2281 0
292 2281 0
293 2281 0
294 2281 0
295 2281 0.99509004789631994
296 2281 0
297 2281 0
298 2281 0
299 2281 0
300 2281 0
1285 2281 0
1286 2281 0
1287 2281 0
1288 2281 0
277 2282 0
278 2282 0
279 2282 0
280 2282 0
281 2282 0
282 2282 0
283 2282 0
284 2282 0
285 2282 0
286 2282 0
287 2282 0
288 2282 0
289 2282 0
290 2282 0
291 2282 0
292 2282 0
293 2282 0
294 2282 0
295 2282 0
296 2282 0.99509004789631994
297 2282 0
298 2282 0
299 2282 0
300 2282 0
1285 2282 0
1286 2282 0
1287 2282 0
1288 2282 0
277 2283 0
278 2283 0
279 2283 0
280 2283 0
281 2283 0
282 2283 0
283 2283 0
284 2283 0
285 2283 0
286 2283 0
287 2283 0
288 2283 0
289 2283 0
290 2283 0
291 2283 0
292 2283 0
293 2283 0
294 2283 0
295 2283 0
296 2283 0
297 2283 0.99509004789631994
298 2283 0
299 2283 0
300 2283 0
1285 2283 0
1286 2283 0
1287 2283 0
1288 2283 0
277 2284 0
278 2284 0
279 2284 0
280 2284 0
281 2284 0
282 2284 0
283 2284 0
284 2284 0
285 2284 0
286 2284 0
287 2284 0
288 2284 0
289 2284 0
290 2284 0
291 2284 0
292 2284 0
293 2284 0
294 2284 0
295 2284 0
296 2284 0
297 2284 0
298 2284 0.99509004789631994
299 2284 0
300 2284 0
1285 2284 0
1286 2284 0
1287 2284 0
1288 2284 0
277 2285 0
278 2285 0
279 2285 0
280 2285 0
281 2285 0
282 2285 0
283 2285 0
284 2285 0
285 2285 0
286 2285 0
287 2285 0
288 2285 0
289 2285 0
290 2285 0
291 2285 0
292 2285 0
293 2285 0
294 2285 0
295 2285 0
296 2285 0
297 2285 0
298 2285 0
299 2285 0.99509004789631994
300 2285 0
1285 2285 0
1286 2285 0
1287 2285 0
1288 2285 0
277 2286 0
278 2286 0
279 2286 0
280 2286 0
281 2286 0
282 2286 0
283 2286 0
284 2286 0
285 2286 0
286 2286 0
287 2286 0
288 2286 0
289 2286 0
290 2286 0
291 2286 0
292 2286 0
293 2286 0
294 2286 0
295 2286 0
296 2286 0
297 2286 0
298 2286 0
299 2286 0
300 2286 0.99509004789631994
1285 2286 0
1286 2286 0
1287 2286 0
1288 2286 0
1281 2287 0
1282 2287 0
1283 2287 0
1284 2287 0
1616 2287 0
1281 2288 0.99878751991636638
1282 2288 0
1283 2288 0
1284 2288 0
1616 2288 0
1281 2289 0
1282 2289 0.99886974093913028
1283 2289 0
1284 2289 0
1616 2289 0
1281 2290 0
1282 2290 0
1283 2290 0.99859691322799182
1284 2290 0
1616 2290 0
1281 2291 0
1282 2291 0
1283 2291 0
1284 2291 0.99879118685427859
1616 2291 0
1281 2292 0
1282 2292 0
1283 2292 0
1284 2292 0
1616 2292 1
265 2293 -0.99509004789631994
266 2293 -0
267 2293 -0
268 2293 -0
269 2293 -0
270 2293 -0
271 2293 -0
272 2293 -0
273 2293 -0
274 2293 -0
275 2293 -0
276 2293 -0
277 2293 0
278 2293 0
279 2293 0
280 2293 0
281 2293 0
282 2293 0
283 2293 0
284 2293 0
285 2293 0
286 2293 0
287 2293 0
288 2293 0
1281 2293 -0.1803189598547551
1282 2293 -0.25584631152049064
1283 2293 -0.074765084896359371
1284 2293 -0.06244980534901011
265 2294 -0
266 2294 -0.99509004789631994
267 2294 -0
268 2294 -0
269 2294 -0
270 2294 -0
271 2294 -0
272 2294 -0
273 2294 -0
274 2294 -0
275 2294 -0
276 2294 -0
277 2294 0
278 2294 0
279 2294 0
280 2294 0
281 2294 0
282 2294 0
283 2294 0
284 2294 0
285 2294 0
286 2294 0
287 2294 0
288 2294 0
1281 2294 0.10820261428783474
1282 2294 0.080196783561304039
1283 2294 -0.016866001348705428
1284 2294 -0.17094248486675911
265 2295 -0
266 2295 -0
267 2295 -0.99509004789631994
268 2295 -0
269 2295 -0
270 2295 -0
271 2295 -0
272 2295 -0
273 2295 -0
274 2295 -0
275 2295 -0
276 2295 -0
277 2295 0
278 2295 0
279 2295 0
280 2295 0
281 2295 0
282 2295 0
283 2295 0
284 2295 0
285 2295 0
286 2295 0
287 2295 0
288 2295 0
1281 2295 0.021296203412182201
1282 2295 0.06379387941368389
1283 2295 0.33227429440027084
1284 2295 0.038055274961526345
265 2296 -0
266 2296 -0
267 2296 -0
268 2296 -0.99509004789631994
269 2296 -0
270 2296 -0
271 2296 -0
272 2296 -0
273 2296 -0
274 2296 -0
275 2296 -0
276 2296 -0
277 2296 0
278 2296 0
279 2296 0
280 2296 0
281 2296 0
282 2296 0
283 2296 0
284 2296 0
285 2296 0
286 2296 0
287 2296 0
288 2296 0
1281 2296 0.19846746771042395
1282 2296 0.13291349456905685
1283 2296 -0.11659569025066187
1284 2296 0.1709989853023412
265 2297 -0
266 2297 -0
267 2297 -0
268 2297 -0
269 2297 -0.99509004789631994
270 2297 -0
271 2297 -0
272 2297 -0
273 2297 -0
274 2297 -0
275 2297 -0
276 2297 -0
277 2297 0
278 2297 0
279 2297 0
280 2297 0
281 2297 0
282 2297 0
283 2297 0
284 2297 0
285 2297 0
286 2297 0
287 2297 0
288 2297 0
1281 2297 0.06406726430169403
1282 2297 0.0077975121873435499
1283 2297 -0.012888481757033089
1284 2297 0.1821584263174176
265 2298 -0
266 2298 -0
267 2298 -0
268 2298 -0
269 2298 -0
270 2298 -0.99509004789631994
271 2298 -0
272 2298 -0
273 2298 -0
274 2298 -0
275 2298 -0
276 2298 -0
277 2298 0
278 2298 0
279 2298 0
280 2298 0
281 2298 0
282 2298 0
283 2298 0
284 2298 0
285 2298 0
286 2298 0
287 2298 0
288 2298 0
1281 2298 0.14930176975937659
1282 2298 -0.1220518999462523
1283 2298 -0.21437482240798272
1284 2298 -0.27728111366749703
265 2299 -0
266 2299 -0
267 2299 -0
268 2299 -0
269 2299 -0
270 2299 -0
271 2299 -0.99509004789631994
272 2299 -0
273 2299 -0
274 2299 -0
275 2299 -0
276 2299 -0
277 2299 0
278 2299 0
279 2299 0
280 2299 0
281 2299 0
282 2299 0
283 2299 0
284 2299 0
285 2299 0
286 2299 0
287 2299 0
288 2299 0
1281 2299 -0.27832449100114248
1282 2299 -0.023030066571549251
1283 2299 0.085999904285044407
1284 2299 0.14042558666593874
265 2300 -0
266 2300 -0
267 2300 -0
268 2300 -0
269 2300 -0
270 2300 -0
271 2300 -0
272 2300 -0.99509004789631994
273 2300 -0
274 2300 -0
275 2300 -0
276 2300 -0
277 2300 0
278 2300 0
279 2300 0
280 2300 0
281 2300 0
282 2300 0
283 2300 0
284 2300 0
285 2300 0
286 2300 0
287 2300 0
288 2300 0
1281 2300 0.14426661227624929
1282 2300 0.019112219351713613
1283 2300 -0.3383340256558125
1284 2300 -0.26332006554483989
265 2301 -0
266 2301 -0
267 2301 -0
268 2301 -0
269 2301 -0
270 2301 -0
271 2301 -0
272 2301 -0
273 2301 -0.99509004789631994
274 2301 -0
275 2301 -0
276 2301 -0
277 2301 0
278 2301 0
279 2301 0
280 2301 0
281 2301 0
282 2301 0
283 2301 0
284 2301 0
285 2301 0
286 2301 0
287 2301 0
288 2301 0
1281 2301 -0.11462509557936003
1282 2301 -0.065598224589830417
1283 2301 0.12045547271290091
1284 2301 0.066735657880519217
265 2302 -0
266 2302 -0
267 2302 -0
268 2302 -0
269 2302 -0
270 2302 -0
271 2302 -0
272 2302 -0
273 2302 -0
274 2302 -0.99509004789631994
275 2302 -0
276 2302 -0
277 2302 0
278 2302 0
279 2302 0
280 2302 0
281 2302 0
282 2302 0
283 2302 0
284 2302 0
285 2302 0
286 2302 0
287 2302 0
288 2302 0
1281 2302 0.1112726701807888
1282 2302 -0.18163442438886057
1283 2302 -0.24934842404473068
1284 2302 0.087619788974651794
265 2303 -0
266 2303 -0
267 2303 -0
268 2303 -0
269 2303 -0
270 2303 -0
271 2303 -0
272 2303 -0
273 2303 -0
274 2303 -0
275 2303 -0.99509004789631994
276 2303 -0
277 2303 0
278 2303 0
279 2303 0
280 2303 0
281 2303 0
282 2303 0
283 2303 0
284 2303 0
285 2303 0
286 2303 0
287 2303 0
288 2303 0
1281 2303 0.0048220099123521959
1282 2303 -0.09230703811323461
1283 2303 -0.22028815111069383
1284 2303 -0.062540089363958593
265 2304 -0
266 2304 -0
267 2304 -0
268 2304 -0
269 2304 -0
270 2304 -0
271 2304 -0
272 2304 -0
273 2304 -0
274 2304 -0
275 2304 -0
276 2304 -0.99509004789631994
277 2304 0
278 2304 0
279 2304 0
280 2304 0
281 2304 0
282 2304 0
283 2304 0
284 2304 0
285 2304 0
286 2304 0
287 2304 0
288 2304 0
1281 2304 0.22589481330245723
1282 2304 0.085512196920050021
1283 2304 -0.209328877595194
1284 2304 0.014853171089538656
265 2305 0
266 2305 0
267 2305 0
268 2305 0
269 2305 0
270 2305 0
271 2305 0
272 2305 0
273 2305 0
274 2305 0
275 2305 0
276 2305 0
277 2305 0.99509004789631994
278 2305 0
279 2305 0
280 2305 0
281 2305 0
282 2305 0
283 2305 0
284 2305 0
285 2305 0
286 2305 0
287 2305 0
288 2305 0
1281 2305 0
1282 2305 0
1283 2305 0
1284 2305 0
265 2306 0
266 2306 0
267 2306 0
268 2306 0
269 2306 0
270 2306 0
271 2306 0
272 2306 0
273 2306 0
274 2306 0
275 2306 0
276 2306 0
277 2306 0
278 2306 0.99509004789631994
279 2306 0
280 2306 0
281 2306 0
282 2306 0
283 2306 0
284 2306 0
285 2306 0
286 2306 0
287 2306 0
288 2306 0
1281 2306 0
1282 2306 0
1283 2306 0
1284 2306 0
265 2307 0
266 2307 0
267 2307 0
268 2307 0
269 2307 0
270 2307 0
271 2307 0
272 2307 0
273 2307 0
274 2307 0
275 2307 0
276 2307 0
277 2307 0
278 2307 0
279 2307 0.99509004789631994
280 2307 0
281 2307 0
282 2307 0
283 2307 0
284 2307 0
285 2307 0
286 2307 0
287 2307 0
288 2307 0
1281 2307 0
1282 2307 0
1283 2307 0
1284 2307 0
265 2308 0
266 2308 0
267 2308 0
268 2308 0
269 2308 0
270 2308 0
271 2308 0
272 2308 0
273 2308 0
274 2308 0
275 2308 0
276 2308 0
277 2308 0
278 2308 0
279 2308 0
280 2308 0.99509004789631994
281 2308 0
282 2308 0
283 2308 0
284 2308 0
285 2308 0
286 2308 0
287 2308 0
288 2308 0
1281 2308 0
1282 2308 0
1283 2308 0
1284 2308 0
265 2309 0
266 2309 0
267 2309 0
268 2309 0
269 2309 0
270 2309 0
271 2309 0
272 2309 0
273 2309 0
274 2309 0
275 2309 0
276 2309 0
277 2309 0
278 2309 0
279 2309 0
280 2309 0
281 2309 0.99509004789631994
282 2309 0
283 2309 0
284 2309 0
285 2309 0
286 2309 0
287 2309 0
288 2309 0
1281 2309 0
1282 2309 0
1283 2309 0
1284 2309 0
265 2310 0
266 2310 0
267 2310 0
268 2310 0
269 2310 0
270 2310 0
271 2310 0
272 2310 0
273 2310 0
274 2310 0
275 2310 0
276 2310 0
277 2310 0
278 2310 0
279 2310 0
280 2310 0
281 2310 0
282 2310 0.99509004789631994
283 2310 0
284 2310 0
285 2310 0
286 2310 0
287 2310 0
288 2310 0
1281 2310 0
1282 2310 0
1283 2310 0
1284 2310 0
265 2311 0
266 2311 0
267 2311 0
268 2311 0
269 2311 0
270 2311 0
271 2311 0
272 2311 0
273 2311 0
274 2311 0
275 2311 0
276 2311 0
277 2311 0
278 2311 0
279 2311 0
280 2311 0
281 2311 0
282 2311 0
283 2311 0.99509004789631994
284 2311 0
285 2311 0
286 2311 0
287 2311 0
288 2311 0
1281 2311 0
1282 2311 0
1283 2311 0
1284 2311 0
265 2312 0
266 2312 0
267 2312 0
268 2312 0
269 2312 0
270 2312 0
271 2312 0
272 2312 0
273 2312 0
274 2312 0
275 2312 0
276 2312 0
277 2312 0
278 2312 0
279 2312 0
280 2312 0
281 2312 0
282 2312 0
283 2312 0
284 2312 0.99509004789631994
285 2312 0
286 2312 0
287 2312 0
288 2312 0
1281 2312 0
1282 2312 0
1283 2312 0
1284 2312 0
265 2313 0
266 2313 0
267 2313 0
268 2313 0
269 2313 0
270 2313 0
271 2313 0
272 2313 0
273 2313 0
274 2313 0
275 2313 0
276 2313 0
277 2313 0
278 2313 0
279 2313 0
280 2313 0
281 2313 0
282 2313 0
283 2313 0
284 2313 0
285 2313 0.99509004789631994
286 2313 0
287 2313 0
288 2313 0
1281 2313 0
1282 2313 0
1283 2313 0
1284 2313 0
265 2314 0
266 2314 0
267 2314 0
268 2314 0
269 2314 0
270 2314 0
271 2314 0
272 2314 0
273 2314 0
274 2314 0
275 2314 0
276 2314 0
277 2314 0
278 2314 0
279 2314 0
280 2314 0
281 2314 0
282 2314 0
283 2314 0
284 2314 0
285 2314 0
286 2314 0.99509004789631994
287 2314 0
288 2314 0
1281 2314 0
1282 2314 0
1283 2314 0
1284 2314 0
265 2315 0
266 2315 0
267 2315 0
268 2315 0
269 2315 0
270 2315 0
271 2315 0
272 2315 0
273 2315 0
274 2315 0
275 2315 0
276 2315 0
277 2315 0
278 2315 0
279 2315 0
280 2315 0
281 2315 0
282 2315 0
283 2315 0
284 2315 0
285 2315 0
286 2315 0
287 2315 0.99509004789631994
288 2315 0
1281 2315 0
1282 2315 0
1283 2315 0
1284 2315 0
265 2316 0
266 2316 0
267 2316 0
268 2316 0
269 2316 0
270 2316 0
271 2316 0
272 2316 0
273 2316 0
274 2316 0
275 2316 0
276 2316 0
277 2316 0
278 2316 0
279 2316 0
280 2316 0
281 2316 0
282 2316 0
283 2316 0
284 2316 0
285 2316 0
286 2316 0
287 2316 0
288 2316 0.99509004789631994
1281 2316 0
1282 2316 0
1283 2316 0
1284 2316 0
1277 2317 0
1278 2317 0
1279 2317 0
1280 2317 0
1615 2317 0
1277 2318 0.99878751991636638
1278 2318 0
1279 2318 0
1280 2318 0
1615 2318 0
1277 2319 0
1278 2319 0.99886974093913028
1279 2319 0
1280 2319 0
1615 2319 0
1277 2320 0
1278 2320 0
1279 2320 0.99859691322799182
1280 2320 0
1615 2320 0
1277 2321 0
1278 2321 0
1279 2321 0
1280 2321 0.99879118685427859
1615 2321 0
1277 2322 0
1278 2322 0
1279 2322 0
1280 2322 0
1615 2322 1
253 2323 -0.99509004789631994
254 2323 -0
255 2323 -0
256 2323 -0
257 2323 -0
258 2323 -0
259 2323 -0
260 2323 -0
261 2323 -0
262 2323 -0
263 2323 -0
264 2323 -0
265 2323 0
266 2323 0
267 2323 0
268 2323 0
269 2323 0
270 2323 0
271 2323 0
272 2323 0
273 2323 0
274 2323 0
275 2323 0
276 2323 0
1277 2323 -0.1803189598547551
1278 2323 -0.25584631152049064
1279 2323 -0.074765084896359371
1280 2323 -0.06244980534901011
253 2324 -0
254 2324 -0.99509004789631994
255 2324 -0
256 2324 -0
257 2324 -0
258 2324 -0
259 2324 -0
260 2324 -0
261 2324 -0
262 2324 -0
263 2324 -0
264 2324 -0
265 2324 0
266 2324 0
267 2324 0
268 2324 0
269 2324 0
270 2324 0
271 2324 0
272 2324 0
273 2324 0
274 2324 0
275 2324 0
276 2324 0
1277 2324 0.10820261428783474
1278 2324 0.080196783561304039
1279 2324 -0.016866001348705428
1280 2324 -0.17094248486675911
253 2325 -0
254 2325 -0
255 2325 -0.99509004789631994
256 2325 -0
257 2325 -0
258 2325 -0
259 2325 -0
260 2325 -0
261 2325 -0
262 2325 -0
263 2325 -0
264 2325 -0
265 2325 0
266 2325 0
267 2325 0
268 2325 0
269 2325 0
270 2325 0
271 2325 0
272 2325 0
273 2325 0
274 2325 0
275 2325 0
276 2325 0
1277 2325 0.021296203412182201
1278 2325 0.06379387941368389
1279 2325 0.33227429440027084
1280 2325 0.038055274961526345
253 2326 -0
254 2326 -0
255 2326 -0
256 2326 -0.99509004789631994
257 2326 -0
258 2326 -0
259 2326 -0
260 2326 -0
261 2326 -0
262 2326 -0
263 2326 -0
264 2326 -0
265 2326 0
266 2326 0
267 2326 0
268 2326 0
269 2326 0
270 2326 0
271 2326 0
272 2326 0
273 2326 0
274 2326 0
275 2326 0
276 2326 0
1277 2326 0.19846746771042395
1278 2326 0.13291349456905685
1279 2326 -0.11659569025066187
1280 2326 0.1709989853023412
253 2327 -0
254 2327 -0
255 2327 -0
256 2327 -0
257 2327 -0.99509004789631994
258 2327 -0
259 2327 -0
260 2327 -0
261 2327 -0
262 2327 -0
263 2327 -0
264 2327 -0
265 2327 0
266 2327 0
267 2327 0
268 2327 0
269 2327 0
270 2327 0
271 2327 0
272 2327 0
273 2327 0
274 2327 0
275 2327 0
276 2327 0
1277 2327 0.06406726430169403
1278 2327 0.0077975121873435499
1279 2327 -0.012888481757033089
1280 2327 0.1821584263174176
253 2328 -0
254 2328 -0
255 2328 -0
256 2328 -0
257 2328 -0
258 2328 -0.99509004789631994
259 2328 -0
260 2328 -0
261 2328 -0
262 2328 -0
263 2328 -0
264 2328 -0
265 2328 0
266 2328 0
267 2328 0
268 2328 0
269 2328 0
270 2328 0
271 2328 0
272 2328 0
273 2328 0
274 2328 0
275 2328 0
276 2328 0
1277 2328 0.14930176975937659
1278 2328 -0.1220518999462523
1279 2328 -0.21437482240798272
1280 2328 -0.27728111366749703
253 2329 -0
254 2329 -0
255 2329 -0
256 2329 -0
257 2329 -0
258 2329 -0
259 2329 -0.99509004789631994
260 2329 -0
261 2329 -0
262 2329 -0
263 2329 -0
264 2329 -0
265 2329 0
266 2329 0
267 2329 0
268 2329 0
269 2329 0
270 2329 0
271 2329 0
272 2329 0
273 2329 0
274 2329 0
275 2329 0
276 2329 0
1277 2329 -0.27832449100114248
1278 2329 -0.023030066571549251
1279 2329 0.085999904285044407
1280 2329 0.14042558666593874
253 2330 -0
254 2330 -0
255 2330 -0
256 2330 -0
257 2330 -0
258 2330 -0
259 2330 -0
260 2330 -0.99509004789631994
261 2330 -0
262 2330 -0
263 2330 -0
264 2330 -0
265 2330 0
266 2330 0
267 2330 0
268 2330 0
269 2330 0
270 2330 0
271 2330 0
272 2330 0
273 2330 0
274 2330 0
275 2330 0
276 2330 0
1277 2330 0.14426661227624929
1278 2330 0.019112219351713613
1279 2330 -0.3383340256558125
1280 2330 -0.26332006554483989
253 2331 -0
254 2331 -0
255 2331 -0
256 2331 -0
257 2331 -0
258 2331 -0
259 2331 -0
260 2331 -0
261 2331 -0.99509004789631994
262 2331 -0
263 2331 -0
264 2331 -0
265 2331 0
266 2331 0
267 2331 0
268 2331 0
269 2331 0
270 2331 0
271 2331 0
272 2331 0
273 2331 0
274 2331 0
275 2331 0
276 2331 0
1277 2331 -0.11462509557936003
1278 2331 -0.065598224589830417
1279 2331 0.12045547271290091
1280 2331 0.066735657880519217
253 2332 -0
254 2332 -0
255 2332 -0
256 2332 -0
257 2332 -0
258 2332 -0
259 2332 -0
260 2332 -0
261 2332 -0
262 2332 -0.99509004789631994
263 2332 -0
264 2332 -0
265 2332 0
266 2332 0
267 2332 0
268 2332 0
269 2332 0
270 2332 0
271 2332 0
272 2332 0
273 2332 0
274 2332 0
275 2332 0
276 2332 0
1277 2332 0.1112726701807888
1278 2332 -0.18163442438886057
1279 2332 -0.24934842404473068
1280 2332 0.087619788974651794
253 2333 -0
254 2333 -0
255 2333 -0
256 2333 -0
257 2333 -0
258 2333 -0
259 2333 -0
260 2333 -0
261 2333 -0
262 2333 -0
263 2333 -0.99509004789631994
264 2333 -0
265 2333 0
266 2333 0
267 2333 0
268 2333 0
269 2333 0
270 2333 0
271 2333 0
272 2333 0
273 2333 0
274 2333 0
275 2333 0
276 2333 0
1277 2333 0.0048220099123521959
1278 2333 -0.09230703811323461
1279 2333 -0.22028815111069383
1280 2333 -0.062540089363958593
253 2334 -0
254 2334 -0
255 2334 -0
256 2334 -0
257 2334 -0
258 2334 -0
259 2334 -0
260 2334 -0
261 2334 -0
262 2334 -0
263 2334 -0
264 2334 -0.99509004789631994
265 2334 0
266 2334 0
267 2334 0
268 2334 0
269 2334 0
270 2334 0
271 2334 0
272 2334 0
273 2334 0
274 2334 0
275 2334 0
276 2334 0
1277 2334 0.22589481330245723
1278 2334 0.085512196920050021
1279 2334 -0.209328877595194
1280 2334 0.014853171089538656
253 2335 0
254 2335 0
255 2335 0
256 2335 0
257 2335 0
258 2335 0
259 2335 0
260 2335 0
261 2335 0
262 2335 0
263 2335 0
264 2335 0
265 2335 0.99509004789631994
266 2335 0
267 2335 0
268 2335 0
269 2335 0
270 2335 0
271 2335 0
272 2335 0
273 2335 0
274 2335 0
275 2335 0
276 2335 0
1277 2335 0
1278 2335 0
1279 2335 0
1280 2335 0
253 2336 0
254 2336 0
255 2336 0
256 2336 0
257 2336 0
258 2336 0
259 2336 0
260 2336 0
261 2336 0
262 2336 0
263 2336 0
264 2336 0
265 2336 0
266 2336 0.99509004789631994
267 2336 0
268 2336 0
269 2336 0
270 2336 0
271 2336 0
272 2336 0
273 2336 0
274 2336 0
275 2336 0
276 2336 0
1277 2336 0
1278 2336 0
1279 2336 0
1280 2336 0
253 2337 0
254 2337 0
255 2337 0
256 2337 0
257 2337 0
258 2337 0
259 2337 0
260 2337 0
261 2337 0
262 2337 0
263 2337 0
264 2337 0
265 2337 0
266 2337 0
267 2337 0.99509004789631994
268 2337 0
269 2337 0
270 2337 0
271 2337 0
272 2337 0
273 2337 0
274 2337 0
275 2337 0
276 2337 0
1277 2337 0
1278 2337 0
1279 2337 0
1280 2337 0
253 2338 0
254 2338 0
255 2338 0
256 2338 0
257 2338 0
258 2338 0
259 2338 0
260 2338 0
261 2338 0
262 2338 0
263 2338 0
264 2338 0
265 2338 0
266 2338 0
267 2338 0
268 2338 0.99509004789631994
269 2338 0
270 2338 0
271 2338 0
272 2338 0
273 2338 0
274 2338 0
275 2338 0
276 2338 0
1277 2338 0
1278 2338 0
1279 2338 0
1280 2338 0
253 2339 0
254 2339 0
255 2339 0
256 2339 0
257 2339 0
258 2339 0
259 2339 0
260 2339 0
261 2339 0
262 2339 0
263 2339 0
264 2339 0
265 2339 0
266 2339 0
267 2339 0
268 2339 0
269 2339 0.99509004789631994
270 2339 0
271 2339 0
272 2339 0
273 2339 0
274 2339 0
275 2339 0
276 2339 0
1277 2339 0
1278 2339 0
1279 2339 0
1280 2339 0
253 2340 0
254 2340 0
255 2340 0
256 2340 0
257 2340 0
258 2340 0
259 2340 0
260 2340 0
261 2340 0
262 2340 0
263 2340 0
264 2340 0
265 2340 0
266 2340 0
267 2340 0
268 2340 0
269 2340 0
270 2340 0.99509004789631994
271 2340 0
272 2340 0
273 2340 0
274 2340 0
275 2340 0
276 2340 0
1277 2340 0
1278 2340 0
1279 2340 0
1280 2340 0
253 2341 0
254 2341 0
255 2341 0
256 2341 0
257 2341 0
258 2341 0
259 2341 0
260 2341 0
261 2341 0
262 2341 0
263 2341 0
264 2341 0
265 2341 0
266 2341 0
267 2341 0
268 2341 0
269 2341 0
270 2341 0
271 2341 0.99509004789631994
272 2341 0
273 2341 0
274 2341 0
275 2341 0
276 2341 0
1277 2341 0
1278 2341 0
1279 2341 0
1280 2341 0
253 2342 0
254 2342 0
255 2342 0
256 2342 0
257 2342 0
258 2342 0
259 2342 0
260 2342 0
261 2342 0
262 2342 0
263 2342 0
264 2342 0
265 2342 0
266 2342 0
267 2342 0
268 2342 0
269 2342 0
270 2342 0
271 2342 0
272 2342 0.99509004789631994
273 2342 0
274 2342 0
275 2342 0
276 2342 0
1277 2342 0
1278 2342 0
1279 2342 0
1280 2342 0
253 2343 0
254 2343 0
255 2343 0
256 2343 0
257 2343 0
258 2343 0
259 2343 0
260 2343 0
261 2343 0
262 2343 0
263 2343 0
264 2343 0
265 2343 0
266 2343 0
267 2343 0
268 2343 0
269 2343 0
270 2343 0
271 2343 0
272 2343 0
273 2343 0.99509004789631994
274 2343 0
275 2343 0
276 2343 0
1277 2343 0
1278 2343 0
1279 2343 0
1280 2343 0
253 2344 0
254 2344 0
255 2344 0
256 2344 0
257 2344 0
258 2344 0
259 2344 0
260 2344 0
261 2344 0
262 2344 0
263 2344 0
264 2344 0
265 2344 0
266 2344 0
267 2344 0
268 2344 0
269 2344 0
270 2344 0
271 2344 0
272 2344 0
273 2344 0
274 2344 0.99509004789631994
275 2344 0
276 2344 0
1277 2344 0
1278 2344 0
1279 2344 0
1280 2344 0
253 2345 0
254 2345 0
255 2345 0
256 2345 0
257 2345 0
258 2345 0
259 2345 0
260 2345 0
261 2345 0
262 2345 0
263 2345 0
264 2345 0
265 2345 0
266 2345 0
267 2345 0
268 2345 0
269 2345 0
270 2345 0
271 2345 0
272 2345 0
273 2345 0
274 2345 0
275 2345 0.99509004789631994
276 2345 0
1277 2345 0
1278 2345 0
1279 2345 0
1280 2345 0
253 2346 0
254 2346 0
255 2346 0
256 2346 0
257 2346 0
258 2346 0
259 2346 0
260 2346 0
261 2346 0
262 2346 0
263 2346 0
264 2346 0
265 2346 0
266 2346 0
267 2346 0
268 2346 0
269 2346 0
270 2346 0
271 2346 0
272 2346 0
273 2346 0
274 2346 0
275 2346 0
276 2346 0.99509004789631994
1277 2346 0
1278 2346 0
1279 2346 0
1280 2346 0
1273 2347 0
1274 2347 0
1275 2347 0
1276 2347 0
1614 2347 0
1273 2348 0.99878751991636638
1274 2348 0
1275 2348 0
1276 2348 0
1614 2348 0
1273 2349 0
1274 2349 0.99886974093913028
1275 2349 0
1276 2349 0
1614 2349 0
1273 2350 0
1274 2350 0
1275 2350 0.99859691322799182
1276 2350 0
1614 2350 0
1273 2351 0
1274 2351 0
1275 2351 0
1276 2351 0.99879118685427859
1614 2351 0
1273 2352 0
1274 2352 0
1275 2352 0
1276 2352 0
1614 2352 1
241 2353 -0.99509004789631994
242 2353 -0
243 2353 -0
244 2353 -0
245 2353 -0
246 2353 -0
247 2353 -0
248 2353 -0
249 2353 -0
250 2353 -0
251 2353 -0
252 2353 -0
253 2353 0
254 2353 0
255 2353 0
256 2353 0
257 2353 0
258 2353 0
259 2353 0
260 2353 0
261 2353 0
262 2353 0
263 2353 0
264 2353 0
1273 2353 -0.1803189598547551
1274 2353 -0.25584631152049064
1275 2353 -0.074765084896359371
1276 2353 -0.06244980534901011
241 2354 -0
242 2354 -0.99509004789631994
243 2354 -0
244 2354 -0
245 2354 -0
246 2354 -0
247 2354 -0
248 2354 -0
249 2354 -0
250 2354 -0
251 2354 -0
252 2354 -0
253 2354 0
254 2354 0
255 2354 0
256 2354 0
257 2354 0
258 2354 0
259 2354 0
260 2354 0
261 2354 0
262 2354 0
263 2354 0
264 2354 0
1273 2354 0.10820261428783474
1274 2354 0.080196783561304039
1275 2354 -0.016866001348705428
1276 2354 -0.17094248486675911
241 2355 -0
242 2355 -0
243 2355 -0.99509004789631994
244 2355 -0
245 2355 -0
246 2355 -0
247 2355 -0
248 2355 -0
249 2355 -0
250 2355 -0
251 2355 -0
252 2355 -0
253 2355 0
254 2355 0
255 2355 0
256 2355 0
257 2355 0
258 2355 0
259 2355 0
260 2355 0
261 2355 0
262 2355 0
263 2355 0
264 2355 0
1273 2355 0.021296203412182201
1274 2355 0.06379387941368389
1275 2355 0.33227429440027084
1276 2355 0.038055274961526345
241 2356 -0
242 2356 -0
243 2356 -0
244 2356 -0.99509004789631994
245 2356 -0
246 2356 -0
247 2356 -0
248 2356 -0
249 2356 -0
250 2356 -0
251 2356 -0
252 2356 -0
253 2356 0
254 2356 0
255 2356 0
256 2356 0
257 2356 0
258 2356 0
259 2356 0
260 2356 0
261 2356 0
262 2356 0
263 2356 0
264 2356 0
1273 2356 0.19846746771042395
1274 2356 0.13291349456905685
1275 2356 -0.11659569025066187
1276 2356 0.1709989853023412
241 2357 -0
242 2357 -0
243 2357 -0
244 2357 -0
245 2357 -0.99509004789631994
246 2357 -0
247 2357 -0
248 2357 -0
249 2357 -0
250 2357 -0
251 2357 -0
252 2357 -0
253 2357 0
254 2357 0
255 2357 0
256 2357 0
257 2357 0
258 2357 0
259 2357 0
260 2357 0
261 2357 0
262 2357 0
263 2357 0
264 2357 0
1273 2357 0.06406726430169403
1274 2357 0.0077975121873435499
1275 2357 -0.012888481757033089
1276 2357 0.1821584263174176
241 2358 -0
242 2358 -0
243 2358 -0
244 2358 -0
245 2358 -0
246 2358 -0.99509004789631994
247 2358 -0
248 2358 -0
249 2358 -0
250 2358 -0
251 2358 -0
252 2358 -0
253 2358 0
254 2358 0
255 2358 0
256 2358 0
257 2358 0
258 2358 0
259 2358 0
260 2358 0
261 2358 0
262 2358 0
263 2358 0
264 2358 0
1273 2358 0.14930176975937659
1274 2358 -0.1220518999462523
1275 2358 -0.21437482240798272
1276 2358 -0.27728111366749703
241 2359 -0
242 2359 -0
243 2359 -0
244 2359 -0
245 2359 -0
246 2359 -0
247 2359 -0.99509004789631994
248 2359 -0
249 2359 -0
250 2359 -0
251 2359 -0
252 2359 -0
253 2359 0
254 2359 0
255 2359 0
256 2359 0
257 2359 0
258 2359 0
259 2359 0
260 2359 0
261 2359 0
262 2359 0
263 2359 0
264 2359 0
1273 2359 -0.27832449100114248
1274 2359 -0.023030066571549251
1275 2359 0.085999904285044407
1276 2359 0.14042558666593874
241 2360 -0
242 2360 -0
243 2360 -0
244 2360 -0
245 2360 -0
246 2360 -0
247 2360 -0
248 2360 -0.99509004789631994
249 2360 -0
250 2360 -0
251 2360 -0
252 2360 -0
253 2360 0
254 2360 0
255 2360 0
256 2360 0
257 2360 0
258 2360 0
259 2360 0
260 2360 0
261 2360 0
262 2360 0
263 2360 0
264 2360 0
1273 2360 0.14426661227624929
1274 2360 0.019112219351713613
1275 2360 -0.3383340256558125
1276 2360 -0.26332006554483989
241 2361 -0
242 2361 -0
243 2361 -0
244 2361 -0
245 2361 -0
246 2361 -0
247 2361 -0
248 2361 -0
249 2361 -0.99509004789631994
250 2361 -0
251 2361 -0
252 2361 -0
253 2361 0
254 2361 0
255 2361 0
256 2361 0
257 2361 0
258 2361 0
259 2361 0
260 2361 0
261 2361 0
262 2361 0
263 2361 0
264 2361 0
1273 2361 -0.11462509557936003
1274 2361 -0.065598224589830417
1275 2361 0.12045547271290091
1276 2361 0.066735657880519217
241 2362 -0
242 2362 -0
243 2362 -0
244 2362 -0
245 2362 -0
246 2362 -0
247 2362 -0
248 2362 -0
249 2362 -0
250 2362 -0.99509004789631994
251 2362 -0
252 2362 -0
253 2362 0
254 2362 0
255 2362 0
256 2362 0
257 2362 0
258 2362 0
259 2362 0
260 2362 0
261 2362 0
262 2362 0
263 2362 0
264 2362 0
1273 2362 0.1112726701807888
1274 2362 -0.18163442438886057
1275 2362 -0.24934842404473068
1276 2362 0.087619788974651794
241 2363 -0
242 2363 -0
243 2363 -0
244 2363 -0
245 2363 -0
246 2363 -0
247 2363 -0
248 2363 -0
249 2363 -0
250 2363 -0
251 2363 -0.99509004789631994
252 2363 -0
253 2363 0
254 2363 0
255 2363 0
256 2363 0
257 2363 0
258 2363 0
259 2363 0
260 2363 0
261 2363 0
262 2363 0
263 2363 0
264 2363 0
1273 2363 0.0048220099123521959
1274 2363 -0.09230703811323461
1275 2363 -0.22028815111069383
1276 2363 -0.062540089363958593
241 2364 -0
242 2364 -0
243 2364 -0
244 2364 -0
245 2364 -0
246 2364 -0
247 2364 -0
248 2364 -0
249 2364 -0
250 2364 -0
251 2364 -0
252 2364 -0.99509004789631994
253 2364 0
254 2364 0
255 2364 0
256 2364 0
257 2364 0
258 2364 0
259 2364 0
260 2364 0
261 2364 0
262 2364 0
263 2364 0
264 2364 0
1273 2364 0.22589481330245723
1274 2364 0.085512196920050021
1275 2364 -0.209328877595194
1276 2364 0.014853171089538656
241 2365 0
242 2365 0
243 2365 0
244 2365 0
245 2365 0
246 2365 0
247 2365 0
248 2365 0
249 2365 0
250 2365 0
251 2365 0
252 2365 0
253 2365 0.99509004789631994
254 2365 0
255 2365 0
256 2365 0
257 2365 0
258 2365 0
259 2365 0
260 2365 0
261 2365 0
262 2365 0
263 2365 0
264 2365 0
1273 2365 0
1274 2365 0
1275 2365 0
1276 2365 0
241 2366 0
242 2366 0
243 2366 0
244 2366 0
245 2366 0
246 2366 0
247 2366 0
248 2366 0
249 2366 0
250 2366 0
251 2366 0
252 2366 0
253 2366 0
254 2366 0.99509004789631994
255 2366 0
256 2366 0
257 2366 0
258 2366 0
259 2366 0
260 2366 0
261 2366 0
262 2366 0
263 2366 0
264 2366 0
1273 2366 0
1274 2366 0
1275 2366 0
1276 2366 0
241 2367 0
242 2367 0
243 2367 0
244 2367 0
245 2367 0
246 2367 0
247 2367 0
248 2367 0
249 2367 0
250 2367 0
251 2367 0
252 2367 0
253 2367 0
254 2367 0
255 2367 0.99509004789631994
256 2367 0
257 2367 0
258 2367 0
259 2367 0
260 2367 0
261 2367 0
262 2367 0
263 2367 0
264 2367 0
1273 2367 0
1274 2367 0
1275 2367 0
1276 2367 0
241 2368 0
242 2368 0
243 2368 0
244 2368 0
245 2368 0
246 2368 0
247 2368 0
248 2368 0
249 2368 0
250 2368 0
251 2368 0
252 2368 0
253 2368 0
254 2368 0
255 2368 0
256 2368 0.99509004789631994
257 2368 0
258 2368 0
259 2368 0
260 2368 0
261 2368 0
262 2368 0
263 2368 0
264 2368 0
1273 2368 0
1274 2368 0
1275 2368 0
1276 2368 0
241 2369 0
242 2369 0
243 2369 0
244 2369 0
245 2369 0
246 2369 0
247 2369 0
248 2369 0
249 2369 0
250 2369 0
251 2369 0
252 2369 0
253 2369 0
254 2369 0
255 2369 0
256 2369 0
257 2369 0.99509004789631994
258 2369 0
259 2369 0
260 2369 0
261 2369 0
262 2369 0
263 2369 0
264 2369 0
1273 2369 0
1274 2369 0
1275 2369 0
1276 2369 0
241 2370 0
242 2370 0
243 2370 0
244 2370 0
245 2370 0
246 2370 0
247 2370 0
248 2370 0
249 2370 0
250 2370 0
251 2370 0
252 2370 0
253 2370 0
254 2370 0
255 2370 0
256 2370 0
257 2370 0
258 2370 0.99509004789631994
259 2370 0
260 2370 0
261 2370 0
262 2370 0
263 2370 0
264 2370 0
1273 2370 0
1274 2370 0
1275 2370 0
1276 2370 0
241 2371 0
242 2371 0
243 2371 0
244 2371 0
245 2371 0
246 2371 0
247 2371 0
248 2371 0
249 2371 0
250 2371 0
251 2371 0
252 2371 0
253 2371 0
254 2371 0
255 2371 0
256 2371 0
257 2371 0
258 2371 0
259 2371 0.99509004789631994
260 2371 0
261 2371 0
262 2371 0
263 2371 0
264 2371 0
1273 2371 0
1274 2371 0
1275 2371 0
1276 2371 0
241 2372 0
242 2372 0
243 2372 0
244 2372 0
245 2372 0
246 2372 0
247 2372 0
248 2372 0
249 2372 0
250 2372 0
251 2372 0
252 2372 0
253 2372 0
254 2372 0
255 2372 0
256 2372 0
257 2372 0
258 2372 0
259 2372 0
260 2372 0.99509004789631994
261 2372 0
262 2372 0
263 2372 0
264 2372 0
1273 2372 0
1274 2372 0
1275 2372 0
1276 2372 0
241 2373 0
242 2373 0
243 2373 0
244 2373 0
245 2373 0
246 2373 0
247 2373 0
248 2373 0
249 2373 0
250 2373 0
251 2373 0
252 2373 0
253 2373 0
254 2373 0
255 2373 0
256 2373 0
257 2373 0
258 2373 0
259 2373 0
260 2373 0
261 2373 0.99509004789631994
262 2373 0
263 2373 0
264 2373 0
1273 2373 0
1274 2373 0
1275 2373 0
1276 2373 0
241 2374 0
242 2374 0
243 2374 0
244 2374 0
245 2374 0
246 2374 0
247 2374 0
248 2374 0
249 2374 0
250 2374 0
251 2374 0
252 2374 0
253 2374 0
254 2374 0
255 2374 0
256 2374 0
257 2374 0
258 2374 0
259 2374 0
260 2374 0
261 2374 0
262 2374 0.99509004789631994
263 2374 0
264 2374 0
1273 2374 0
1274 2374 0
1275 2374 0
1276 2374 0
241 2375 0
242 2375 0
243 2375 0
244 2375 0
245 2375 0
246 2375 0
247 2375 0
248 2375 0
249 2375 0
250 2375 0
251 2375 0
252 2375 0
253 2375 0
254 2375 0
255 2375 0
256 2375 0
257 2375 0
258 2375 0
259 2375 0
260 2375 0
261 2375 0
262 2375 0
263 2375 0.99509004789631994
264 2375 0
1273 2375 0
1274 2375 0
1275 2375 0
1276 2375 0
241 2376 0
242 2376 0
243 2376 0
244 2376 0
245 2376 0
246 2376 0
247 2376 0
248 2376 0
249 2376 0
250 2376 0
251 2376 0
252 2376 0
253 2376 0
254 2376 0
255 2376 0
256 2376 0
257 2376 0
258 2376 0
259 2376 0
260 2376 0
261 2376 0
262 2376 0
263 2376 0
264 2376 0.99509004789631994
1273 2376 0
1274 2376 0
1275 2376 0
1276 2376 0
1269 2377 0
1270 2377 0
1271 2377 0
1272 2377 0
1613 2377 0
1269 2378 0.99878751991636638
1270 2378 0
1271 2378 0
1272 2378 0
1613 2378 0
1269 2379 0
1270 2379 0.99886974093913028
1271 2379 0
1272 2379 0
1613 2379 0
1269 2380 0
1270 2380 0
1271 2380 0.99859691322799182
1272 2380 0
1613 2380 0
1269 2381 0
1270 2381 0
1271 2381 0
1272 2381 0.99879118685427859
1613 2381 0
1269 2382 0
1270 2382 0
1271 2382 0
1272 2382 0
1613 2382 1
229 2383 -0.99509004789631994
230 2383 -0
231 2383 -0
232 2383 -0
233 2383 -0
234 2383 -0
235 2383 -0
236 2383 -0
237 2383 -0
238 2383 -0
239 2383 -0
240 2383 -0
241 2383 0
242 2383 0
243 2383 0
244 2383 0
245 2383 0
246 2383 0
247 2383 0
248 2383 0
249 2383 0
250 2383 0
251 2383 0
252 2383 0
1269 2383 -0.1803189598547551
1270 2383 -0.25584631152049064
1271 2383 -0.074765084896359371
1272 2383 -0.06244980534901011
229 2384 -0
230 2384 -0.99509004789631994
231 2384 -0
232 2384 -0
233 2384 -0
234 2384 -0
235 2384 -0
236 2384 -0
237 2384 -0
238 2384 -0
239 2384 -0
240 2384 -0
241 2384 0
242 2384 0
243 2384 0
244 2384 0
245 2384 0
246 2384 0
247 2384 0
248 2384 0
249 2384 0
250 2384 0
251 2384 0
252 2384 0
1269 2384 0.10820261428783474
1270 2384 0.080196783561304039
1271 2384 -0.016866001348705428
1272 2384 -0.17094248486675911
229 2385 -0
230 2385 -0
231 2385 -0.99509004789631994
232 2385 -0
233 2385 -0
234 2385 -0
235 2385 -0
236 2385 -0
237 2385 -0
238 2385 -0
239 2385 -0
240 2385 -0
241 2385 0
242 2385 0
243 2385 0
244 2385 0
245 2385 0
246 2385 0
247 2385 0
248 2385 0
249 2385 0
250 2385 0
251 2385 0
252 2385 0
1269 2385 0.021296203412182201
1270 2385 0.06379387941368389
1271 2385 0.33227429440027084
1272 2385 0.038055274961526345
229 2386 -0
230 2386 -0
231 2386 -0
232 2386 -0.99509004789631994
233 2386 -0
234 2386 -0
235 2386 -0
236 2386 -0
237 2386 -0
238 2386 -0
239 2386 -0
240 2386 -0
241 2386 0
242 2386 0
243 2386 0
244 2386 0
245 2386 0
246 2386 0
247 2386 0
248 2386 0
249 2386 0
250 2386 0
251 2386 0
252 2386 0
1269 2386 0.19846746771042395
1270 2386 0.13291349456905685
1271 2386 -0.11659569025066187
1272 2386 0.1709989853023412
229 2387 -0
230 2387 -0
231 2387 -0
232 2387 -0
233 2387 -0.99509004789631994
234 2387 -0
235 2387 -0
236 2387 -0
237 2387 -0
238 2387 -0
239 2387 -0
240 2387 -0
241 2387 0
242 2387 0
243 2387 0
244 2387 0
245 2387 0
246 2387 0
247 2387 0
248 2387 0
249 2387 0
250 2387 0
251 2387 0
252 2387 0
1269 2387 0.06406726430169403
1270 2387 0.0077975121873435499
1271 2387 -0.012888481757033089
1272 2387 0.1821584263174176
229 2388 -0
230 2388 -0
231 2388 -0
232 2388 -0
233 2388 -0
234 2388 -0.99509004789631994
235 2388 -0
236 2388 -0
237 2388 -0
238 2388 -0
239 2388 -0
240 2388 -0
241 2388 0
242 2388 0
243 2388 0
244 2388 0
245 2388 0
246 2388 0
247 2388 0
248 2388 0
249 2388 0
250 2388 0
251 2388 0
252 2388 0
1269 2388 0.14930176975937659
1270 2388 -0.1220518999462523
1271 2388 -0.21437482240798272
1272 2388 -0.27728111366749703
229 2389 -0
230 2389 -0
231 2389 -0
232 2389 -0
233 2389 -0
234 2389 -0
235 2389 -0.99509004789631994
236 2389 -0
237 2389 -0
238 2389 -0
239 2389 -0
240 2389 -0
241 2389 0
242 2389 0
243 2389 0
244 2389 0
245 2389 0
246 2389 0
247 2389 0
248 2389 0
249 2389 0
250 2389 0
251 2389 0
252 2389 0
1269 2389 -0.27832449100114248
1270 2389 -0.023030066571549251
1271 2389 0.085999904285044407
1272 2389 0.14042558666593874
229 2390 -0
230 2390 -0
231 2390 -0
232 2390 -0
233 2390 -0
234 2390 -0
235 2390 -0
236 2390 -0.99509004789631994
237 2390 -0
238 2390 -0
239 2390 -0
240 2390 -0
241 2390 0
242 2390 0
243 2390 0
244 2390 0
245 2390 0
246 2390 0
247 2390 0
248 2390 0
249 2390 0
250 2390 0
251 2390 0
252 2390 0
1269 2390 0.14426661227624929
1270 2390 0.019112219351713613
1271 2390 -0.3383340256558125
1272 2390 -0.26332006554483989
229 2391 -0
230 2391 -0
231 2391 -0
232 2391 -0
233 2391 -0
234 2391 -0
235 2391 -0
236 2391 -0
237 2391 -0.99509004789631994
238 2391 -0
239 2391 -0
240 2391 -0
241 2391 0
242 2391 0
243 2391 0
244 2391 0
245 2391 0
246 2391 0
247 2391 0
248 2391 0
249 2391 0
250 2391 0
251 2391 0
252 2391 0
1269 2391 -0.11462509557936003
1270 2391 -0.065598224589830417
1271 2391 0.12045547271290091
1272 2391 0.066735657880519217
229 2392 -0
230 2392 -0
231 2392 -0
232 2392 -0
233 2392 -0
234 2392 -0
235 2392 -0
236 2392 -0
237 2392 -0
238 2392 -0.99509004789631994
239 2392 -0
240 2392 -0
241 2392 0
242 2392 0
243 2392 0
244 2392 0
245 2392 0
246 2392 0
247 2392 0
248 2392 0
249 2392 0
250 2392 0
251 2392 0
252 2392 0
1269 2392 0.1112726701807888
1270 2392 -0.18163442438886057
1271 2392 -0.24934842404473068
1272 2392 0.087619788974651794
229 2393 -0
230 2393 -0
231 2393 -0
232 2393 -0
233 2393 -0
234 2393 -0
235 2393 -0
236 2393 -0
237 2393 -0
238 2393 -0
239 2393 -0.99509004789631994
240 2393 -0
241 2393 0
242 2393 0
243 2393 0
244 2393 0
245 2393 0
246 2393 0
247 2393 0
248 2393 0
249 2393 0
250 2393 0
251 2393 0
252 2393 0
1269 2393 0.0048220099123521959
1270 2393 -0.09230703811323461
1271 2393 -0.22028815111069383
1272 2393 -0.062540089363958593
229 2394 -0
230 2394 -0
231 2394 -0
232 2394 -0
233 2394 -0
234 2394 -0
235 2394 -0
236 2394 -0
237 2394 -0
238 2394 -0
239 2394 -0
240 2394 -0.99509004789631994
241 2394 0
242 2394 0
243 2394 0
244 2394 0
245 2394 0
246 2394 0
247 2394 0
248 2394 0
249 2394 0
250 2394 0
251 2394 0
252 2394 0
1269 2394 0.22589481330245723
1270 2394 0.085512196920050021
1271 2394 -0.209328877595194
1272 2394 0.014853171089538656
229 2395 0
230 2395 0
231 2395 0
232 2395 0
233 2395 0
234 2395 0
235 2395 0
236 2395 0
237 2395 0
238 2395 0
239 2395 0
240 2395 0
241 2395 0.99509004789631994
242 2395 0
243 2395 0
244 2395 0
245 2395 0
246 2395 0
247 2395 0
248 2395 0
249 2395 0
250 2395 0
251 2395 0
252 2395 0
1269 2395 0
1270 2395 0
1271 2395 0
1272 2395 0
229 2396 0
230 2396 0
231 2396 0
232 2396 0
233 2396 0
234 2396 0
235 2396 0
236 2396 0
237 2396 0
238 2396 0
239 2396 0
240 2396 0
241 2396 0
242 2396 0.99509004789631994
243 2396 0
244 2396 0
245 2396 0
246 2396 0
247 2396 0
248 2396 0
249 2396 0
250 2396 0
251 2396 0
252 2396 0
1269 2396 0
1270 2396 0
1271 2396 0
1272 2396 0
229 2397 0
230 2397 0
231 2397 0
232 2397 0
233 2397 0
234 2397 0
235 2397 0
236 2397 0
237 2397 0
238 2397 0
239 2397 0
240 2397 0
241 2397 0
242 2397 0
243 2397 0.99509004789631994
244 2397 0
245 2397 0
246 2397 0
247 2397 0
248 2397 0
249 2397 0
250 2397 0
251 2397 0
252 2397 0
1269 2397 0
1270 2397 0
1271 2397 0
1272 2397 0
229 2398 0
230 2398 0
231 2398 0
232 2398 0
233 2398 0
234 2398 0
235 2398 0
236 2398 0
237 2398 0
238 2398 0
239 2398 0
240 2398 0
241 2398 0
242 2398 0
243 2398 0
244 2398 0.99509004789631994
245 2398 0
246 2398 0
247 2398 0
248 2398 0
249 2398 0
250 2398 0
251 2398 0
252 2398 0
1269 2398 0
1270 2398 0
1271 2398 0
1272 2398 0
229 2399 0
230 2399 0
231 2399 0
232 2399 0
233 2399 0
234 2399 0
235 2399 0
236 2399 0
237 2399 0
238 2399 0
239 2399 0
240 2399 0
241 2399 0
242 2399 0
243 2399 0
244 2399 0
245 2399 0.99509004789631994
246 2399 0
247 2399 0
248 2399 0
249 2399 0
250 2399 0
251 2399 0
252 2399 0
1269 2399 0
1270 2399 0
1271 2399 0
1272 2399 0
229 2400 0
230 2400 0
231 2400 0
232 2400 0
233 2400 0
234 2400 0
235 2400 0
236 2400 0
237 2400 0
238 2400 0
239 2400 0
240 2400 0
241 2400 0
242 2400 0
243 2400 0
244 2400 0
245 2400 0
246 2400 0.99509004789631994
247 2400 0
248 2400 0
249 2400 0
250 2400 0
251 2400 0
252 2400 0
1269 2400 0
1270 2400 0
1271 2400 0
1272 2400 0
229 2401 0
230 2401 0
231 2401 0
232 2401 0
233 2401 0
234 2401 0
235 2401 0
236 2401 0
237 2401 0
238 2401 0
239 2401 0
240 2401 0
241 2401 0
242 2401 0
243 2401 0
244 2401 0
245 2401 0
246 2401 0
247 2401 0.99509004789631994
248 2401 0
249 2401 0
250 2401 0
251 2401 0
252 2401 0
1269 2401 0
1270 2401 0
1271 2401 0
1272 2401 0
229 2402 0
230 2402 0
231 2402 0
232 2402 0
233 2402 0
234 2402 0
235 2402 0
236 2402 0
237 2402 0
238 2402 0
239 2402 0
240 2402 0
241 2402 0
242 2402 0
243 2402 0
244 2402 0
245 2402 0
246 2402 0
247 2402 0
248 2402 0.99509004789631994
249 2402 0
250 2402 0
251 2402 0
252 2402 0
1269 2402 0
1270 2402 0
1271 2402 0
1272 2402 0
229 2403 0
230 2403 0
231 2403 0
232 2403 0
233 2403 0
234 2403 0
235 2403 0
236 2403 0
237 2403 0
238 2403 0
239 2403 0
240 2403 0
241 2403 0
242 2403 0
243 2403 0
244 2403 0
245 2403 0
246 2403 0
247 2403 0
248 2403 0
249 2403 0.99509004789631994
250 2403 0
251 2403 0
252 2403 0
1269 2403 0
1270 2403 0
1271 2403 0
1272 2403 0
229 2404 0
230 2404 0
231 2404 0
232 2404 0
233 2404 0
234 2404 0
235 2404 0
236 2404 0
237 2404 0
238 2404 0
239 2404 0
240 2404 0
241 2404 0
242 2404 0
243 2404 0
244 2404 0
245 2404 0
246 2404 0
247 2404 0
248 2404 0
249 2404 0
250 2404 0.99509004789631994
251 2404 0
252 2404 0
1269 2404 0
1270 2404 0
1271 2404 0
1272 2404 0
229 2405 0
230 2405 0
231 2405 0
232 2405 0
233 2405 0
234 2405 0
235 2405 0
236 2405 0
237 2405 0
238 2405 0
239 2405 0
240 2405 0
241 2405 0
242 2405 0
243 2405 0
244 2405 0
245 2405 0
246 2405 0
247 2405 0
248 2405 0
249 2405 0
250 2405 0
251 2405 0.99509004789631994
252 2405 0
1269 2405 0
1270 2405 0
1271 2405 0
1272 2405 0
229 2406 0
230 2406 0
231 2406 0
232 2406 0
233 2406 0
234 2406 0
235 2406 0
236 2406 0
237 2406 0
238 2406 0
239 2406 0
240 2406 0
241 2406 0
242 2406 0
243 2406 0
244 2406 0
245 2406 0
246 2406 0
247 2406 0
248 2406 0
249 2406 0
250 2406 0
251 2406 0
252 2406 0.99509004789631994
1269 2406 0
1270 2406 0
1271 2406 0
1272 2406 0
1265 2407 0
1266 2407 0
1267 2407 0
1268 2407 0
1612 2407 0
1265 2408 0.99878751991636638
1266 2408 0
1267 2408 0
1268 2408 0
1612 2408 0
1265 2409 0
1266 2409 0.99886974093913028
1267 2409 0
1268 2409 0
1612 2409 0
1265 2410 0
1266 2410 0
1267 2410 0.99859691322799182
1268 2410 0
1612 2410 0
1265 2411 0
1266 2411 0
1267 2411 0
1268 2411 0.99879118685427859
1612 2411 0
1265 2412 0
1266 2412 0
1267 2412 0
1268 2412 0
1612 2412 1
217 2413 -0.99509004789631994
218 2413 -0
219 2413 -0
220 2413 -0
221 2413 -0
222 2413 -0
223 2413 -0
224 2413 -0
225 2413 -0
226 2413 -0
227 2413 -0
228 2413 -0
229 2413 0
230 2413 0
231 2413 0
232 2413 0
233 2413 0
234 2413 0
235 2413 0
236 2413 0
237 2413 0
238 2413 0
239 2413 0
240 2413 0
1265 2413 -0.1803189598547551
1266 2413 -0.25584631152049064
1267 2413 -0.074765084896359371
1268 2413 -0.06244980534901011
217 2414 -0
218 2414 -0.99509004789631994
219 2414 -0
220 2414 -0
221 2414 -0
222 2414 -0
223 2414 -0
224 2414 -0
225 2414 -0
226 2414 -0
227 2414 -0
228 2414 -0
229 2414 0
230 2414 0
231 2414 0
232 2414 0
233 2414 0
234 2414 0
235 2414 0
236 2414 0
237 2414 0
238 2414 0
239 2414 0
240 2414 0
1265 2414 0.10820261428783474
1266 2414 0.080196783561304039
1267 2414 -0.016866001348705428
1268 2414 -0.17094248486675911
217 2415 -0
218 2415 -0
219 2415 -0.99509004789631994
220 2415 -0
221 2415 -0
222 2415 -0
223 2415 -0
224 2415 -0
225 2415 -0
226 2415 -0
227 2415 -0
228 2415 -0
229 2415 0
230 2415 0
231 2415 0
232 2415 0
233 2415 0
234 2415 0
235 2415 0
236 2415 0
237 2415 0
238 2415 0
239 2415 0
240 2415 0
1265 2415 0.021296203412182201
1266 2415 0.06379387941368389
1267 2415 0.33227429440027084
1268 2415 0.038055274961526345
217 2416 -0
218 2416 -0
219 2416 -0
220 2416 -0.99509004789631994
221 2416 -0
222 2416 -0
223 2416 -0
224 2416 -0
225 2416 -0
226 2416 -0
227 2416 -0
228 2416 -0
229 2416 0
230 2416 0
231 2416 0
232 2416 0
233 2416 0
234 2416 0
235 2416 0
236 2416 0
237 2416 0
238 2416 0
239 2416 0
240 2416 0
1265 2416 0.19846746771042395
1266 2416 0.13291349456905685
1267 2416 -0.11659569025066187
1268 2416 0.1709989853023412
217 2417 -0
218 2417 -0
219 2417 -0
220 2417 -0
221 2417 -0.99509004789631994
222 2417 -0
223 2417 -0
224 2417 -0
225 2417 -0
226 2417 -0
227 2417 -0
228 2417 -0
229 2417 0
230 2417 0
231 2417 0
232 2417 0
233 2417 0
234 2417 0
235 2417 0
236 2417 0
237 2417 0
238 2417 0
239 2417 0
240 2417 0
1265 2417 0.06406726430169403
1266 2417 0.0077975121873435499
1267 2417 -0.012888481757033089
1268 2417 0.1821584263174176
217 2418 -0
218 2418 -0
219 2418 -0
220 2418 -0
221 2418 -0
222 2418 -0.99509004789631994
223 2418 -0
224 2418 -0
225 2418 -0
226 2418 -0
227 2418 -0
228 2418 -0
229 2418 0
230 2418 0
231 2418 0
232 2418 0
233 2418 0
234 2418 0
235 2418 0
236 2418 0
237 2418 0
238 2418 0
239 2418 0
240 2418 0
1265 2418 0.14930176975937659
1266 2418 -0.1220518999462523
1267 2418 -0.21437482240798272
1268 2418 -0.27728111366749703
217 2419 -0
218 2419 -0
219 2419 -0
220 2419 -0
221 2419 -0
222 2419 -0
223 2419 -0.99509004789631994
224 2419 -0
225 2419 -0
226 2419 -0
227 2419 -0
228 2419 -0
229 2419 0
230 2419 0
231 2419 0
232 2419 0
233 2419 0
234 2419 0
235 2419 0
236 2419 0
237 2419 0
238 2419 0
239 2419 0
240 2419 0
1265 2419 -0.27832449100114248
1266 2419 -0.023030066571549251
1267 2419 0.085999904285044407
1268 2419 0.14042558666593874
217 2420 -0
218 2420 -0
219 2420 -0
220 2420 -0
221 2420 -0
222 2420 -0
223 2420 -0
224 2420 -0.99509004789631994
225 2420 -0
226 2420 -0
227 2420 -0
228 2420 -0
229 2420 0
230 2420 0
231 2420 0
232 2420 0
233 2420 0
234 2420 0
235 2420 0
236 2420 0
237 2420 0
238 2420 0
239 2420 0
240 2420 0
1265 2420 0.14426661227624929
1266 2420 0.019112219351713613
1267 2420 -0.3383340256558125
1268 2420 -0.26332006554483989
217 2421 -0
218 2421 -0
219 2421 -0
220 2421 -0
221 2421 -0
222 2421 -0
223 2421 -0
224 2421 -0
225 2421 -0.99509004789631994
226 2421 -0
227 2421 -0
228 2421 -0
229 2421 0
230 2421 0
231 2421 0
232 2421 0
233 2421 0
234 2421 0
235 2421 0
236 2421 0
237 2421 0
238 2421 0
239 2421 0
240 2421 0
1265 2421 -0.11462509557936003
1266 2421 -0.065598224589830417
1267 2421 0.12045547271290091
1268 2421 0.066735657880519217
217 2422 -0
218 2422 -0
219 2422 -0
220 2422 -0
221 2422 -0
222 2422 -0
223 2422 -0
224 2422 -0
225 2422 -0
226 2422 -0.99509004789631994
227 2422 -0
228 2422 -0
229 2422 0
230 2422 0
231 2422 0
232 2422 0
233 2422 0
234 2422 0
235 2422 0
236 2422 0
237 2422 0
238 2422 0
239 2422 0
240 2422 0
1265 2422 0.1112726701807888
1266 2422 -0.18163442438886057
1267 2422 -0.24934842404473068
1268 2422 0.087619788974651794
217 2423 -0
218 2423 -0
219 2423 -0
220 2423 -0
221 2423 -0
222 2423 -0
223 2423 -0
224 2423 -0
225 2423 -0
226 2423 -0
227 2423 -0.99509004789631994
228 2423 -0
229 2423 0
230 2423 0
231 2423 0
232 2423 0
233 2423 0
234 2423 0
235 2423 0
236 2423 0
237 2423 0
238 2423 0
239 2423 0
240 2423 0
1265 2423 0.0048220099123521959
1266 2423 -0.09230703811323461
1267 2423 -0.22028815111069383
1268 2423 -0.062540089363958593
217 2424 -0
218 2424 -0
219 2424 -0
220 2424 -0
221 2424 -0
222 2424 -0
223 2424 -0
224 2424 -0
225 2424 -0
226 2424 -0
227 2424 -0
228 2424 -0.99509004789631994
229 2424 0
230 2424 0
231 2424 0
232 2424 0
233 2424 0
234 2424 0
235 2424 0
236 2424 0
237 2424 0
238 2424 0
239 2424 0
240 2424 0
1265 2424 0.22589481330245723
1266 2424 0.085512196920050021
1267 2424 -0.209328877595194
1268 2424 0.014853171089538656
217 2425 0
218 2425 0
219 2425 0
220 2425 0
221 2425 0
222 2425 0
223 2425 0
224 2425 0
225 2425 0
226 2425 0
227 2425 0
228 2425 0
229 2425 0.99509004789631994
230 2425 0
231 2425 0
232 2425 0
233 2425 0
234 2425 0
235 2425 0
236 2425 0
237 2425 0
238 2425 0
239 2425 0
240 2425 0
1265 2425 0
1266 2425 0
1267 2425 0
1268 2425 0
217 2426 0
218 2426 0
219 2426 0
220 2426 0
221 2426 0
222 2426 0
223 2426 0
224 2426 0
225 2426 0
226 2426 0
227 2426 0
228 2426 0
229 2426 0
230 2426 0.99509004789631994
231 2426 0
232 2426 0
233 2426 0
234 2426 0
235 2426 0
236 2426 0
237 2426 0
238 2426 0
239 2426 0
240 2426 0
1265 2426 0
1266 2426 0
1267 2426 0
1268 2426 0
217 2427 0
218 2427 0
219 2427 0
220 2427 0
221 2427 0
222 2427 0
223 2427 0
224 2427 0
225 2427 0
226 2427 0
227 2427 0
228 2427 0
229 2427 0
230 2427 0
231 2427 0.99509004789631994
232 2427 0
233 2427 0
234 2427 0
235 2427 0
236 2427 0
237 2427 0
238 2427 0
239 2427 0
240 2427 0
1265 2427 0
1266 2427 0
1267 2427 0
1268 2427 0
217 2428 0
218 2428 0
219 2428 0
220 2428 0
221 2428 0
222 2428 0
223 2428 0
224 2428 0
225 2428 0
226 2428 0
227 2428 0
228 2428 0
229 2428 0
230 2428 0
231 2428 0
232 2428 0.99509004789631994
233 2428 0
234 2428 0
235 2428 0
236 2428 0
237 2428 0
238 2428 0
239 2428 0
240 2428 0
1265 2428 0
1266 2428 0
1267 2428 0
1268 2428 0
217 2429 0
218 2429 0
219 2429 0
220 2429 0
221 2429 0
222 2429 0
223 2429 0
224 2429 0
225 2429 0
226 2429 0
227 2429 0
228 2429 0
229 2429 0
230 2429 0
231 2429 0
232 2429 0
233 2429 0.99509004789631994
234 2429 0
235 2429 0
236 2429 0
237 2429 0
238 2429 0
239 2429 0
240 2429 0
1265 2429 0
1266 2429 0
1267 2429 0
1268 2429 0
217 2430 0
218 2430 0
219 2430 0
220 2430 0
221 2430 0
222 2430 0
223 2430 0
224 2430 0
225 2430 0
226 2430 0
227 2430 0
228 2430 0
229 2430 0
230 2430 0
231 2430 0
232 2430 0
233 2430 0
234 2430 0.99509004789631994
235 2430 0
236 2430 0
237 2430 0
238 2430 0
239 2430 0
240 2430 0
1265 2430 0
1266 2430 0
1267 2430 0
1268 2430 0
217 2431 0
218 2431 0
219 2431 0
220 2431 0
221 2431 0
222 2431 0
223 2431 0
224 2431 0
225 2431 0
226 2431 0
227 2431 0
228 2431 0
229 2431 0
230 2431 0
231 2431 0
232 2431 0
233 2431 0
234 2431 0
235 2431 0.99509004789631994
236 2431 0
237 2431 0
238 2431 0
239 2431 0
240 2431 0
1265 2431 0
1266 2431 0
1267 2431 0
1268 2431 0
217 2432 0
218 2432 0
219 2432 0
220 2432 0
221 2432 0
222 2432 0
223 2432 0
224 2432 0
225 2432 0
226 2432 0
227 2432 0
228 2432 0
229 2432 0
230 2432 0
231 2432 0
232 2432 0
233 2432 0
234 2432 0
235 2432 0
236 2432 0.99509004789631994
237 2432 0
238 2432 0
239 2432 0
240 2432 0
1265 2432 0
1266 2432 0
1267 2432 0
1268 2432 0
217 2433 0
218 2433 0
219 2433 0
220 2433 0
221 2433 0
222 2433 0
223 2433 0
224 2433 0
225 2433 0
226 2433 0
227 2433 0
228 2433 0
229 2433 0
230 2433 0
231 2433 0
232 2433 0
233 2433 0
234 2433 0
235 2433 0
236 2433 0
237 2433 0.99509004789631994
238 2433 0
239 2433 0
240 2433 0
1265 2433 0
1266 2433 0
1267 2433 0
1268 2433 0
217 2434 0
218 2434 0
219 2434 0
220 2434 0
221 2434 0
222 2434 0
223 2434 0
224 2434 0
225 2434 0
226 2434 0
227 2434 0
228 2434 0
229 2434 0
230 2434 0
231 2434 0
232 2434 0
233 2434 0
234 2434 0
235 2434 0
236 2434 0
237 2434 0
238 2434 0.99509004789631994
239 2434 0
240 2434 0
1265 2434 0
1266 2434 0
1267 2434 0
1268 2434 0
217 2435 0
218 2435 0
219 2435 0
220 2435 0
221 2435 0
222 2435 0
223 2435 0
224 2435 0
225 2435 0
226 2435 0
227 2435 0
228 2435 0
229 2435 0
230 2435 0
231 2435 0
232 2435 0
233 2435 0
234 2435 0
235 2435 0
236 2435 0
237 2435 0
238 2435 0
239 2435 0.99509004789631994
240 2435 0
1265 2435 0
1266 2435 0
1267 2435 0
1268 2435 0
217 2436 0
218 2436 0
219 2436 0
220 2436 0
221 2436 0
222 2436 0
223 2436 0
224 2436 0
225 2436 0
226 2436 0
227 2436 0
228 2436 0
229 2436 0
230 2436 0
231 2436 0
232 2436 0
233 2436 0
234 2436 0
235 2436 0
236 2436 0
237 2436 0
238 2436 0
239 2436 0
240 2436 0.99509004789631994
1265 2436 0
1266 2436 0
1267 2436 0
1268 2436 0
1261 2437 0
1262 2437 0
1263 2437 0
1264 2437 0
1611 2437 0
1261 2438 0.99878751991636638
1262 2438 0
1263 2438 0
1264 2438 0
1611 2438 0
1261 2439 0
1262 2439 0.99886974093913028
1263 2439 0
1264 2439 0
1611 2439 0
1261 2440 0
1262 2440 0
1263 2440 0.99859691322799182
1264 2440 0
1611 2440 0
1261 2441 0
1262 2441 0
1263 2441 0
1264 2441 0.99879118685427859
1611 2441 0
1261 2442 0
1262 2442 0
1263 2442 0
1264 2442 0
1611 2442 1
205 2443 -0.99509004789631994
206 2443 -0
207 2443 -0
208 2443 -0
209 2443 -0
210 2443 -0
211 2443 -0
212 2443 -0
213 2443 -0
214 2443 -0
215 2443 -0
216 2443 -0
217 2443 0
218 2443 0
219 2443 0
220 2443 0
221 2443 0
222 2443 0
223 2443 0
224 2443 0
225 2443 0
226 2443 0
227 2443 0
228 2443 0
1261 2443 -0.1803189598547551
1262 2443 -0.25584631152049064
1263 2443 -0.074765084896359371
1264 2443 -0.06244980534901011
205 2444 -0
206 2444 -0.99509004789631994
207 2444 -0
208 2444 -0
209 2444 -0
210 2444 -0
211 2444 -0
212 2444 -0
213 2444 -0
214 2444 -0
215 2444 -0
216 2444 -0
217 2444 0
218 2444 0
219 2444 0
220 2444 0
221 2444 0
222 2444 0
223 2444 0
224 2444 0
225 2444 0
226 2444 0
227 2444 0
228 2444 0
1261 2444 0.10820261428783474
1262 2444 0.080196783561304039
1263 2444 -0.016866001348705428
1264 2444 -0.17094248486675911
205 2445 -0
206 2445 -0
207 2445 -0.99509004789631994
208 2445 -0
209 2445 -0
210 2445 -0
211 2445 -0
212 2445 -0
213 2445 -0
214 2445 -0
215 2445 -0
216 2445 -0
217 2445 0
218 2445 0
219 2445 0
220 2445 0
221 2445 0
222 2445 0
223 2445 0
224 2445 0
225 2445 0
226 2445 0
227 2445 0
228 2445 0
1261 2445 0.021296203412182201
1262 2445 0.06379387941368389
1263 2445 0.33227429440027084
1264 2445 0.038055274961526345
205 2446 -0
206 2446 -0
207 2446 -0
208 2446 -0.99509004789631994
209 2446 -0
210 2446 -0
211 2446 -0
212 2446 -0
213 2446 -0
214 2446 -0
215 2446 -0
216 2446 -0
217 2446 0
218 2446 0
219 2446 0
220 2446 0
221 2446 0
222 2446 0
223 2446 0
224 2446 0
225 2446 0
226 2446 0
227 2446 0
228 2446 0
1261 2446 0.19846746771042395
1262 2446 0.13291349456905685
1263 2446 -0.11659569025066187
1264 2446 0.1709989853023412
205 2447 -0
206 2447 -0
207 2447 -0
208 2447 -0
209 2447 -0.99509004789631994
210 2447 -0
211 2447 -0
212 2447 -0
213 2447 -0
214 2447 -0
215 2447 -0
216 2447 -0
217 2447 0
218 2447 0
219 2447 0
220 2447 0
221 2447 0
222 2447 0
223 2447 0
224 2447 0
225 2447 0
226 2447 0
227 2447 0
228 2447 0
1261 2447 0.06406726430169403
1262 2447 0.0077975121873435499
1263 2447 -0.012888481757033089
1264 2447 0.1821584263174176
205 2448 -0
206 2448 -0
207 2448 -0
208 2448 -0
209 2448 -0
210 2448 -0.99509004789631994
211 2448 -0
212 2448 -0
213 2448 -0
214 2448 -0
215 2448 -0
216 2448 -0
217 2448 0
218 2448 0
219 2448 0
220 2448 0
221 2448 0
222 2448 0
223 2448 0
224 2448 0
225 2448 0
226 2448 0
227 2448 0
228 2448 0
1261 2448 0.14930176975937659
1262 2448 -0.1220518999462523
1263 2448 -0.21437482240798272
1264 2448 -0.27728111366749703
205 2449 -0
206 2449 -0
207 2449 -0
208 2449 -0
209 2449 -0
210 2449 -0
211 2449 -0.99509004789631994
212 2449 -0
213 2449 -0
214 2449 -0
215 2449 -0
216 2449 -0
217 2449 0
218 2449 0
219 2449 0
220 2449 0
221 2449 0
222 2449 0
223 2449 0
224 2449 0
225 2449 0
226 2449 0
227 2449 0
228 2449 0
1261 2449 -0.27832449100114248
1262 2449 -0.023030066571549251
1263 2449 0.085999904285044407
1264 2449 0.14042558666593874
205 2450 -0
206 2450 -0
207 2450 -0
208 2450 -0
209 2450 -0
210 2450 -0
211 2450 -0
212 2450 -0.99509004789631994
213 2450 -0
214 2450 -0
215 2450 -0
216 2450 -0
217 2450 0
218 2450 0
219 2450 0
220 2450 0
221 2450 0
222 2450 0
223 2450 0
224 2450 0
225 2450 0
226 2450 0
227 2450 0
228 2450 0
1261 2450 0.14426661227624929
1262 2450 0.019112219351713613
1263 2450 -0.3383340256558125
1264 2450 -0.26332006554483989
205 2451 -0
206 2451 -0
207 2451 -0
208 2451 -0
209 2451 -0
210 2451 -0
211 2451 -0
212 2451 -0
213 2451 -0.99509004789631994
214 2451 -0
215 2451 -0
216 2451 -0
217 2451 0
218 2451 0
219 2451 0
220 2451 0
221 2451 0
222 2451 0
223 2451 0
224 2451 0
225 2451 0
226 2451 0
227 2451 0
228 2451 0
1261 2451 -0.11462509557936003
1262 2451 -0.065598224589830417
1263 2451 0.12045547271290091
1264 2451 0.066735657880519217
205 2452 -0
206 2452 -0
207 2452 -0
208 2452 -0
209 2452 -0
210 2452 -0
211 2452 -0
212 2452 -0
213 2452 -0
214 2452 -0.99509004789631994
215 2452 -0
216 2452 -0
217 2452 0
218 2452 0
219 2452 0
220 2452 0
221 2452 0
222 2452 0
223 2452 0
224 2452 0
225 2452 0
226 2452 0
227 2452 0
228 2452 0
1261 2452 0.1112726701807888
1262 2452 -0.18163442438886057
1263 2452 -0.24934842404473068
1264 2452 0.087619788974651794
205 2453 -0
206 2453 -0
207 2453 -0
208 2453 -0
209 2453 -0
210 2453 -0
211 2453 -0
212 2453 -0
213 2453 -0
214 2453 -0
215 2453 -0.99509004789631994
216 2453 -0
217 2453 0
218 2453 0
219 2453 0
220 2453 0
221 2453 0
222 2453 0
223 2453 0
224 2453 0
225 2453 0
226 2453 0
227 2453 0
228 2453 0
1261 2453 0.0048220099123521959
1262 2453 -0.09230703811323461
1263 2453 -0.22028815111069383
1264 2453 -0.062540089363958593
205 2454 -0
206 2454 -0
207 2454 -0
208 2454 -0
209 2454 -0
210 2454 -0
211 2454 -0
212 2454 -0
213 2454 -0
214 2454 -0
215 2454 -0
216 2454 -0.99509004789631994
217 2454 0
218 2454 0
219 2454 0
220 2454 0
221 2454 0
222 2454 0
223 2454 0
224 2454 0
225 2454 0
226 2454 0
227 2454 0
228 2454 0
1261 2454 0.22589481330245723
1262 2454 0.085512196920050021
1263 2454 -0.209328877595194
1264 2454 0.014853171089538656
205 2455 0
206 2455 0
207 2455 0
208 2455 0
209 2455 0
210 2455 0
211 2455 0
212 2455 0
213 2455 0
214 2455 0
215 2455 0
216 2455 0
217 2455 0.99509004789631994
218 2455 0
219 2455 0
220 2455 0
221 2455 0
222 2455 0
223 2455 0
224 2455 0
225 2455 0
226 2455 0
227 2455 0
228 2455 0
1261 2455 0
1262 2455 0
1263 2455 0
1264 2455 0
205 2456 0
206 2456 0
207 2456 0
208 2456 0
209 2456 0
210 2456 0
211 2456 0
212 2456 0
213 2456 0
214 2456 0
215 2456 0
216 2456 0
217 2456 0
218 2456 0.99509004789631994
219 2456 0
220 2456 0
221 2456 0
222 2456 0
223 2456 0
224 2456 0
225 2456 0
226 2456 0
227 2456 0
228 2456 0
1261 2456 0
1262 2456 0
1263 2456 0
1264 2456 0
205 2457 0
206 2457 0
207 2457 0
208 2457 0
209 2457 0
210 2457 0
211 2457 0
212 2457 0
213 2457 0
214 2457 0
215 2457 0
216 2457 0
217 2457 0
218 2457 0
219 2457 0.99509004789631994
220 2457 0
221 2457 0
222 2457 0
223 2457 0
224 2457 0
225 2457 0
226 2457 0
227 2457 0
228 2457 0
1261 2457 0
1262 2457 0
1263 2457 0
1264 2457 0
205 2458 0
206 2458 0
207 2458 0
208 2458 0
209 2458 0
210 2458 0
211 2458 0
212 2458 0
213 2458 0
214 2458 0
215 2458 0
216 2458 0
217 2458 0
218 2458 0
219 2458 0
220 2458 0.99509004789631994
221 2458 0
222 2458 0
223 2458 0
224 2458 0
225 2458 0
226 2458 0
227 2458 0
228 2458 0
1261 2458 0
1262 2458 0
1263 2458 0
1264 2458 0
205 2459 0
206 2459 0
207 2459 0
208 2459 0
209 2459 0
210 2459 0
211 2459 0
212 2459 0
213 2459 0
214 2459 0
215 2459 0
216 2459 0
217 2459 0
218 2459 0
219 2459 0
220 2459 0
221 2459 0.99509004789631994
222 2459 0
223 2459 0
224 2459 0
225 2459 0
226 2459 0
227 2459 0
228 2459 0
1261 2459 0
1262 2459 0
1263 2459 0
1264 2459 0
205 2460 0
206 2460 0
207 2460 0
208 2460 0
209 2460 0
210 2460 0
211 2460 0
212 2460 0
213 2460 0
214 2460 0
215 2460 0
216 2460 0
217 2460 0
218 2460 0
219 2460 0
220 2460 0
221 2460 0
222 2460 0.99509004789631994
223 2460 0
224 2460 0
225 2460 0
226 2460 0
227 2460 0
228 2460 0
1261 2460 0
1262 2460 0
1263 2460 0
1264 2460 0
205 2461 0
206 2461 0
207 2461 0
208 2461 0
209 2461 0
210 2461 0
211 2461 0
212 2461 0
213 2461 0
214 2461 0
215 2461 0
216 2461 0
217 2461 0
218 2461 0
219 2461 0
220 2461 0
221 2461 0
222 2461 0
223 2461 0.99509004789631994
224 2461 0
225 2461 0
226 2461 0
227 2461 0
228 2461 0
1261 2461 0
1262 2461 0
1263 2461 0
1264 2461 0
205 2462 0
206 2462 0
207 2462 0
208 2462 0
209 2462 0
210 2462 0
211 2462 0
212 2462 0
213 2462 0
214 2462 0
215 2462 0
216 2462 0
217 2462 0
218 2462 0
219 2462 0
220 2462 0
221 2462 0
222 2462 0
223 2462 0
224 2462 0.99509004789631994
225 2462 0
226 2462 0
227 2462 0
228 2462 0
1261 2462 0
1262 2462 0
1263 2462 0
1264 2462 0
205 2463 0
206 2463 0
207 2463 0
208 2463 0
209 2463 0
210 2463 0
211 2463 0
212 2463 0
213 2463 0
214 2463 0
215 2463 0
216 2463 0
217 2463 0
218 2463 0
219 2463 0
220 2463 0
221 2463 0
222 2463 0
223 2463 0
224 2463 0
225 2463 0.99509004789631994
226 2463 0
227 2463 0
228 2463 0
1261 2463 0
1262 2463 0
1263 2463 0
1264 2463 0
205 2464 0
206 2464 0
207 2464 0
208 2464 0
209 2464 0
210 2464 0
211 2464 0
212 2464 0
213 2464 0
214 2464 0
215 2464 0
216 2464 0
217 2464 0
218 2464 0
219 2464 0
220 2464 0
221 2464 0
222 2464 0
223 2464 0
224 2464 0
225 2464 0
226 2464 0.99509004789631994
227 2464 0
228 2464 0
1261 2464 0
1262 2464 0
1263 2464 0
1264 2464 0
205 2465 0
206 2465 0
207 2465 0
208 2465 0
209 2465 0
210 2465 0
211 2465 0
212 2465 0
213 2465 0
214 2465 0
215 2465 0
216 2465 0
217 2465 0
218 2465 0
219 2465 0
220 2465 0
221 2465 0
222 2465 0
223 2465 0
224 2465 0
225 2465 0
226 2465 0
227 2465 0.99509004789631994
228 2465 0
1261 2465 0
1262 2465 0
1263 2465 0
1264 2465 0
205 2466 0
206 2466 0
207 2466 0
208 2466 0
209 2466 0
210 2466 0
211 2466 0
212 2466 0
213 2466 0
214 2466 0
215 2466 0
216 2466 0
217 2466 0
218 2466 0
219 2466 0
220 2466 0
221 2466 0
222 2466 0
223 2466 0
224 2466 0
225 2466 0
226 2466 0
227 2466 0
228 2466 0.99509004789631994
1261 2466 0
1262 2466 0
1263 2466 0
1264 2466 0
1257 2467 0
1258 2467 0
1259 2467 0
1260 2467 0
1610 2467 0
1257 2468 0.99878751991636638
1258 2468 0
1259 2468 0
1260 2468 0
1610 2468 0
1257 2469 0
1258 2469 0.99886974093913028
1259 2469 0
1260 2469 0
1610 2469 0
1257 2470 0
1258 2470 0
1259 2470 0.99859691322799182
1260 2470 0
1610 2470 0
1257 2471 0
1258 2471 0
1259 2471 0
1260 2471 0.99879118685427859
1610 2471 0
1257 2472 0
1258 2472 0
1259 2472 0
1260 2472 0
1610 2472 1
193 2473 -0.99509004789631994
194 2473 -0
195 2473 -0
196 2473 -0
197 2473 -0
198 2473 -0
199 2473 -0
200 2473 -0
201 2473 -0
202 2473 -0
203 2473 -0
204 2473 -0
205 2473 0
206 2473 0
207 2473 0
208 2473 0
209 2473 0
210 2473 0
211 2473 0
212 2473 0
213 2473 0
214 2473 0
215 2473 0
216 2473 0
1257 2473 -0.1803189598547551
1258 2473 -0.25584631152049064
1259 2473 -0.074765084896359371
1260 2473 -0.06244980534901011
193 2474 -0
194 2474 -0.99509004789631994
195 2474 -0
196 2474 -0
197 2474 -0
198 2474 -0
199 2474 -0
200 2474 -0
201 2474 -0
202 2474 -0
203 2474 -0
204 2474 -0
205 2474 0
206 2474 0
207 2474 0
208 2474 0
209 2474 0
210 2474 0
211 2474 0
212 2474 0
213 2474 0
214 2474 0
215 2474 0
216 2474 0
1257 2474 0.10820261428783474
1258 2474 0.080196783561304039
1259 2474 -0.016866001348705428
1260 2474 -0.17094248486675911
193 2475 -0
194 2475 -0
195 2475 -0.99509004789631994
196 2475 -0
197 2475 -0
198 2475 -0
199 2475 -0
200 2475 -0
201 2475 -0
202 2475 -0
203 2475 -0
204 2475 -0
205 2475 0
206 2475 0
207 2475 0
208 2475 0
209 2475 0
210 2475 0
211 2475 0
212 2475 0
213 2475 0
214 2475 0
215 2475 0
216 2475 0
1257 2475 0.021296203412182201
1258 2475 0.06379387941368389
1259 2475 0.33227429440027084
1260 2475 0.038055274961526345
193 2476 -0
194 2476 -0
195 2476 -0
196 2476 -0.99509004789631994
197 2476 -0
198 2476 -0
199 2476 -0
200 2476 -0
201 2476 -0
202 2476 -0
203 2476 -0
204 2476 -0
205 2476 0
206 2476 0
207 2476 0
208 2476 0
209 2476 0
210 2476 0
211 2476 0
212 2476 0
213 2476 0
214 2476 0
215 2476 0
216 2476 0
1257 2476 0.19846746771042395
1258 2476 0.13291349456905685
1259 2476 -0.11659569025066187
1260 2476 0.1709989853023412
193 2477 -0
194 2477 -0
195 2477 -0
196 2477 -0
197 2477 -0.99509004789631994
198 2477 -0
199 2477 -0
200 2477 -0
201 2477 -0
202 2477 -0
203 2477 -0
204 2477 -0
205 2477 0
206 2477 0
207 2477 0
208 2477 0
209 2477 0
210 2477 0
211 2477 0
212 2477 0
213 2477 0
214 2477 0
215 2477 0
216 2477 0
1257 2477 0.06406726430169403
1258 2477 0.0077975121873435499
1259 2477 -0.012888481757033089
1260 2477 0.1821584263174176
193 2478 -0
194 2478 -0
195 2478 -0
196 2478 -0
197 2478 -0
198 2478 -0.99509004789631994
199 2478 -0
200 2478 -0
201 2478 -0
202 2478 -0
203 2478 -0
204 2478 -0
205 2478 0
206 2478 0
207 2478 0
208 2478 0
209 2478 0
210 2478 0
211 2478 0
212 2478 0
213 2478 0
214 2478 0
215 2478 0
216 2478 0
1257 2478 0.14930176975937659
1258 2478 -0.1220518999462523
1259 2478 -0.21437482240798272
1260 2478 -0.27728111366749703
193 2479 -0
194 2479 -0
195 2479 -0
196 2479 -0
197 2479 -0
198 2479 -0
199 2479 -0.99509004789631994
200 2479 -0
201 2479 -0
202 2479 -0
203 2479 -0
204 2479 -0
205 2479 0
206 2479 0
207 2479 0
208 2479 0
209 2479 0
210 2479 0
211 2479 0
212 2479 0
213 2479 0
214 2479 0
215 2479 0
216 2479 0
1257 2479 -0.27832449100114248
1258 2479 -0.023030066571549251
1259 2479 0.085999904285044407
1260 2479 0.14042558666593874
193 2480 -0
194 2480 -0
195 2480 -0
196 2480 -0
197 2480 -0
198 2480 -0
199 2480 -0
200 2480 -0.99509004789631994
201 2480 -0
202 2480 -0
203 2480 -0
204 2480 -0
205 2480 0
206 2480 0
207 2480 0
208 2480 0
209 2480 0
210 2480 0
211 2480 0
212 2480 0
213 2480 0
214 2480 0
215 2480 0
216 2480 0
1257 2480 0.14426661227624929
1258 2480 0.019112219351713613
1259 2480 -0.3383340256558125
1260 2480 -0.26332006554483989
193 2481 -0
194 2481 -0
195 2481 -0
196 2481 -0
197 2481 -0
198 2481 -0
199 2481 -0
200 2481 -0
201 2481 -0.99509004789631994
202 2481 -0
203 2481 -0
204 2481 -0
205 2481 0
206 2481 0
207 2481 0
208 2481 0
209 2481 0
210 2481 0
211 2481 0
212 2481 0
213 2481 0
214 2481 0
215 2481 0
216 2481 0
1257 2481 -0.11462509557936003
1258 2481 -0.065598224589830417
1259 2481 0.12045547271290091
1260 2481 0.066735657880519217
193 2482 -0
194 2482 -0
195 2482 -0
196 2482 -0
197 2482 -0
198 2482 -0
199 2482 -0
200 2482 -0
201 2482 -0
202 2482 -0.99509004789631994
203 2482 -0
204 2482 -0
205 2482 0
206 2482 0
207 2482 0
208 2482 0
209 2482 0
210 2482 0
211 2482 0
212 2482 0
213 2482 0
214 2482 0
215 2482 0
216 2482 0
1257 2482 0.1112726701807888
1258 2482 -0.18163442438886057
1259 2482 -0.24934842404473068
1260 2482 0.087619788974651794
193 2483 -0
194 2483 -0
195 2483 -0
196 2483 -0
197 2483 -0
198 2483 -0
199 2483 -0
200 2483 -0
201 2483 -0
202 2483 -0
203 2483 -0.99509004789631994
204 2483 -0
205 2483 0
206 2483 0
207 2483 0
208 2483 0
209 2483 0
210 2483 0
211 2483 0
212 2483 0
213 2483 0
214 2483 0
215 2483 0
216 2483 0
1257 2483 0.0048220099123521959
1258 2483 -0.09230703811323461
1259 2483 -0.22028815111069383
1260 2483 -0.062540089363958593
193 2484 -0
194 2484 -0
195 2484 -0
196 2484 -0
197 2484 -0
198 2484 -0
199 2484 -0
200 2484 -0
201 2484 -0
202 2484 -0
203 2484 -0
204 2484 -0.99509004789631994
205 2484 0
206 2484 0
207 2484 0
208 2484 0
209 2484 0
210 2484 0
211 2484 0
212 2484 0
213 2484 0
214 2484 0
215 2484 0
216 2484 0
1257 2484 0.22589481330245723
1258 2484 0.085512196920050021
1259 2484 -0.209328877595194
1260 2484 0.014853171089538656
193 2485 0
194 2485 0
195 2485 0
196 2485 0
197 2485 0
198 2485 0
199 2485 0
200 2485 0
201 2485 0
202 2485 0
203 2485 0
204 2485 0
205 2485 0.99509004789631994
206 2485 0
207 2485 0
208 2485 0
209 2485 0
210 2485 0
211 2485 0
212 2485 0
213 2485 0
214 2485 0
215 2485 0
216 2485 0
1257 2485 0
1258 2485 0
1259 2485 0
1260 2485 0
193 2486 0
194 2486 0
195 2486 0
196 2486 0
197 2486 0
198 2486 0
199 2486 0
200 2486 0
201 2486 0
202 2486 0
203 2486 0
204 2486 0
205 2486 0
206 2486 0.99509004789631994
207 2486 0
208 2486 0
209 2486 0
210 2486 0
211 2486 0
212 2486 0
213 2486 0
214 2486 0
215 2486 0
216 2486 0
1257 2486 0
1258 2486 0
1259 2486 0
1260 2486 0
193 2487 0
194 2487 0
195 2487 0
196 2487 0
197 2487 0
198 2487 0
199 2487 0
200 2487 0
201 2487 0
202 2487 0
203 2487 0
204 2487 0
205 2487 0
206 2487 0
207 2487 0.99509004789631994
208 2487 0
209 2487 0
210 2487 0
211 2487 0
212 2487 0
213 2487 0
214 2487 0
215 2487 0
216 2487 0
1257 2487 0
1258 2487 0
1259 2487 0
1260 2487 0
193 2488 0
194 2488 0
195 2488 0
196 2488 0
197 2488 0
198 2488 0
199 2488 0
200 2488 0
201 2488 0
202 2488 0
203 2488 0
204 2488 0
205 2488 0
206 2488 0
207 2488 0
208 2488 0.99509004789631994
209 2488 0
210 2488 0
211 2488 0
212 2488 0
213 2488 0
214 2488 0
215 2488 0
216 2488 0
1257 2488 0
1258 2488 0
1259 2488 0
1260 2488 0
193 2489 0
194 2489 0
195 2489 0
196 2489 0
197 2489 0
198 2489 0
199 2489 0
200 2489 0
201 2489 0
202 2489 0
203 2489 0
204 2489 0
205 2489 0
206 2489 0
207 2489 0
208 2489 0
209 2489 0.99509004789631994
210 2489 0
211 2489 0
212 2489 0
213 2489 0
214 2489 0
215 2489 0
216 2489 0
1257 2489 0
1258 2489 0
1259 2489 0
1260 2489 0
193 2490 0
194 2490 0
195 2490 0
196 2490 0
197 2490 0
198 2490 0
199 2490 0
200 2490 0
201 2490 0
202 2490 0
203 2490 0
204 2490 0
205 2490 0
206 2490 0
207 2490 0
208 2490 0
209 2490 0
210 2490 0.99509004789631994
211 2490 0
212 2490 0
213 2490 0
214 2490 0
215 2490 0
216 2490 0
1257 2490 0
1258 2490 0
1259 2490 0
1260 2490 0
193 2491 0
194 2491 0
195 2491 0
196 2491 0
197 2491 0
198 2491 0
199 2491 0
200 2491 0
201 2491 0
202 2491 0
203 2491 0
204 2491 0
205 2491 0
206 2491 0
207 2491 0
208 2491 0
209 2491 0
210 2491 0
211 2491 0.99509004789631994
212 2491 0
213 2491 0
214 2491 0
215 2491 0
216 2491 0
1257 2491 0
1258 2491 0
1259 2491 0
1260 2491 0
193 2492 0
194 2492 0
195 2492 0
196 2492 0
197 2492 0
198 2492 0
199 2492 0
200 2492 0
201 2492 0
202 2492 0
203 2492 0
204 2492 0
205 2492 0
206 2492 0
207 2492 0
208 2492 0
209 2492 0
210 2492 0
211 2492 0
212 2492 0.99509004789631994
213 2492 0
214 2492 0
215 2492 0
216 2492 0
1257 2492 0
1258 2492 0
1259 2492 0
1260 2492 0
193 2493 0
194 2493 0
195 2493 0
196 2493 0
197 2493 0
198 2493 0
199 2493 0
200 2493 0
201 2493 0
202 2493 0
203 2493 0
204 2493 0
205 2493 0
206 2493 0
207 2493 0
208 2493 0
209 2493 0
210 2493 0
211 2493 0
212 2493 0
213 2493 0.99509004789631994
214 2493 0
215 2493 0
216 2493 0
1257 2493 0
1258 2493 0
1259 2493 0
1260 2493 0
193 2494 0
194 2494 0
195 2494 0
196 2494 0
197 2494 0
198 2494 0
199 2494 0
200 2494 0
201 2494 0
202 2494 0
203 2494 0
204 2494 0
205 2494 0
206 2494 0
207 2494 0
208 2494 0
209 2494 0
210 2494 0
211 2494 0
212 2494 0
213 2494 0
214 2494 0.99509004789631994
215 2494 0
216 2494 0
1257 2494 0
1258 2494 0
1259 2494 0
1260 2494 0
193 2495 0
194 2495 0
195 2495 0
196 2495 0
197 2495 0
198 2495 0
199 2495 0
200 2495 0
201 2495 0
202 2495 0
203 2495 0
204 2495 0
205 2495 0
206 2495 0
207 2495 0
208 2495 0
209 2495 0
210 2495 0
211 2495 0
212 2495 0
213 2495 0
214 2495 0
215 2495 0.99509004789631994
216 2495 0
1257 2495 0
1258 2495 0
1259 2495 0
1260 2495 0
193 2496 0
194 2496 0
195 2496 0
196 2496 0
197 2496 0
198 2496 0
199 2496 0
200 2496 0
201 2496 0
202 2496 0
203 2496 0
204 2496 0
205 2496 0
206 2496 0
207 2496 0
208 2496 0
209 2496 0
210 2496 0
211 2496 0
212 2496 0
213 2496 0
214 2496 0
215 2496 0
216 2496 0.99509004789631994
1257 2496 0
1258 2496 0
1259 2496 0
1260 2496 0
1253 2497 0
1254 2497 0
1255 2497 0
1256 2497 0
1609 2497 0
1253 2498 0.99878751991636638
1254 2498 0
1255 2498 0
1256 2498 0
1609 2498 0
1253 2499 0
1254 2499 0.99886974093913028
1255 2499 0
1256 2499 0
1609 2499 0
1253 2500 0
1254 2500 0
1255 2500 0.99859691322799182
1256 2500 0
1609 2500 0
1253 2501 0
1254 2501 0
1255 2501 0
1256 2501 0.99879118685427859
1609 2501 0
1253 2502 0
1254 2502 0
1255 2502 0
1256 2502 0
1609 2502 1
181 2503 -0.99509004789631994
182 2503 -0
183 2503 -0
184 2503 -0
185 2503 -0
186 2503 -0
187 2503 -0
188 2503 -0
189 2503 -0
190 2503 -0
191 2503 -0
192 2503 -0
193 2503 0
194 2503 0
195 2503 0
196 2503 0
197 2503 0
198 2503 0
199 2503 0
200 2503 0
201 2503 0
202 2503 0
203 2503 0
204 2503 0
1253 2503 -0.1803189598547551
1254 2503 -0.25584631152049064
1255 2503 -0.074765084896359371
1256 2503 -0.06244980534901011
181 2504 -0
182 2504 -0.99509004789631994
183 2504 -0
184 2504 -0
185 2504 -0
186 2504 -0
187 2504 -0
188 2504 -0
189 2504 -0
190 2504 -0
191 2504 -0
192 2504 -0
193 2504 0
194 2504 0
195 2504 0
196 2504 0
197 2504 0
198 2504 0
199 2504 0
200 2504 0
201 2504 0
202 2504 0
203 2504 0
204 2504 0
1253 2504 0.10820261428783474
1254 2504 0.080196783561304039
1255 2504 -0.016866001348705428
1256 2504 -0.17094248486675911
181 2505 -0
182 2505 -0
183 2505 -0.99509004789631994
184 2505 -0
185 2505 -0
186 2505 -0
187 2505 -0
188 2505 -0
189 2505 -0
190 2505 -0
191 2505 -0
192 2505 -0
193 2505 0
194 2505 0
195 2505 0
196 2505 0
197 2505 0
198 2505 0
199 2505 0
200 2505 0
201 2505 0
202 2505 0
203 2505 0
204 2505 0
1253 2505 0.021296203412182201
1254 2505 0.06379387941368389
1255 2505 0.33227429440027084
1256 2505 0.038055274961526345
181 2506 -0
182 2506 -0
183 2506 -0
184 2506 -0.99509004789631994
185 2506 -0
186 2506 -0
187 2506 -0
188 2506 -0
189 2506 -0
190 2506 -0
191 2506 -0
192 2506 -0
193 2506 0
194 2506 0
195 2506 0
196 2506 0
197 2506 0
198 2506 0
199 2506 0
200 2506 0
201 2506 0
202 2506 0
203 2506 0
204 2506 0
1253 2506 0.19846746771042395
1254 2506 0.13291349456905685
1255 2506 -0.11659569025066187
1256 2506 0.1709989853023412
181 2507 -0
182 2507 -0
183 2507 -0
184 2507 -0
185 2507 -0.99509004789631994
186 2507 -0
187 2507 -0
188 2507 -0
189 2507 -0
190 2507 -0
191 2507 -0
192 2507 -0
193 2507 0
194 2507 0
195 2507 0
196 2507 0
197 2507 0
198 2507 0
199 2507 0
200 2507 0
201 2507 0
202 2507 0
203 2507 0
204 2507 0
1253 2507 0.06406726430169403
1254 2507 0.0077975121873435499
1255 2507 -0.012888481757033089
1256 2507 0.1821584263174176
181 2508 -0
182 2508 -0
183 2508 -0
184 2508 -0
185 2508 -0
186 2508 -0.99509004789631994
187 2508 -0
188 2508 -0
189 2508 -0
190 2508 -0
191 2508 -0
192 2508 -0
193 2508 0
194 2508 0
195 2508 0
196 2508 0
197 2508 0
198 2508 0
199 2508 0
200 2508 0
201 2508 0
202 2508 0
203 2508 0
204 2508 0
1253 2508 0.14930176975937659
1254 2508 -0.1220518999462523
1255 2508 -0.21437482240798272
1256 2508 -0.27728111366749703
181 2509 -0
182 2509 -0
183 2509 -0
184 2509 -0
185 2509 -0
186 2509 -0
187 2509 -0.99509004789631994
188 2509 -0
189 2509 -0
190 2509 -0
191 2509 -0
192 2509 -0
193 2509 0
194 2509 0
195 2509 0
196 2509 0
197 2509 0
198 2509 0
199 2509 0
200 2509 0
201 2509 0
202 2509 0
203 2509 0
204 2509 0
1253 2509 -0.27832449100114248
1254 2509 -0.023030066571549251
1255 2509 0.085999904285044407
1256 2509 0.14042558666593874
181 2510 -0
182 2510 -0
183 2510 -0
184 2510 -0
185 2510 -0
186 2510 -0
187 2510 -0
188 2510 -0.99509004789631994
189 2510 -0
190 2510 -0
191 2510 -0
192 2510 -0
193 2510 0
194 2510 0
195 2510 0
196 2510 0
197 2510 0
198 2510 0
199 2510 0
200 2510 0
201 2510 0
202 2510 0
203 2510 0
204 2510 0
1253 2510 0.14426661227624929
1254 2510 0.019112219351713613
1255 2510 -0.3383340256558125
1256 2510 -0.26332006554483989
181 2511 -0
182 2511 -0
183 2511 -0
184 2511 -0
185 2511 -0
186 2511 -0
187 2511 -0
188 2511 -0
189 2511 -0.99509004789631994
190 2511 -0
191 2511 -0
192 2511 -0
193 2511 0
194 2511 0
195 2511 0
196 2511 0
197 2511 0
198 2511 0
199 2511 0
200 2511 0
201 2511 0
202 2511 0
203 2511 0
204 2511 0
1253 2511 -0.11462509557936003
1254 2511 -0.065598224589830417
1255 2511 0.12045547271290091
1256 2511 0.066735657880519217
181 2512 -0
182 2512 -0
183 2512 -0
184 2512 -0
185 2512 -0
186 2512 -0
187 2512 -0
188 2512 -0
189 2512 -0
190 2512 -0.99509004789631994
191 2512 -0
192 2512 -0
193 2512 0
194 2512 0
195 2512 0
196 2512 0
197 2512 0
198 2512 0
199 2512 0
200 2512 0
201 2512 0
202 2512 0
203 2512 0
204 2512 0
1253 2512 0.1112726701807888
1254 2512 -0.18163442438886057
1255 2512 -0.24934842404473068
1256 2512 0.087619788974651794
181 2513 -0
182 2513 -0
183 2513 -0
184 2513 -0
185 2513 -0
186 2513 -0
187 2513 -0
188 2513 -0
189 2513 -0
190 2513 -0
191 2513 -0.99509004789631994
192 2513 -0
193 2513 0
194 2513 0
195 2513 0
196 2513 0
197 2513 0
198 2513 0
199 2513 0
200 2513 0
201 2513 0
202 2513 0
203 2513 0
204 2513 0
1253 2513 0.0048220099123521959
1254 2513 -0.09230703811323461
1255 2513 -0.22028815111069383
1256 2513 -0.062540089363958593
181 2514 -0
182 2514 -0
183 2514 -0
184 2514 -0
185 2514 -0
186 2514 -0
187 2514 -0
188 2514 -0
189 2514 -0
190 2514 -0
191 2514 -0
192 2514 -0.99509004789631994
193 2514 0
194 2514 0
195 2514 0
196 2514 0
197 2514 0
198 2514 0
199 2514 0
200 2514 0
201 2514 0
202 2514 0
203 2514 0
204 2514 0
1253 2514 0.22589481330245723
1254 2514 0.085512196920050021
1255 2514 -0.209328877595194
1256 2514 0.014853171089538656
181 2515 0
182 2515 0
183 2515 0
184 2515 0
185 2515 0
186 2515 0
187 2515 0
188 2515 0
189 2515 0
190 2515 0
191 2515 0
192 2515 0
193 2515 0.99509004789631994
194 2515 0
195 2515 0
196 2515 0
197 2515 0
198 2515 0
199 2515 0
200 2515 0
201 2515 0
202 2515 0
203 2515 0
204 2515 0
1253 2515 0
1254 2515 0
1255 2515 0
1256 2515 0
181 2516 0
182 2516 0
183 2516 0
184 2516 0
185 2516 0
186 2516 0
187 2516 0
188 2516 0
189 2516 0
190 2516 0
191 2516 0
192 2516 0
193 2516 0
194 2516 0.99509004789631994
195 2516 0
196 2516 0
197 2516 0
198 2516 0
199 2516 0
200 2516 0
201 2516 0
202 2516 0
203 2516 0
204 2516 0
1253 2516 0
1254 2516 0
1255 2516 0
1256 2516 0
181 2517 0
182 2517 0
183 2517 0
184 2517 0
185 2517 0
186 2517 0
187 2517 0
188 2517 0
189 2517 0
190 2517 0
191 2517 0
192 2517 0
193 2517 0
194 2517 0
195 2517 0.99509004789631994
196 2517 0
197 2517 0
198 2517 0
199 2517 0
200 2517 0
201 2517 0
202 2517 0
203 2517 0
204 2517 0
1253 2517 0
1254 2517 0
1255 2517 0
1256 2517 0
181 2518 0
182 2518 0
183 2518 0
184 2518 0
185 2518 0
186 2518 0
187 2518 0
188 2518 0
189 2518 0
190 2518 0
191 2518 0
192 2518 0
193 2518 0
194 2518 0
195 2518 0
196 2518 0.99509004789631994
197 2518 0
198 2518 0
199 2518 0
200 2518 0
201 2518 0
202 2518 0
203 2518 0
204 2518 0
1253 2518 0
1254 2518 0
1255 2518 0
1256 2518 0
181 2519 0
182 2519 0
183 2519 0
184 2519 0
185 2519 0
186 2519 0
187 2519 0
188 2519 0
189 2519 0
190 2519 0
191 2519 0
192 2519 0
193 2519 0
194 2519 0
195 2519 0
196 2519 0
197 2519 0.99509004789631994
198 2519 0
199 2519 0
200 2519 0
201 2519 0
202 2519 0
203 2519 0
204 2519 0
1253 2519 0
1254 2519 0
1255 2519 0
1256 2519 0
181 2520 0
182 2520 0
183 2520 0
184 2520 0
185 2520 0
186 2520 0
187 2520 0
188 2520 0
189 2520 0
190 2520 0
191 2520 0
192 2520 0
193 2520 0
194 2520 0
195 2520 0
196 2520 0
197 2520 0
198 2520 0.99509004789631994
199 2520 0
200 2520 0
201 2520 0
202 2520 0
203 2520 0
204 2520 0
1253 2520 0
1254 2520 0
1255 2520 0
1256 2520 0
181 2521 0
182 2521 0
183 2521 0
184 2521 0
185 2521 0
186 2521 0
187 2521 0
188 2521 0
189 2521 0
190 2521 0
191 2521 0
192 2521 0
193 2521 0
194 2521 0
195 2521 0
196 2521 0
197 2521 0
198 2521 0
199 2521 0.99509004789631994
200 2521 0
201 2521 0
202 2521 0
203 2521 0
204 2521 0
1253 2521 0
1254 2521 0
1255 2521 0
1256 2521 0
181 2522 0
182 2522 0
183 2522 0
184 2522 0
185 2522 0
186 2522 0
187 2522 0
188 2522 0
189 2522 0
190 2522 0
191 2522 0
192 2522 0
193 2522 0
194 2522 0
195 2522 0
196 2522 0
197 2522 0
198 2522 0
199 2522 0
200 2522 0.99509004789631994
201 2522 0
202 2522 0
203 2522 0
204 2522 0
1253 2522 0
1254 2522 0
1255 2522 0
1256 2522 0
181 2523 0
182 2523 0
183 2523 0
184 2523 0
185 2523 0
186 2523 0
187 2523 0
188 2523 0
189 2523 0
190 2523 0
191 2523 0
192 2523 0
193 2523 0
194 2523 0
195 2523 0
196 2523 0
197 2523 0
198 2523 0
199 2523 0
200 2523 0
201 2523 0.99509004789631994
202 2523 0
203 2523 0
204 2523 0
1253 2523 0
1254 2523 0
1255 2523 0
1256 2523 0
181 2524 0
182 2524 0
183 2524 0
184 2524 0
185 2524 0
186 2524 0
187 2524 0
188 2524 0
189 2524 0
190 2524 0
191 2524 0
192 2524 0
193 2524 0
194 2524 0
195 2524 0
196 2524 0
197 2524 0
198 2524 0
199 2524 0
200 2524 0
201 2524 0
202 2524 0.99509004789631994
203 2524 0
204 2524 0
1253 2524 0
1254 2524 0
1255 2524 0
1256 2524 0
181 2525 0
182 2525 0
183 2525 0
184 2525 0
185 2525 0
186 2525 0
187 2525 0
188 2525 0
189 2525 0
190 2525 0
191 2525 0
192 2525 0
193 2525 0
194 2525 0
195 2525 0
196 2525 0
197 2525 0
198 2525 0
199 2525 0
200 2525 0
201 2525 0
202 2525 0
203 2525 0.99509004789631994
204 2525 0
1253 2525 0
1254 2525 0
1255 2525 0
1256 2525 0
181 2526 0
182 2526 0
183 2526 0
184 2526 0
185 2526 0
186 2526 0
187 2526 0
188 2526 0
189 2526 0
190 2526 0
191 2526 0
192 2526 0
193 2526 0
194 2526 0
195 2526 0
196 2526 0
197 2526 0
198 2526 0
199 2526 0
200 2526 0
201 2526 0
202 2526 0
203 2526 0
204 2526 0.99509004789631994
1253 2526 0
1254 2526 0
1255 2526 0
1256 2526 0
1249 2527 0
1250 2527 0
1251 2527 0
1252 2527 0
1608 2527 0
1249 2528 0.99878751991636638
1250 2528 0
1251 2528 0
1252 2528 0
1608 2528 0
1249 2529 0
1250 2529 0.99886974093913028
1251 2529 0
1252 2529 0
1608 2529 0
1249 2530 0
1250 2530 0
1251 2530 0.99859691322799182
1252 2530 0
1608 2530 0
1249 2531 0
1250 2531 0
1251 2531 0
1252 2531 0.99879118685427859
1608 2531 0
1249 2532 0
1250 2532 0
1251 2532 0
1252 2532 0
1608 2532 1
169 2533 -0.99509004789631994
170 2533 -0
171 2533 -0
172 2533 -0
173 2533 -0
174 2533 -0
175 2533 -0
176 2533 -0
177 2533 -0
178 2533 -0
179 2533 -0
180 2533 -0
181 2533 0
182 2533 0
183 2533 0
184 2533 0
185 2533 0
186 2533 0
187 2533 0
188 2533 0
189 2533 0
190 2533 0
191 2533 0
192 2533 0
1249 2533 -0.1803189598547551
1250 2533 -0.25584631152049064
1251 2533 -0.074765084896359371
1252 2533 -0.06244980534901011
169 2534 -0
170 2534 -0.99509004789631994
171 2534 -0
172 2534 -0
173 2534 -0
174 2534 -0
175 2534 -0
176 2534 -0
177 2534 -0
178 2534 -0
179 2534 -0
180 2534 -0
181 2534 0
182 2534 0
183 2534 0
184 2534 0
185 2534 0
186 2534 0
187 2534 0
188 2534 0
189 2534 0
190 2534 0
191 2534 0
192 2534 0
1249 2534 0.10820261428783474
1250 2534 0.080196783561304039
1251 2534 -0.016866001348705428
1252 2534 -0.17094248486675911
169 2535 -0
170 2535 -0
171 2535 -0.99509004789631994
172 2535 -0
173 2535 -0
174 2535 -0
175 2535 -0
176 2535 -0
177 2535 -0
178 2535 -0
179 2535 -0
180 2535 -0
181 2535 0
182 2535 0
183 2535 0
184 2535 0
185 2535 0
186 2535 0
187 2535 0
188 2535 0
189 2535 0
190 2535 0
191 2535 0
192 2535 0
1249 2535 0.021296203412182201
1250 2535 0.06379387941368389
1251 2535 0.33227429440027084
1252 2535 0.038055274961526345
169 2536 -0
170 2536 -0
171 2536 -0
172 2536 -0.99509004789631994
173 2536 -0
174 2536 -0
175 2536 -0
176 2536 -0
177 2536 -0
178 2536 -0
179 2536 -0
180 2536 -0
181 2536 0
182 2536 0
183 2536 0
184 2536 0
185 2536 0
186 2536 0
187 2536 0
188 2536 0
189 2536 0
190 2536 0
191 2536 0
192 2536 0
1249 2536 0.19846746771042395
1250 2536 0.13291349456905685
1251 2536 -0.11659569025066187
1252 2536 0.1709989853023412
169 2537 -0
170 2537 -0
171 2537 -0
172 2537 -0
173 2537 -0.99509004789631994
174 2537 -0
175 2537 -0
176 2537 -0
177 2537 -0
178 2537 -0
179 2537 -0
180 2537 -0
181 2537 0
182 2537 0
183 2537 0
184 2537 0
185 2537 0
186 2537 0
187 2537 0
188 2537 0
189 2537 0
190 2537 0
191 2537 0
192 2537 0
1249 2537 0.06406726430169403
1250 2537 0.0077975121873435499
1251 2537 -0.012888481757033089
1252 2537 0.1821584263174176
169 2538 -0
170 2538 -0
171 2538 -0
172 2538 -0
173 2538 -0
174 2538 -0.99509004789631994
175 2538 -0
176 2538 -0
177 2538 -0
178 2538 -0
179 2538 -0
180 2538 -0
181 2538 0
182 2538 0
183 2538 0
184 2538 0
185 2538 0
186 2538 0
187 2538 0
188 2538 0
189 2538 0
190 2538 0
191 2538 0
192 2538 0
1249 2538 0.14930176975937659
1250 2538 -0.1220518999462523
1251 2538 -0.21437482240798272
1252 2538 -0.27728111366749703
169 2539 -0
170 2539 -0
171 2539 -0
172 2539 -0
173 2539 -0
174 2539 -0
175 2539 -0.99509004789631994
176 2539 -0
177 2539 -0
178 2539 -0
179 2539 -0
180 2539 -0
181 2539 0
182 2539 0
183 2539 0
184 2539 0
185 2539 0
186 2539 0
187 2539 0
188 2539 0
189 2539 0
190 2539 0
191 2539 0
192 2539 0
1249 2539 -0.27832449100114248
1250 2539 -0.023030066571549251
1251 2539 0.085999904285044407
1252 2539 0.14042558666593874
169 2540 -0
170 2540 -0
171 2540 -0
172 2540 -0
173 2540 -0
174 2540 -0
175 2540 -0
176 2540 -0.99509004789631994
177 2540 -0
178 2540 -0
179 2540 -0
180 2540 -0
181 2540 0
182 2540 0
183 2540 0
184 2540 0
185 2540 0
186 2540 0
187 2540 0
188 2540 0
189 2540 0
190 2540 0
191 2540 0
192 2540 0
1249 2540 0.14426661227624929
1250 2540 0.019112219351713613
1251 2540 -0.3383340256558125
1252 2540 -0.26332006554483989
169 2541 -0
170 2541 -0
171 2541 -0
172 2541 -0
173 2541 -0
174 2541 -0
175 2541 -0
176 2541 -0
177 2541 -0.99509004789631994
178 2541 -0
179 2541 -0
180 2541 -0
181 2541 0
182 2541 0
183 2541 0
184 2541 0
185 2541 0
186 2541 0
187 2541 0
188 2541 0
189 2541 0
190 2541 0
191 2541 0
192 2541 0
1249 2541 -0.11462509557936003
1250 2541 -0.065598224589830417
1251 2541 0.12045547271290091
1252 2541 0.066735657880519217
169 2542 -0
170 2542 -0
171 2542 -0
172 2542 -0
173 2542 -0
174 2542 -0
175 2542 -0
176 2542 -0
177 2542 -0
178 2542 -0.99509004789631994
179 2542 -0
180 2542 -0
181 2542 0
182 2542 0
183 2542 0
184 2542 0
185 2542 0
186 2542 0
187 2542 0
188 2542 0
189 2542 0
190 2542 0
191 2542 0
192 2542 0
1249 2542 0.1112726701807888
1250 2542 -0.18163442438886057
1251 2542 -0.24934842404473068
1252 2542 0.087619788974651794
169 2543 -0
170 2543 -0
171 2543 -0
172 2543 -0
173 2543 -0
174 2543 -0
175 2543 -0
176 2543 -0
177 2543 -0
178 2543 -0
179 2543 -0.99509004789631994
180 2543 -0
181 2543 0
182 2543 0
183 2543 0
184 2543 0
185 2543 0
186 2543 0
187 2543 0
188 2543 0
189 2543 0
190 2543 0
191 2543 0
192 2543 0
1249 2543 0.0048220099123521959
1250 2543 -0.09230703811323461
1251 2543 -0.22028815111069383
1252 2543 -0.062540089363958593
169 2544 -0
170 2544 -0
171 2544 -0
172 2544 -0
173 2544 -0
174 2544 -0
175 2544 -0
176 2544 -0
177 2544 -0
178 2544 -0
179 2544 -0
180 2544 -0.99509004789631994
181 2544 0
182 2544 0
183 2544 0
184 2544 0
185 2544 0
186 2544 0
187 2544 0
188 2544 0
189 2544 0
190 2544 0
191 2544 0
192 2544 0
1249 2544 0.22589481330245723
1250 2544 0.085512196920050021
1251 2544 -0.209328877595194
1252 2544 0.014853171089538656
169 2545 0
170 2545 0
171 2545 0
172 2545 0
173 2545 0
174 2545 0
175 2545 0
176 2545 0
177 2545 0
178 2545 0
179 2545 0
180 2545 0
181 2545 0.99509004789631994
182 2545 0
183 2545 0
184 2545 0
185 2545 0
186 2545 0
187 2545 0
188 2545 0
189 2545 0
190 2545 0
191 2545 0
192 2545 0
1249 2545 0
1250 2545 0
1251 2545 0
1252 2545 0
169 2546 0
170 2546 0
171 2546 0
172 2546 0
173 2546 0
174 2546 0
175 2546 0
176 2546 0
177 2546 0
178 2546 0
179 2546 0
180 2546 0
181 2546 0
182 2546 0.99509004789631994
183 2546 0
184 2546 0
185 2546 0
186 2546 0
187 2546 0
188 2546 0
189 2546 0
190 2546 0
191 2546 0
192 2546 0
1249 2546 0
1250 2546 0
1251 2546 0
1252 2546 0
169 2547 0
170 2547 0
171 2547 0
172 2547 0
173 2547 0
174 2547 0
175 2547 0
176 2547 0
177 2547 0
178 2547 0
179 2547 0
180 2547 0
181 2547 0
182 2547 0
183 2547 0.99509004789631994
184 2547 0
185 2547 0
186 2547 0
187 2547 0
188 2547 0
189 2547 0
190 2547 0
191 2547 0
192 2547 0
1249 2547 0
1250 2547 0
1251 2547 0
1252 2547 0
169 2548 0
170 2548 0
171 2548 0
172 2548 0
173 2548 0
174 2548 0
175 2548 0
176 2548 0
177 2548 0
178 2548 0
179 2548 0
180 2548 0
181 2548 0
182 2548 0
183 2548 0
184 2548 0.99509004789631994
185 2548 0
186 2548 0
187 2548 0
188 2548 0
189 2548 0
190 2548 0
191 2548 0
192 2548 0
1249 2548 0
1250 2548 0
1251 2548 0
1252 2548 0
169 2549 0
170 2549 0
171 2549 0
172 2549 0
173 2549 0
174 2549 0
175 2549 0
176 2549 0
177 2549 0
178 2549 0
179 2549 0
180 2549 0
181 2549 0
182 2549 0
183 2549 0
184 2549 0
185 2549 0.99509004789631994
186 2549 0
187 2549 0
188 2549 0
189 2549 0
190 2549 0
191 2549 0
192 2549 0
1249 2549 0
1250 2549 0
1251 2549 0
1252 2549 0
169 2550 0
170 2550 0
171 2550 0
172 2550 0
173 2550 0
174 2550 0
175 2550 0
176 2550 0
177 2550 0
178 2550 0
179 2550 0
180 2550 0
181 2550 0
182 2550 0
183 2550 0
184 2550 0
185 2550 0
186 2550 0.99509004789631994
187 2550 0
188 2550 0
189 2550 0
190 2550 0
191 2550 0
192 2550 0
1249 2550 0
1250 2550 0
1251 2550 0
1252 2550 0
169 2551 0
170 2551 0
171 2551 0
172 2551 0
173 2551 0
174 2551 0
175 2551 0
176 2551 0
177 2551 0
178 2551 0
179 2551 0
180 2551 0
181 2551 0
182 2551 0
183 2551 0
184 2551 0
185 2551 0
186 2551 0
187 2551 0.99509004789631994
188 2551 0
189 2551 0
190 2551 0
191 2551 0
192 2551 0
1249 2551 0
1250 2551 0
1251 2551 0
1252 2551 0
169 2552 0
170 2552 0
171 2552 0
172 2552 0
173 2552 0
174 2552 0
175 2552 0
176 2552 0
177 2552 0
178 2552 0
179 2552 0
180 2552 0
181 2552 0
182 2552 0
183 2552 0
184 2552 0
185 2552 0
186 2552 0
187 2552 0
188 2552 0.99509004789631994
189 2552 0
190 2552 0
191 2552 0
192 2552 0
1249 2552 0
1250 2552 0
1251 2552 0
1252 2552 0
169 2553 0
170 2553 0
171 2553 0
172 2553 0
173 2553 0
174 2553 0
175 2553 0
176 2553 0
177 2553 0
178 2553 0
179 2553 0
180 2553 0
181 2553 0
182 2553 0
183 2553 0
184 2553 0
185 2553 0
186 2553 0
187 2553 0
188 2553 0
189 2553 0.99509004789631994
190 2553 0
191 2553 0
192 2553 0
1249 2553 0
1250 2553 0
1251 2553 0
1252 2553 0
169 2554 0
170 2554 0
171 2554 0
172 2554 0
173 2554 0
174 2554 0
175 2554 0
176 2554 0
177 2554 0
178 2554 0
179 2554 0
180 2554 0
181 2554 0
182 2554 0
183 2554 0
184 2554 0
185 2554 0
186 2554 0
187 2554 0
188 2554 0
189 2554 0
190 2554 0.99509004789631994
191 2554 0
192 2554 0
1249 2554 0
1250 2554 0
1251 2554 0
1252 2554 0
169 2555 0
170 2555 0
171 2555 0
172 2555 0
173 2555 0
174 2555 0
175 2555 0
176 2555 0
177 2555 0
178 2555 0
179 2555 0
180 2555 0
181 2555 0
182 2555 0
183 2555 0
184 2555 0
185 2555 0
186 2555 0
187 2555 0
188 2555 0
189 2555 0
190 2555 0
191 2555 0.99509004789631994
192 2555 0
1249 2555 0
1250 2555 0
1251 2555 0
1252 2555 0
169 2556 0
170 2556 0
171 2556 0
172 2556 0
173 2556 0
174 2556 0
175 2556 0
176 2556 0
177 2556 0
178 2556 0
179 2556 0
180 2556 0
181 2556 0
182 2556 0
183 2556 0
184 2556 0
185 2556 0
186 2556 0
187 2556 0
188 2556 0
189 2556 0
190 2556 0
191 2556 0
192 2556 0.99509004789631994
1249 2556 0
1250 2556 0
1251 2556 0
1252 2556 0
1245 2557 0
1246 2557 0
1247 2557 0
1248 2557 0
1607 2557 0
1245 2558 0.99878751991636638
1246 2558 0
1247 2558 0
1248 2558 0
1607 2558 0
1245 2559 0
1246 2559 0.99886974093913028
1247 2559 0
1248 2559 0
1607 2559 0
1245 2560 0
1246 2560 0
1247 2560 0.99859691322799182
1248 2560 0
1607 2560 0
1245 2561 0
1246 2561 0
1247 2561 0
1248 2561 0.99879118685427859
1607 2561 0
1245 2562 0
1246 2562 0
1247 2562 0
1248 2562 0
1607 2562 1
157 2563 -0.99509004789631994
158 2563 -0
159 2563 -0
160 2563 -0
161 2563 -0
162 2563 -0
163 2563 -0
164 2563 -0
165 2563 -0
166 2563 -0
167 2563 -0
168 2563 -0
169 2563 0
170 2563 0
171 2563 0
172 2563 0
173 2563 0
174 2563 0
175 2563 0
176 2563 0
177 2563 0
178 2563 0
179 2563 0
180 2563 0
1245 2563 -0.1803189598547551
1246 2563 -0.25584631152049064
1247 2563 -0.074765084896359371
1248 2563 -0.06244980534901011
157 2564 -0
158 2564 -0.99509004789631994
159 2564 -0
160 2564 -0
161 2564 -0
162 2564 -0
163 2564 -0
164 2564 -0
165 2564 -0
166 2564 -0
167 2564 -0
168 2564 -0
169 2564 0
170 2564 0
171 2564 0
172 2564 0
173 2564 0
174 2564 0
175 2564 0
176 2564 0
177 2564 0
178 2564 0
179 2564 0
180 2564 0
1245 2564 0.10820261428783474
1246 2564 0.080196783561304039
1247 2564 -0.016866001348705428
1248 2564 -0.17094248486675911
157 2565 -0
158 2565 -0
159 2565 -0.99509004789631994
160 2565 -0
161 2565 -0
162 2565 -0
163 2565 -0
164 2565 -0
165 2565 -0
166 2565 -0
167 2565 -0
168 2565 -0
169 2565 0
170 2565 0
171 2565 0
172 2565 0
173 2565 0
174 2565 0
175 2565 0
176 2565 0
177 2565 0
178 2565 0
179 2565 0
180 2565 0
1245 2565 0.021296203412182201
1246 2565 0.06379387941368389
1247 2565 0.33227429440027084
1248 2565 0.038055274961526345
157 2566 -0
158 2566 -0
159 2566 -0
160 2566 -0.99509004789631994
161 2566 -0
162 2566 -0
163 2566 -0
164 2566 -0
165 2566 -0
166 2566 -0
167 2566 -0
168 2566 -0
169 2566 0
170 2566 0
171 2566 0
172 2566 0
173 2566 0
174 2566 0
175 2566 0
176 2566 0
177 2566 0
178 2566 0
179 2566 0
180 2566 0
1245 2566 0.19846746771042395
1246 2566 0.13291349456905685
1247 2566 -0.11659569025066187
1248 2566 0.1709989853023412
157 2567 -0
158 2567 -0
159 2567 -0
160 2567 -0
161 2567 -0.99509004789631994
162 2567 -0
163 2567 -0
164 2567 -0
165 2567 -0
166 2567 -0
167 2567 -0
168 2567 -0
169 2567 0
170 2567 0
171 2567 0
172 2567 0
173 2567 0
174 2567 0
175 2567 0
176 2567 0
177 2567 0
178 2567 0
179 2567 0
180 2567 0
1245 2567 0.06406726430169403
1246 2567 0.0077975121873435499
1247 2567 -0.012888481757033089
1248 2567 0.1821584263174176
157 2568 -0
158 2568 -0
159 2568 -0
160 2568 -0
161 2568 -0
162 2568 -0.99509004789631994
163 2568 -0
164 2568 -0
165 2568 -0
166 2568 -0
167 2568 -0
168 2568 -0
169 2568 0
170 2568 0
171 2568 0
172 2568 0
173 2568 0
174 2568 0
175 2568 0
176 2568 0
177 2568 0
178 2568 0
179 2568 0
180 2568 0
1245 2568 0.14930176975937659
1246 2568 -0.1220518999462523
1247 2568 -0.21437482240798272
1248 2568 -0.27728111366749703
157 2569 -0
158 2569 -0
159 2569 -0
160 2569 -0
161 2569 -0
162 2569 -0
163 2569 -0.99509004789631994
164 2569 -0
165 2569 -0
166 2569 -0
167 2569 -0
168 2569 -0
169 2569 0
170 2569 0
171 2569 0
172 2569 0
173 2569 0
174 2569 0
175 2569 0
176 2569 0
177 2569 0
178 2569 0
179 2569 0
180 2569 0
1245 2569 -0.27832449100114248
1246 2569 -0.023030066571549251
1247 2569 0.085999904285044407
1248 2569 0.14042558666593874
157 2570 -0
158 2570 -0
159 2570 -0
160 2570 -0
161 2570 -0
162 2570 -0
163 2570 -0
164 2570 -0.99509004789631994
165 2570 -0
166 2570 -0
167 2570 -0
168 2570 -0
169 2570 0
170 2570 0
171 2570 0
172 2570 0
173 2570 0
174 2570 0
175 2570 0
176 2570 0
177 2570 0
178 2570 0
179 2570 0
180 2570 0
1245 2570 0.14426661227624929
1246 2570 0.019112219351713613
1247 2570 -0.3383340256558125
1248 2570 -0.26332006554483989
157 2571 -0
158 2571 -0
159 2571 -0
160 2571 -0
161 2571 -0
162 2571 -0
163 2571 -0
164 2571 -0
165 2571 -0.99509004789631994
166 2571 -0
167 2571 -0
168 2571 -0
169 2571 0
170 2571 0
171 2571 0
172 2571 0
173 2571 0
174 2571 0
175 2571 0
176 2571 0
177 2571 0
178 2571 0
179 2571 0
180 2571 0
1245 2571 -0.11462509557936003
1246 2571 -0.065598224589830417
1247 2571 0.12045547271290091
1248 2571 0.066735657880519217
157 2572 -0
158 2572 -0
159 2572 -0
160 2572 -0
161 2572 -0
162 2572 -0
163 2572 -0
164 2572 -0
165 2572 -0
166 2572 -0.99509004789631994
167 2572 -0
168 2572 -0
169 2572 0
170 2572 0
171 2572 0
172 2572 0
173 2572 0
174 2572 0
175 2572 0
176 2572 0
177 2572 0
178 2572 0
179 2572 0
180 2572 0
1245 2572 0.1112726701807888
1246 2572 -0.18163442438886057
1247 2572 -0.24934842404473068
1248 2572 0.087619788974651794
157 2573 -0
158 2573 -0
159 2573 -0
160 2573 -0
161 2573 -0
162 2573 -0
163 2573 -0
164 2573 -0
165 2573 -0
166 2573 -0
167 2573 -0.99509004789631994
168 2573 -0
169 2573 0
170 2573 0
171 2573 0
172 2573 0
173 2573 0
174 2573 0
175 2573 0
176 2573 0
177 2573 0
178 2573 0
179 2573 0
180 2573 0
1245 2573 0.0048220099123521959
1246 2573 -0.09230703811323461
1247 2573 -0.22028815111069383
1248 2573 -0.062540089363958593
157 2574 -0
158 2574 -0
159 2574 -0
160 2574 -0
161 2574 -0
162 2574 -0
163 2574 -0
164 2574 -0
165 2574 -0
166 2574 -0
167 2574 -0
168 2574 -0.99509004789631994
169 2574 0
170 2574 0
171 2574 0
172 2574 0
173 2574 0
174 2574 0
175 2574 0
176 2574 0
177 2574 0
178 2574 0
179 2574 0
180 2574 0
1245 2574 0.22589481330245723
1246 2574 0.085512196920050021
1247 2574 -0.209328877595194
1248 2574 0.014853171089538656
157 2575 0
158 2575 0
159 2575 0
160 2575 0
161 2575 0
162 2575 0
163 2575 0
164 2575 0
165 2575 0
166 2575 0
167 2575 0
168 2575 0
169 2575 0.99509004789631994
170 2575 0
171 2575 0
172 2575 0
173 2575 0
174 2575 0
175 2575 0
176 2575 0
177 2575 0
178 2575 0
179 2575 0
180 2575 0
1245 2575 0
1246 2575 0
1247 2575 0
1248 2575 0
157 2576 0
158 2576 0
159 2576 0
160 2576 0
161 2576 0
162 2576 0
163 2576 0
164 2576 0
165 2576 0
166 2576 0
167 2576 0
168 2576 0
169 2576 0
170 2576 0.99509004789631994
171 2576 0
172 2576 0
173 2576 0
174 2576 0
175 2576 0
176 2576 0
177 2576 0
178 2576 0
179 2576 0
180 2576 0
1245 2576 0
1246 2576 0
1247 2576 0
1248 2576 0
157 2577 0
158 2577 0
159 2577 0
160 2577 0
161 2577 0
162 2577 0
163 2577 0
164 2577 0
165 2577 0
166 2577 0
167 2577 0
168 2577 0
169 2577 0
170 2577 0
171 2577 0.99509004789631994
172 2577 0
173 2577 0
174 2577 0
175 2577 0
176 2577 0
177 2577 0
178 2577 0
179 2577 0
180 2577 0
1245 2577 0
1246 2577 0
1247 2577 0
1248 2577 0
157 2578 0
158 2578 0
159 2578 0
160 2578 0
161 2578 0
162 2578 0
163 2578 0
164 2578 0
165 2578 0
166 2578 0
167 2578 0
168 2578 0
169 2578 0
170 2578 0
171 2578 0
172 2578 0.99509004789631994
173 2578 0
174 2578 0
175 2578 0
176 2578 0
177 2578 0
178 2578 0
179 2578 0
180 2578 0
1245 2578 0
1246 2578 0
1247 2578 0
1248 2578 0
157 2579 0
158 2579 0
159 2579 0
160 2579 0
161 2579 0
162 2579 0
163 2579 0
164 2579 0
165 2579 0
166 2579 0
167 2579 0
168 2579 0
169 2579 0
170 2579 0
171 2579 0
172 2579 0
173 2579 0.99509004789631994
174 2579 0
175 2579 0
176 2579 0
177 2579 0
178 2579 0
179 2579 0
180 2579 0
1245 2579 0
1246 2579 0
1247 2579 0
1248 2579 0
157 2580 0
158 2580 0
159 2580 0
160 2580 0
161 2580 0
162 2580 0
163 2580 0
164 2580 0
165 2580 0
166 2580 0
167 2580 0
168 2580 0
169 2580 0
170 2580 0
171 2580 0
172 2580 0
173 2580 0
174 2580 0.99509004789631994
175 2580 0
176 2580 0
177 2580 0
178 2580 0
179 2580 0
180 2580 0
1245 2580 0
1246 2580 0
1247 2580 0
1248 2580 0
157 2581 0
158 2581 0
159 2581 0
160 2581 0
161 2581 0
162 2581 0
163 2581 0
164 2581 0
165 2581 0
166 2581 0
167 2581 0
168 2581 0
169 2581 0
170 2581 0
171 2581 0
172 2581 0
173 2581 0
174 2581 0
175 2581 0.99509004789631994
176 2581 0
177 2581 0
178 2581 0
179 2581 0
180 2581 0
1245 2581 0
1246 2581 0
1247 2581 0
1248 2581 0
157 2582 0
158 2582 0
159 2582 0
160 2582 0
161 2582 0
162 2582 0
163 2582 0
164 2582 0
165 2582 0
166 2582 0
167 2582 0
168 2582 0
169 2582 0
170 2582 0
171 2582 0
172 2582 0
173 2582 0
174 2582 0
175 2582 0
176 2582 0.99509004789631994
177 2582 0
178 2582 0
179 2582 0
180 2582 0
1245 2582 0
1246 2582 0
1247 2582 0
1248 2582 0
157 2583 0
158 2583 0
159 2583 0
160 2583 0
161 2583 0
162 2583 0
163 2583 0
164 2583 0
165 2583 0
166 2583 0
167 2583 0
168 2583 0
169 2583 0
170 2583 0
171 2583 0
172 2583 0
173 2583 0
174 2583 0
175 2583 0
176 2583 0
177 2583 0.99509004789631994
178 2583 0
179 2583 0
180 2583 0
1245 2583 0
1246 2583 0
1247 2583 0
1248 2583 0
157 2584 0
158 2584 0
159 2584 0
160 2584 0
161 2584 0
162 2584 0
163 2584 0
164 2584 0
165 2584 0
166 2584 0
167 2584 0
168 2584 0
169 2584 0
170 2584 0
171 2584 0
172 2584 0
173 2584 0
174 2584 0
175 2584 0
176 2584 0
177 2584 0
178 2584 0.99509004789631994
179 2584 0
180 2584 0
1245 2584 0
1246 2584 0
1247 2584 0
1248 2584 0
157 2585 0
158 2585 0
159 2585 0
160 2585 0
161 2585 0
162 2585 0
163 2585 0
164 2585 0
165 2585 0
166 2585 0
167 2585 0
168 2585 0
169 2585 0
170 2585 0
171 2585 0
172 2585 0
173 2585 0
174 2585 0
175 2585 0
176 2585 0
177 2585 0
178 2585 0
179 2585 0.99509004789631994
180 2585 0
1245 2585 0
1246 2585 0
1247 2585 0
1248 2585 0
157 2586 0
158 2586 0
159 2586 0
160 2586 0
161 2586 0
162 2586 0
163 2586 0
164 2586 0
165 2586 0
166 2586 0
167 2586 0
168 2586 0
169 2586 0
170 2586 0
171 2586 0
172 2586 0
173 2586 0
174 2586 0
175 2586 0
176 2586 0
177 2586 0
178 2586 0
179 2586 0
180 2586 0.99509004789631994
1245 2586 0
1246 2586 0
1247 2586 0
1248 2586 0
1241 2587 0
1242 2587 0
1243 2587 0
1244 2587 0
1606 2587 0
1241 2588 0.99878751991636638
1242 2588 0
1243 2588 0
1244 2588 0
1606 2588 0
1241 2589 0
1242 2589 0.99886974093913028
1243 2589 0
1244 2589 0
1606 2589 0
1241 2590 0
1242 2590 0
1243 2590 0.99859691322799182
1244 2590 0
1606 2590 0
1241 2591 0
1242 2591 0
1243 2591 0
1244 2591 0.99879118685427859
1606 2591 0
1241 2592 0
1242 2592 0
1243 2592 0
1244 2592 0
1606 2592 1
145 2593 -0.99509004789631994
146 2593 -0
147 2593 -0
148 2593 -0
149 2593 -0
150 2593 -0
151 2593 -0
152 2593 -0
153 2593 -0
154 2593 -0
155 2593 -0
156 2593 -0
157 2593 0
158 2593 0
159 2593 0
160 2593 0
161 2593 0
162 2593 0
163 2593 0
164 2593 0
165 2593 0
166 2593 0
167 2593 0
168 2593 0
1241 2593 -0.1803189598547551
1242 2593 -0.25584631152049064
1243 2593 -0.074765084896359371
1244 2593 -0.06244980534901011
145 2594 -0
146 2594 -0.99509004789631994
147 2594 -0
148 2594 -0
149 2594 -0
150 2594 -0
151 2594 -0
152 2594 -0
153 2594 -0
154 2594 -0
155 2594 -0
156 2594 -0
157 2594 0
158 2594 0
159 2594 0
160 2594 0
161 2594 0
162 2594 0
163 2594 0
164 2594 0
165 2594 0
166 2594 0
167 2594 0
168 2594 0
1241 2594 0.10820261428783474
1242 2594 0.080196783561304039
1243 2594 -0.016866001348705428
1244 2594 -0.17094248486675911
145 2595 -0
146 2595 -0
147 2595 -0.99509004789631994
148 2595 -0
149 2595 -0
150 2595 -0
151 2595 -0
152 2595 -0
153 2595 -0
154 2595 -0
155 2595 -0
156 2595 -0
157 2595 0
158 2595 0
159 2595 0
160 2595 0
161 2595 0
162 2595 0
163 2595 0
164 2595 0
165 2595 0
166 2595 0
167 2595 0
168 2595 0
1241 2595 0.021296203412182201
1242 2595 0.06379387941368389
1243 2595 0.33227429440027084
1244 2595 0.038055274961526345
145 2596 -0
146 2596 -0
147 2596 -0
148 2596 -0.99509004789631994
149 2596 -0
150 2596 -0
151 2596 -0
152 2596 -0
153 2596 -0
154 2596 -0
155 2596 -0
156 2596 -0
157 2596 0
158 2596 0
159 2596 0
160 2596 0
161 2596 0
162 2596 0
163 2596 0
164 2596 0
165 2596 0
166 2596 0
167 2596 0
168 2596 0
1241 2596 0.19846746771042395
1242 2596 0.13291349456905685
1243 2596 -0.11659569025066187
1244 2596 0.1709989853023412
145 2597 -0
146 2597 -0
147 2597 -0
148 2597 -0
149 2597 -0.99509004789631994
150 2597 -0
151 2597 -0
152 2597 -0
153 2597 -0
154 2597 -0
155 2597 -0
156 2597 -0
157 2597 0
158 2597 0
159 2597 0
160 2597 0
161 2597 0
162 2597 0
163 2597 0
164 2597 0
165 2597 0
166 2597 0
167 2597 0
168 2597 0
1241 2597 0.06406726430169403
1242 2597 0.0077975121873435499
1243 2597 -0.012888481757033089
1244 2597 0.1821584263174176
145 2598 -0
146 2598 -0
147 2598 -0
148 2598 -0
149 2598 -0
150 2598 -0.99509004789631994
151 2598 -0
152 2598 -0
153 2598 -0
154 2598 -0
155 2598 -0
156 2598 -0
157 2598 0
158 2598 0
159 2598 0
160 2598 0
161 2598 0
162 2598 0
163 2598 0
164 2598 0
165 2598 0
166 2598 0
167 2598 0
168 2598 0
1241 2598 0.14930176975937659
1242 2598 -0.1220518999462523
1243 2598 -0.21437482240798272
1244 2598 -0.27728111366749703
145 2599 -0
146 2599 -0
147 2599 -0
148 2599 -0
149 2599 -0
150 2599 -0
151 2599 -0.99509004789631994
152 2599 -0
153 2599 -0
154 2599 -0
155 2599 -0
156 2599 -0
157 2599 0
158 2599 0
159 2599 0
160 2599 0
161 2599 0
162 2599 0
163 2599 0
164 2599 0
165 2599 0
166 2599 0
167 2599 0
168 2599 0
1241 2599 -0.27832449100114248
1242 2599 -0.023030066571549251
1243 2599 0.085999904285044407
1244 2599 0.14042558666593874
145 2600 -0
146 2600 -0
147 2600 -0
148 2600 -0
149 2600 -0
150 2600 -0
151 2600 -0
152 2600 -0.99509004789631994
153 2600 -0
154 2600 -0
155 2600 -0
156 2600 -0
157 2600 0
158 2600 0
159 2600 0
160 2600 0
161 2600 0
162 2600 0
163 2600 0
164 2600 0
165 2600 0
166 2600 0
167 2600 0
168 2600 0
1241 2600 0.14426661227624929
1242 2600 0.019112219351713613
1243 2600 -0.3383340256558125
1244 2600 -0.26332006554483989
145 2601 -0
146 2601 -0
147 2601 -0
148 2601 -0
149 2601 -0
150 2601 -0
151 2601 -0
152 2601 -0
153 2601 -0.99509004789631994
154 2601 -0
155 2601 -0
156 2601 -0
157 2601 0
158 2601 0
159 2601 0
160 2601 0
161 2601 0
162 2601 0
163 2601 0
164 2601 0
165 2601 0
166 2601 0
167 2601 0
168 2601 0
1241 2601 -0.11462509557936003
1242 2601 -0.065598224589830417
1243 2601 0.12045547271290091
1244 2601 0.066735657880519217
145 2602 -0
146 2602 -0
147 2602 -0
148 2602 -0
149 2602 -0
150 2602 -0
151 2602 -0
152 2602 -0
153 2602 -0
154 2602 -0.99509004789631994
155 2602 -0
156 2602 -0
157 2602 0
158 2602 0
159 2602 0
160 2602 0
161 2602 0
162 2602 0
163 2602 0
164 2602 0
165 2602 0
166 2602 0
167 2602 0
168 2602 0
1241 2602 0.1112726701807888
1242 2602 -0.18163442438886057
1243 2602 -0.24934842404473068
1244 2602 0.087619788974651794
145 2603 -0
146 2603 -0
147 2603 -0
148 2603 -0
149 2603 -0
150 2603 -0
151 2603 -0
152 2603 -0
153 2603 -0
154 2603 -0
155 2603 -0.99509004789631994
156 2603 -0
157 2603 0
158 2603 0
159 2603 0
160 2603 0
161 2603 0
162 2603 0
163 2603 0
164 2603 0
165 2603 0
166 2603 0
167 2603 0
168 2603 0
1241 2603 0.0048220099123521959
1242 2603 -0.09230703811323461
1243 2603 -0.22028815111069383
1244 2603 -0.062540089363958593
145 2604 -0
146 2604 -0
147 2604 -0
148 2604 -0
149 2604 -0
150 2604 -0
151 2604 -0
152 2604 -0
153 2604 -0
154 2604 -0
155 2604 -0
156 2604 -0.99509004789631994
157 2604 0
158 2604 0
159 2604 0
160 2604 0
161 2604 0
162 2604 0
163 2604 0
164 2604 0
165 2604 0
166 2604 0
167 2604 0
168 2604 0
1241 2604 0.22589481330245723
1242 2604 0.085512196920050021
1243 2604 -0.209328877595194
1244 2604 0.014853171089538656
145 2605 0
146 2605 0
147 2605 0
148 2605 0
149 2605 0
150 2605 0
151 2605 0
152 2605 0
153 2605 0
154 2605 0
155 2605 0
156 2605 0
157 2605 0.99509004789631994
158 2605 0
159 2605 0
160 2605 0
161 2605 0
162 2605 0
163 2605 0
164 2605 0
165 2605 0
166 2605 0
167 2605 0
168 2605 0
1241 2605 0
1242 2605 0
1243 2605 0
1244 2605 0
145 2606 0
146 2606 0
147 2606 0
148 2606 0
149 2606 0
150 2606 0
151 2606 0
152 2606 0
153 2606 0
154 2606 0
155 2606 0
156 2606 0
157 2606 0
158 2606 0.99509004789631994
159 2606 0
160 2606 0
161 2606 0
162 2606 0
163 2606 0
164 2606 0
165 2606 0
166 2606 0
167 2606 0
168 2606 0
1241 2606 0
1242 2606 0
1243 2606 0
1244 2606 0
145 2607 0
146 2607 0
147 2607 0
148 2607 0
149 2607 0
150 2607 0
151 2607 0
152 2607 0
153 2607 0
154 2607 0
155 2607 0
156 2607 0
157 2607 0
158 2607 0
159 2607 0.99509004789631994
160 2607 0
161 2607 0
162 2607 0
163 2607 0
164 2607 0
165 2607 0
166 2607 0
167 2607 0
168 2607 0
1241 2607 0
1242 2607 0
1243 2607 0
1244 2607 0
145 2608 0
146 2608 0
147 2608 0
148 2608 0
149 2608 0
150 2608 0
151 2608 0
152 2608 0
153 2608 0
154 2608 0
155 2608 0
156 2608 0
157 2608 0
158 2608 0
159 2608 0
160 2608 0.99509004789631994
161 2608 0
162 2608 0
163 2608 0
164 2608 0
165 2608 0
166 2608 0
167 2608 0
168 2608 0
1241 2608 0
1242 2608 0
1243 2608 0
1244 2608 0
145 2609 0
146 2609 0
147 2609 0
148 2609 0
149 2609 0
150 2609 0
151 2609 0
152 2609 0
153 2609 0
154 2609 0
155 2609 0
156 2609 0
157 2609 0
158 2609 0
159 2609 0
160 2609 0
161 2609 0.99509004789631994
162 2609 0
163 2609 0
164 2609 0
165 2609 0
166 2609 0
167 2609 0
168 2609 0
1241 2609 0
1242 2609 0
1243 2609 0
1244 2609 0
145 2610 0
146 2610 0
147 2610 0
148 2610 0
149 2610 0
150 2610 0
151 2610 0
152 2610 0
153 2610 0
154 2610 0
155 2610 0
156 2610 0
157 2610 0
158 2610 0
159 2610 0
160 2610 0
161 2610 0
162 2610 0.99509004789631994
163 2610 0
164 2610 0
165 2610 0
166 2610 0
167 2610 0
168 2610 0
1241 2610 0
1242 2610 0
1243 2610 0
1244 2610 0
145 2611 0
146 2611 0
147 2611 0
148 2611 0
149 2611 0
150 2611 0
151 2611 0
152 2611 0
153 2611 0
154 2611 0
155 2611 0
156 2611 0
157 2611 0
158 2611 0
159 2611 0
160 2611 0
161 2611 0
162 2611 0
163 2611 0.99509004789631994
164 2611 0
165 2611 0
166 2611 0
167 2611 0
168 2611 0
1241 2611 0
1242 2611 0
1243 2611 0
1244 2611 0
145 2612 0
146 2612 0
147 2612 0
148 2612 0
149 2612 0
150 2612 0
151 2612 0
152 2612 0
153 2612 0
154 2612 0
155 2612 0
156 2612 0
157 2612 0
158 2612 0
159 2612 0
160 2612 0
161 2612 0
162 2612 0
163 2612 0
164 2612 0.99509004789631994
165 2612 0
166 2612 0
167 2612 0
168 2612 0
1241 2612 0
1242 2612 0
1243 2612 0
1244 2612 0
145 2613 0
146 2613 0
147 2613 0
148 2613 0
149 2613 0
150 2613 0
151 2613 0
152 2613 0
153 2613 0
154 2613 0
155 2613 0
156 2613 0
157 2613 0
158 2613 0
159 2613 0
160 2613 0
161 2613 0
162 2613 0
163 2613 0
164 2613 0
165 2613 0.99509004789631994
166 2613 0
167 2613 0
168 2613 0
1241 2613 0
1242 2613 0
1243 2613 0
1244 2613 0
145 2614 0
146 2614 0
147 2614 0
148 2614 0
149 2614 0
150 2614 0
151 2614 0
152 2614 0
153 2614 0
154 2614 0
155 2614 0
156 2614 0
157 2614 0
158 2614 0
159 2614 0
160 2614 0
161 2614 0
162 2614 0
163 2614 0
164 2614 0
165 2614 0
166 2614 0.99509004789631994
167 2614 0
168 2614 0
1241 2614 0
1242 2614 0
1243 2614 0
1244 2614 0
145 2615 0
146 2615 0
147 2615 0
148 2615 0
149 2615 0
150 2615 0
151 2615 0
152 2615 0
153 2615 0
154 2615 0
155 2615 0
156 2615 0
157 2615 0
158 2615 0
159 2615 0
160 2615 0
161 2615 0
162 2615 0
163 2615 0
164 2615 0
165 2615 0
166 2615 0
167 2615 0.99509004789631994
168 2615 0
1241 2615 0
1242 2615 0
1243 2615 0
1244 2615 0
145 2616 0
146 2616 0
147 2616 0
148 2616 0
149 2616 0
150 2616 0
151 2616 0
152 2616 0
153 2616 0
154 2616 0
155 2616 0
156 2616 0
157 2616 0
158 2616 0
159 2616 0
160 2616 0
161 2616 0
162 2616 0
163 2616 0
164 2616 0
165 2616 0
166 2616 0
167 2616 0
168 2616 0.99509004789631994
1241 2616 0
1242 2616 0
1243 2616 0
1244 2616 0
1237 2617 0
1238 2617 0
1239 2617 0
1240 2617 0
1605 2617 0
1237 2618 0.99878751991636638
1238 2618 0
1239 2618 0
1240 2618 0
1605 2618 0
1237 2619 0
1238 2619 0.99886974093913028
1239 2619 0
1240 2619 0
1605 2619 0
1237 2620 0
1238 2620 0
1239 2620 0.99859691322799182
1240 2620 0
1605 2620 0
1237 2621 0
1238 2621 0
1239 2621 0
1240 2621 0.99879118685427859
1605 2621 0
1237 2622 0
1238 2622 0
1239 2622 0
1240 2622 0
1605 2622 1
133 2623 -0.99509004789631994
134 2623 -0
135 2623 -0
136 2623 -0
137 2623 -0
138 2623 -0
139 2623 -0
140 2623 -0
141 2623 -0
142 2623 -0
143 2623 -0
144 2623 -0
145 2623 0
146 2623 0
147 2623 0
148 2623 0
149 2623 0
150 2623 0
151 2623 0
152 2623 0
153 2623 0
154 2623 0
155 2623 0
156 2623 0
1237 2623 -0.1803189598547551
1238 2623 -0.25584631152049064
1239 2623 -0.074765084896359371
1240 2623 -0.06244980534901011
133 2624 -0
134 2624 -0.99509004789631994
135 2624 -0
136 2624 -0
137 2624 -0
138 2624 -0
139 2624 -0
140 2624 -0
141 2624 -0
142 2624 -0
143 2624 -0
144 2624 -0
145 2624 0
146 2624 0
147 2624 0
148 2624 0
149 2624 0
150 2624 0
151 2624 0
152 2624 0
153 2624 0
154 2624 0
155 2624 0
156 2624 0
1237 2624 0.10820261428783474
1238 2624 0.080196783561304039
1239 2624 -0.016866001348705428
1240 2624 -0.17094248486675911
133 2625 -0
134 2625 -0
135 2625 -0.99509004789631994
136 2625 -0
137 2625 -0
138 2625 -0
139 2625 -0
140 2625 -0
141 2625 -0
142 2625 -0
143 2625 -0
144 2625 -0
145 2625 0
146 2625 0
147 2625 0
148 2625 0
149 2625 0
150 2625 0
151 2625 0
152 2625 0
153 2625 0
154 2625 0
155 2625 0
156 2625 0
1237 2625 0.021296203412182201
1238 2625 0.06379387941368389
1239 2625 0.33227429440027084
1240 2625 0.038055274961526345
133 2626 -0
134 2626 -0
135 2626 -0
136 2626 -0.99509004789631994
137 2626 -0
138 2626 -0
139 2626 -0
140 2626 -0
141 2626 -0
142 2626 -0
143 2626 -0
144 2626 -0
145 2626 0
146 2626 0
147 2626 0
148 2626 0
149 2626 0
150 2626 0
151 2626 0
152 2626 0
153 2626 0
154 2626 0
155 2626 0
156 2626 0
1237 2626 0.19846746771042395
1238 2626 0.13291349456905685
1239 2626 -0.11659569025066187
1240 2626 0.1709989853023412
133 2627 -0
134 2627 -0
135 2627 -0
136 2627 -0
137 2627 -0.99509004789631994
138 2627 -0
139 2627 -0
140 2627 -0
141 2627 -0
142 2627 -0
143 2627 -0
144 2627 -0
145 2627 0
146 2627 0
147 2627 0
148 2627 0
149 2627 0
150 2627 0
151 2627 0
152 2627 0
153 2627 0
154 2627 0
155 2627 0
156 2627 0
1237 2627 0.06406726430169403
1238 2627 0.0077975121873435499
1239 2627 -0.012888481757033089
1240 2627 0.1821584263174176
133 2628 -0
134 2628 -0
135 2628 -0
136 2628 -0
137 2628 -0
138 2628 -0.99509004789631994
139 2628 -0
140 2628 -0
141 2628 -0
142 2628 -0
143 2628 -0
144 2628 -0
145 2628 0
146 2628 0
147 2628 0
148 2628 0
149 2628 0
150 2628 0
151 2628 0
152 2628 0
153 2628 0
154 2628 0
155 2628 0
156 2628 0
1237 2628 0.14930176975937659
1238 2628 -0.1220518999462523
1239 2628 -0.21437482240798272
1240 2628 -0.27728111366749703
133 2629 -0
134 2629 -0
135 2629 -0
136 2629 -0
137 2629 -0
138 2629 -0
139 2629 -0.99509004789631994
140 2629 -0
141 2629 -0
142 2629 -0
143 2629 -0
144 2629 -0
145 2629 0
146 2629 0
147 2629 0
148 2629 0
149 2629 0
150 2629 0
151 2629 0
152 2629 0
153 2629 0
154 2629 0
155 2629 0
156 2629 0
1237 2629 -0.27832449100114248
1238 2629 -0.023030066571549251
1239 2629 0.085999904285044407
1240 2629 0.14042558666593874
133 2630 -0
134 2630 -0
135 2630 -0
136 2630 -0
137 2630 -0
138 2630 -0
139 2630 -0
140 2630 -0.99509004789631994
141 2630 -0
142 2630 -0
143 2630 -0
144 2630 -0
145 2630 0
146 2630 0
147 2630 0
148 2630 0
149 2630 0
150 2630 0
151 2630 0
152 2630 0
153 2630 0
154 2630 0
155 2630 0
156 2630 0
1237 2630 0.14426661227624929
1238 2630 0.019112219351713613
1239 2630 -0.3383340256558125
1240 2630 -0.26332006554483989
133 2631 -0
134 2631 -0
135 2631 -0
136 2631 -0
137 2631 -0
138 2631 -0
139 2631 -0
140 2631 -0
141 2631 -0.99509004789631994
142 2631 -0
143 2631 -0
144 2631 -0
145 2631 0
146 2631 0
147 2631 0
148 2631 0
149 2631 0
150 2631 0
151 2631 0
152 2631 0
153 2631 0
154 2631 0
155 2631 0
156 2631 0
1237 2631 -0.11462509557936003
1238 2631 -0.065598224589830417
1239 2631 0.12045547271290091
1240 2631 0.066735657880519217
133 2632 -0
134 2632 -0
135 2632 -0
136 2632 -0
137 2632 -0
138 2632 -0
139 2632 -0
140 2632 -0
141 2632 -0
142 2632 -0.99509004789631994
143 2632 -0
144 2632 -0
145 2632 0
146 2632 0
147 2632 0
148 2632 0
149 2632 0
150 2632 0
151 2632 0
152 2632 0
153 2632 0
154 2632 0
155 2632 0
156 2632 0
1237 2632 0.1112726701807888
1238 2632 -0.18163442438886057
1239 2632 -0.24934842404473068
1240 2632 0.087619788974651794
133 2633 -0
134 2633 -0
135 2633 -0
136 2633 -0
137 2633 -0
138 2633 -0
139 2633 -0
140 2633 -0
141 2633 -0
142 2633 -0
143 2633 -0.99509004789631994
144 2633 -0
145 2633 0
146 2633 0
147 2633 0
148 2633 0
149 2633 0
150 2633 0
151 2633 0
152 2633 0
153 2633 0
154 2633 0
155 2633 0
156 2633 0
1237 2633 0.0048220099123521959
1238 2633 -0.09230703811323461
1239 2633 -0.22028815111069383
1240 2633 -0.062540089363958593
133 2634 -0
134 2634 -0
135 2634 -0
136 2634 -0
137 2634 -0
138 2634 -0
139 2634 -0
140 2634 -0
141 2634 -0
142 2634 -0
143 2634 -0
144 2634 -0.99509004789631994
145 2634 0
146 2634 0
147 2634 0
148 2634 0
149 2634 0
150 2634 0
151 2634 0
152 2634 0
153 2634 0
154 2634 0
155 2634 0
156 2634 0
1237 2634 0.22589481330245723
1238 2634 0.085512196920050021
1239 2634 -0.209328877595194
1240 2634 0.014853171089538656
133 2635 0
134 2635 0
135 2635 0
136 2635 0
137 2635 0
138 2635 0
139 2635 0
140 2635 0
141 2635 0
142 2635 0
143 2635 0
144 2635 0
145 2635 0.99509004789631994
146 2635 0
147 2635 0
148 2635 0
149 2635 0
150 2635 0
151 2635 0
152 2635 0
153 2635 0
154 2635 0
155 2635 0
156 2635 0
1237 2635 0
1238 2635 0
1239 2635 0
1240 2635 0
133 2636 0
134 2636 0
135 2636 0
136 2636 0
137 2636 0
138 2636 0
139 2636 0
140 2636 0
141 2636 0
142 2636 0
143 2636 0
144 2636 0
145 2636 0
146 2636 0.99509004789631994
147 2636 0
148 2636 0
149 2636 0
150 2636 0
151 2636 0
152 2636 0
153 2636 0
154 2636 0
155 2636 0
156 2636 0
1237 2636 0
1238 2636 0
1239 2636 0
1240 2636 0
133 2637 0
134 2637 0
135 2637 0
136 2637 0
137 2637 0
138 2637 0
139 2637 0
140 2637 0
141 2637 0
142 2637 0
143 2637 0
144 2637 0
145 2637 0
146 2637 0
147 2637 0.99509004789631994
148 2637 0
149 2637 0
150 2637 0
151 2637 0
152 2637 0
153 2637 0
154 2637 0
155 2637 0
156 2637 0
1237 2637 0
1238 2637 0
1239 2637 0
1240 2637 0
133 2638 0
134 2638 0
135 2638 0
136 2638 0
137 2638 0
138 2638 0
139 2638 0
140 2638 0
141 2638 0
142 2638 0
143 2638 0
144 2638 0
145 2638 0
146 2638 0
147 2638 0
148 2638 0.99509004789631994
149 2638 0
150 2638 0
151 2638 0
152 2638 0
153 2638 0
154 2638 0
155 2638 0
156 2638 0
1237 2638 0
1238 2638 0
1239 2638 0
1240 2638 0
133 2639 0
134 2639 0
135 2639 0
136 2639 0
137 2639 0
138 2639 0
139 2639 0
140 2639 0
141 2639 0
142 2639 0
143 2639 0
144 2639 0
145 2639 0
146 2639 0
147 2639 0
148 2639 0
149 2639 0.99509004789631994
150 2639 0
151 2639 0
152 2639 0
153 2639 0
154 2639 0
155 2639 0
156 2639 0
1237 2639 0
1238 2639 0
1239 2639 0
1240 2639 0
133 2640 0
134 2640 0
135 2640 0
136 2640 0
137 2640 0
138 2640 0
139 2640 0
140 2640 0
141 2640 0
142 2640 0
143 2640 0
144 2640 0
145 2640 0
146 2640 0
147 2640 0
148 2640 0
149 2640 0
150 2640 0.99509004789631994
151 2640 0
152 2640 0
153 2640 0
154 2640 0
155 2640 0
156 2640 0
1237 2640 0
1238 2640 0
1239 2640 0
1240 2640 0
133 2641 0
134 2641 0
135 2641 0
136 2641 0
137 2641 0
138 2641 0
139 2641 0
140 2641 0
141 2641 0
142 2641 0
143 2641 0
144 2641 0
145 2641 0
146 2641 0
147 2641 0
148 2641 0
149 2641 0
150 2641 0
151 2641 0.99509004789631994
152 2641 0
153 2641 0
154 2641 0
155 2641 0
156 2641 0
1237 2641 0
1238 2641 0
1239 2641 0
1240 2641 0
133 2642 0
134 2642 0
135 2642 0
136 2642 0
137 2642 0
138 2642 0
139 2642 0
140 2642 0
141 2642 0
142 2642 0
143 2642 0
144 2642 0
145 2642 0
146 2642 0
147 2642 0
148 2642 0
149 2642 0
150 2642 0
151 2642 0
152 2642 0.99509004789631994
153 2642 0
154 2642 0
155 2642 0
156 2642 0
1237 2642 0
1238 2642 0
1239 2642 0
1240 2642 0
133 2643 0
134 2643 0
135 2643 0
136 2643 0
137 2643 0
138 2643 0
139 2643 0
140 2643 0
141 2643 0
142 2643 0
143 2643 0
144 2643 0
145 2643 0
146 2643 0
147 2643 0
148 2643 0
149 2643 0
150 2643 0
151 2643 0
152 2643 0
153 2643 0.99509004789631994
154 2643 0
155 2643 0
156 2643 0
1237 2643 0
1238 2643 0
1239 2643 0
1240 2643 0
133 2644 0
134 2644 0
135 2644 0
136 2644 0
137 2644 0
138 2644 0
139 2644 0
140 2644 0
141 2644 0
142 2644 0
143 2644 0
144 2644 0
145 2644 0
146 2644 0
147 2644 0
148 2644 0
149 2644 0
150 2644 0
151 2644 0
152 2644 0
153 2644 0
154 2644 0.99509004789631994
155 2644 0
156 2644 0
1237 2644 0
1238 2644 0
1239 2644 0
1240 2644 0
133 2645 0
134 2645 0
135 2645 0
136 2645 0
137 2645 0
138 2645 0
139 2645 0
140 2645 0
141 2645 0
142 2645 0
143 2645 0
144 2645 0
145 2645 0
146 2645 0
147 2645 0
148 2645 0
149 2645 0
150 2645 0
151 2645 0
152 2645 0
153 2645 0
154 2645 0
155 2645 0.99509004789631994
156 2645 0
1237 2645 0
1238 2645 0
1239 2645 0
1240 2645 0
133 2646 0
134 2646 0
135 2646 0
136 2646 0
137 2646 0
138 2646 0
139 2646 0
140 2646 0
141 2646 0
142 2646 0
143 2646 0
144 2646 0
145 2646 0
146 2646 0
147 2646 0
148 2646 0
149 2646 0
150 2646 0
151 2646 0
152 2646 0
153 2646 0
154 2646 0
155 2646 0
156 2646 0.99509004789631994
1237 2646 0
1238 2646 0
1239 2646 0
1240 2646 0
1233 2647 0
1234 2647 0
1235 2647 0
1236 2647 0
1604 2647 0
1233 2648 0.99878751991636638
1234 2648 0
1235 2648 0
1236 2648 0
1604 2648 0
1233 2649 0
1234 2649 0.99886974093913028
1235 2649 0
1236 2649 0
1604 2649 0
1233 2650 0
1234 2650 0
1235 2650 0.99859691322799182
1236 2650 0
1604 2650 0
1233 2651 0
1234 2651 0
1235 2651 0
1236 2651 0.99879118685427859
1604 2651 0
1233 2652 0
1234 2652 0
1235 2652 0
1236 2652 0
1604 2652 1
121 2653 -0.99509004789631994
122 2653 -0
123 2653 -0
124 2653 -0
125 2653 -0
126 2653 -0
127 2653 -0
128 2653 -0
129 2653 -0
130 2653 -0
131 2653 -0
132 2653 -0
133 2653 0
134 2653 0
135 2653 0
136 2653 0
137 2653 0
138 2653 0
139 2653 0
140 2653 0
141 2653 0
142 2653 0
143 2653 0
144 2653 0
1233 2653 -0.1803189598547551
1234 2653 -0.25584631152049064
1235 2653 -0.074765084896359371
1236 2653 -0.06244980534901011
121 2654 -0
122 2654 -0.99509004789631994
123 2654 -0
124 2654 -0
125 2654 -0
126 2654 -0
127 2654 -0
128 2654 -0
129 2654 -0
130 2654 -0
131 2654 -0
132 2654 -0
133 2654 0
134 2654 0
135 2654 0
136 2654 0
137 2654 0
138 2654 0
139 2654 0
140 2654 0
141 2654 0
142 2654 0
143 2654 0
144 2654 0
1233 2654 0.10820261428783474
1234 2654 0.080196783561304039
1235 2654 -0.016866001348705428
1236 2654 -0.17094248486675911
121 2655 -0
122 2655 -0
123 2655 -0.99509004789631994
124 2655 -0
125 2655 -0
126 2655 -0
127 2655 -0
128 2655 -0
129 2655 -0
130 2655 -0
131 2655 -0
132 2655 -0
133 2655 0
134 2655 0
135 2655 0
136 2655 0
137 2655 0
138 2655 0
139 2655 0
140 2655 0
141 2655 0
142 2655 0
143 2655 0
144 2655 0
1233 2655 0.021296203412182201
1234 2655 0.06379387941368389
1235 2655 0.33227429440027084
1236 2655 0.038055274961526345
121 2656 -0
122 2656 -0
123 2656 -0
124 2656 -0.99509004789631994
125 2656 -0
126 2656 -0
127 2656 -0
128 2656 -0
129 2656 -0
130 2656 -0
131 2656 -0
132 2656 -0
133 2656 0
134 2656 0
135 2656 0
136 2656 0
137 2656 0
138 2656 0
139 2656 0
140 2656 0
141 2656 0
142 2656 0
143 2656 0
144 2656 0
1233 2656 0.19846746771042395
1234 2656 0.13291349456905685
1235 2656 -0.11659569025066187
1236 2656 0.1709989853023412
121 2657 -0
122 2657 -0
123 2657 -0
124 2657 -0
125 2657 -0.99509004789631994
126 2657 -0
127 2657 -0
128 2657 -0
129 2657 -0
130 2657 -0
131 2657 -0
132 2657 -0
133 2657 0
134 2657 0
135 2657 0
136 2657 0
137 2657 0
138 2657 0
139 2657 0
140 2657 0
141 2657 0
142 2657 0
143 2657 0
144 2657 0
1233 2657 0.06406726430169403
1234 2657 0.0077975121873435499
1235 2657 -0.012888481757033089
1236 2657 0.1821584263174176
121 2658 -0
122 2658 -0
123 2658 -0
124 2658 -0
125 2658 -0
126 2658 -0.99509004789631994
127 2658 -0
128 2658 -0
129 2658 -0
130 2658 -0
131 2658 -0
132 2658 -0
133 2658 0
134 2658 0
135 2658 0
136 2658 0
137 2658 0
138 2658 0
139 2658 0
140 2658 0
141 2658 0
142 2658 0
143 2658 0
144 2658 0
1233 2658 0.14930176975937659
1234 2658 -0.1220518999462523
1235 2658 -0.21437482240798272
1236 2658 -0.27728111366749703
121 2659 -0
122 2659 -0
123 2659 -0
124 2659 -0
125 2659 -0
126 2659 -0
127 2659 -0.99509004789631994
128 2659 -0
129 2659 -0
130 2659 -0
131 2659 -0
132 2659 -0
133 2659 0
134 2659 0
135 2659 0
136 2659 0
137 2659 0
138 2659 0
139 2659 0
140 2659 0
141 2659 0
142 2659 0
143 2659 0
144 2659 0
1233 2659 -0.27832449100114248
1234 2659 -0.023030066571549251
1235 2659 0.085999904285044407
1236 2659 0.14042558666593874
121 2660 -0
122 2660 -0
123 2660 -0
124 2660 -0
125 2660 -0
126 2660 -0
127 2660 -0
128 2660 -0.99509004789631994
129 2660 -0
130 2660 -0
131 2660 -0
132 2660 -0
133 2660 0
134 2660 0
135 2660 0
136 2660 0
137 2660 0
138 2660 0
139 2660 0
140 2660 0
141 2660 0
142 2660 0
143 2660 0
144 2660 0
1233 2660 0.14426661227624929
1234 2660 0.019112219351713613
1235 2660 -0.3383340256558125
1236 2660 -0.26332006554483989
121 2661 -0
122 2661 -0
123 2661 -0
124 2661 -0
125 2661 -0
126 2661 -0
127 2661 -0
128 2661 -0
129 2661 -0.99509004789631994
130 2661 -0
131 2661 -0
132 2661 -0
133 2661 0
134 2661 0
135 2661 0
136 2661 0
137 2661 0
138 2661 0
139 2661 0
140 2661 0
141 2661 0
142 2661 0
143 2661 0
144 2661 0
1233 2661 -0.11462509557936003
1234 2661 -0.065598224589830417
1235 2661 0.12045547271290091
1236 2661 0.066735657880519217
121 2662 -0
122 2662 -0
123 2662 -0
124 2662 -0
125 2662 -0
126 2662 -0
127 2662 -0
128 2662 -0
129 2662 -0
130 2662 -0.99509004789631994
131 2662 -0
132 2662 -0
133 2662 0
134 2662 0
135 2662 0
136 2662 0
137 2662 0
138 2662 0
139 2662 0
140 2662 0
141 2662 0
142 2662 0
143 2662 0
144 2662 0
1233 2662 0.1112726701807888
1234 2662 -0.18163442438886057
1235 2662 -0.24934842404473068
1236 2662 0.087619788974651794
121 2663 -0
122 2663 -0
123 2663 -0
124 2663 -0
125 2663 -0
126 2663 -0
127 2663 -0
128 2663 -0
129 2663 -0
130 2663 -0
131 2663 -0.99509004789631994
132 2663 -0
133 2663 0
134 2663 0
135 2663 0
136 2663 0
137 2663 0
138 2663 0
139 2663 0
140 2663 0
141 2663 0
142 2663 0
143 2663 0
144 2663 0
1233 2663 0.0048220099123521959
1234 2663 -0.09230703811323461
1235 2663 -0.22028815111069383
1236 2663 -0.062540089363958593
121 2664 -0
122 2664 -0
123 2664 -0
124 2664 -0
125 2664 -0
126 2664 -0
127 2664 -0
128 2664 -0
129 2664 -0
130 2664 -0
131 2664 -0
132 2664 -0.99509004789631994
133 2664 0
134 2664 0
135 2664 0
136 2664 0
137 2664 0
138 2664 0
139 2664 0
140 2664 0
141 2664 0
142 2664 0
143 2664 0
144 2664 0
1233 2664 0.22589481330245723
1234 2664 0.085512196920050021
1235 2664 -0.209328877595194
1236 2664 0.014853171089538656
121 2665 0
122 2665 0
123 2665 0
124 2665 0
125 2665 0
126 2665 0
127 2665 0
128 2665 0
129 2665 0
130 2665 0
131 2665 0
132 2665 0
133 2665 0.99509004789631994
134 2665 0
135 2665 0
136 2665 0
137 2665 0
138 2665 0
139 2665 0
140 2665 0
141 2665 0
142 2665 0
143 2665 0
144 2665 0
1233 2665 0
1234 2665 0
1235 2665 0
1236 2665 0
121 2666 0
122 2666 0
123 2666 0
124 2666 0
125 2666 0
126 2666 0
127 2666 0
128 2666 0
129 2666 0
130 2666 0
131 2666 0
132 2666 0
133 2666 0
134 2666 0.99509004789631994
135 2666 0
136 2666 0
137 2666 0
138 2666 0
139 2666 0
140 2666 0
141 2666 0
142 2666 0
143 2666 0
144 2666 0
1233 2666 0
1234 2666 0
1235 2666 0
1236 2666 0
121 2667 0
122 2667 0
123 2667 0
124 2667 0
125 2667 0
126 2667 0
127 2667 0
128 2667 0
129 2667 0
130 2667 0
131 2667 0
132 2667 0
133 2667 0
134 2667 0
135 2667 0.99509004789631994
136 2667 0
137 2667 0
138 2667 0
139 2667 0
140 2667 0
141 2667 0
142 2667 0
143 2667 0
144 2667 0
1233 2667 0
1234 2667 0
1235 2667 0
1236 2667 0
121 2668 0
122 2668 0
123 2668 0
124 2668 0
125 2668 0
126 2668 0
127 2668 0
128 2668 0
129 2668 0
130 2668 0
131 2668 0
132 2668 0
133 2668 0
134 2668 0
135 2668 0
136 2668 0.99509004789631994
137 2668 0
138 2668 0
139 2668 0
140 2668 0
141 2668 0
142 2668 0
143 2668 0
144 2668 0
1233 2668 0
1234 2668 0
1235 2668 0
1236 2668 0
121 2669 0
122 2669 0
123 2669 0
124 2669 0
125 2669 0
126 2669 0
127 2669 0
128 2669 0
129 2669 0
130 2669 0
131 2669 0
132 2669 0
133 2669 0
134 2669 0
135 2669 0
136 2669 0
137 2669 0.99509004789631994
138 2669 0
139 2669 0
140 2669 0
141 2669 0
142 2669 0
143 2669 0
144 2669 0
1233 2669 0
1234 2669 0
1235 2669 0
1236 2669 0
121 2670 0
122 2670 0
123 2670 0
124 2670 0
125 2670 0
126 2670 0
127 2670 0
128 2670 0
129 2670 0
130 2670 0
131 2670 0
132 2670 0
133 2670 0
134 2670 0
135 2670 0
136 2670 0
137 2670 0
138 2670 0.99509004789631994
139 2670 0
140 2670 0
141 2670 0
142 2670 0
143 2670 0
144 2670 0
1233 2670 0
1234 2670 0
1235 2670 0
1236 2670 0
121 2671 0
122 2671 0
123 2671 0
124 2671 0
125 2671 0
126 2671 0
127 2671 0
128 2671 0
129 2671 0
130 2671 0
131 2671 0
132 2671 0
133 2671 0
134 2671 0
135 2671 0
136 2671 0
137 2671 0
138 2671 0
139 2671 0.99509004789631994
140 2671 0
141 2671 0
142 2671 0
143 2671 0
144 2671 0
1233 2671 0
1234 2671 0
1235 2671 0
1236 2671 0
121 2672 0
122 2672 0
123 2672 0
124 2672 0
125 2672 0
126 2672 0
127 2672 0
128 2672 0
129 2672 0
130 2672 0
131 2672 0
132 2672 0
133 2672 0
134 2672 0
135 2672 0
136 2672 0
137 2672 0
138 2672 0
139 2672 0
140 2672 0.99509004789631994
141 2672 0
142 2672 0
143 2672 0
144 2672 0
1233 2672 0
1234 2672 0
1235 2672 0
1236 2672 0
121 2673 0
122 2673 0
123 2673 0
124 2673 0
125 2673 0
126 2673 0
127 2673 0
128 2673 0
129 2673 0
130 2673 0
131 2673 0
132 2673 0
133 2673 0
134 2673 0
135 2673 0
136 2673 0
137 2673 0
138 2673 0
139 2673 0
140 2673 0
141 2673 0.99509004789631994
142 2673 0
143 2673 0
144 2673 0
1233 2673 0
1234 2673 0
1235 2673 0
1236 2673 0
121 2674 0
122 2674 0
123 2674 0
124 2674 0
125 2674 0
126 2674 0
127 2674 0
128 2674 0
129 2674 0
130 2674 0
131 2674 0
132 2674 0
133 2674 0
134 2674 0
135 2674 0
136 2674 0
137 2674 0
138 2674 0
139 2674 0
140 2674 0
141 2674 0
142 2674 0.99509004789631994
143 2674 0
144 2674 0
1233 2674 0
1234 2674 0
1235 2674 0
1236 2674 0
121 2675 0
122 2675 0
123 2675 0
124 2675 0
125 2675 0
126 2675 0
127 2675 0
128 2675 0
129 2675 0
130 2675 0
131 2675 0
132 2675 0
133 2675 0
134 2675 0
135 2675 0
136 2675 0
137 2675 0
138 2675 0
139 2675 0
140 2675 0
141 2675 0
142 2675 0
143 2675 0.99509004789631994
144 2675 0
1233 2675 0
1234 2675 0
1235 2675 0
1236 2675 0
121 2676 0
122 2676 0
123 2676 0
124 2676 0
125 2676 0
126 2676 0
127 2676 0
128 2676 0
129 2676 0
130 2676 0
131 2676 0
132 2676 0
133 2676 0
134 2676 0
135 2676 0
136 2676 0
137 2676 0
138 2676 0
139 2676 0
140 2676 0
141 2676 0
142 2676 0
143 2676 0
144 2676 0.99509004789631994
1233 2676 0
1234 2676 0
1235 2676 0
1236 2676 0
1229 2677 0
1230 2677 0
1231 2677 0
1232 2677 0
1603 2677 0
1229 2678 0.99878751991636638
1230 2678 0
1231 2678 0
1232 2678 0
1603 2678 0
1229 2679 0
1230 2679 0.99886974093913028
1231 2679 0
1232 2679 0
1603 2679 0
1229 2680 0
1230 2680 0
1231 2680 0.99859691322799182
1232 2680 0
1603 2680 0
1229 2681 0
1230 2681 0
1231 2681 0
1232 2681 0.99879118685427859
1603 2681 0
1229 2682 0
1230 2682 0
1231 2682 0
1232 2682 0
1603 2682 1
109 2683 -0.99509004789631994
110 2683 -0
111 2683 -0
112 2683 -0
113 2683 -0
114 2683 -0
115 2683 -0
116 2683 -0
117 2683 -0
118 2683 -0
119 2683 -0
120 2683 -0
121 2683 0
122 2683 0
123 2683 0
124 2683 0
125 2683 0
126 2683 0
127 2683 0
128 2683 0
129 2683 0
130 2683 0
131 2683 0
132 2683 0
1229 2683 -0.1803189598547551
1230 2683 -0.25584631152049064
1231 2683 -0.074765084896359371
1232 2683 -0.06244980534901011
109 2684 -0
110 2684 -0.99509004789631994
111 2684 -0
112 2684 -0
113 2684 -0
114 2684 -0
115 2684 -0
116 2684 -0
117 2684 -0
118 2684 -0
119 2684 -0
120 2684 -0
121 2684 0
122 2684 0
123 2684 0
124 2684 0
125 2684 0
126 2684 0
127 2684 0
128 2684 0
129 2684 0
130 2684 0
131 2684 0
132 2684 0
1229 2684 0.10820261428783474
1230 2684 0.080196783561304039
1231 2684 -0.016866001348705428
1232 2684 -0.17094248486675911
109 2685 -0
110 2685 -0
111 2685 -0.99509004789631994
112 2685 -0
113 2685 -0
114 2685 -0
115 2685 -0
116 2685 -0
117 2685 -0
118 2685 -0
119 2685 -0
120 2685 -0
121 2685 0
122 2685 0
123 2685 0
124 2685 0
125 2685 0
126 2685 0
127 2685 0
128 2685 0
129 2685 0
130 2685 0
131 2685 0
132 2685 0
1229 2685 0.021296203412182201
1230 2685 0.06379387941368389
1231 2685 0.33227429440027084
1232 2685 0.038055274961526345
109 2686 -0
110 2686 -0
111 2686 -0
112 2686 -0.99509004789631994
113 2686 -0
114 2686 -0
115 2686 -0
116 2686 -0
117 2686 -0
118 2686 -0
119 2686 -0
120 2686 -0
121 2686 0
122 2686 0
123 2686 0
124 2686 0
125 2686 0
126 2686 0
127 2686 0
128 2686 0
129 2686 0
130 2686 0
131 2686 0
132 2686 0
1229 2686 0.19846746771042395
1230 2686 0.13291349456905685
1231 2686 -0.11659569025066187
1232 2686 0.1709989853023412
109 2687 -0
110 2687 -0
111 2687 -0
112 2687 -0
113 2687 -0.99509004789631994
114 2687 -0
115 2687 -0
116 2687 -0
117 2687 -0
118 2687 -0
119 2687 -0
120 2687 -0
121 2687 0
122 2687 0
123 2687 0
124 2687 0
125 2687 0
126 2687 0
127 2687 0
128 2687 0
129 2687 0
130 2687 0
131 2687 0
132 2687 0
1229 2687 0.06406726430169403
1230 2687 0.0077975121873435499
1231 2687 -0.012888481757033089
1232 2687 0.1821584263174176
109 2688 -0
110 2688 -0
111 2688 -0
112 2688 -0
113 2688 -0
114 2688 -0.99509004789631994
115 2688 -0
116 2688 -0
117 2688 -0
118 2688 -0
119 2688 -0
120 2688 -0
121 2688 0
122 2688 0
123 2688 0
124 2688 0
125 2688 0
126 2688 0
127 2688 0
128 2688 0
129 2688 0
130 2688 0
131 2688 0
132 2688 0
1229 2688 0.14930176975937659
1230 2688 -0.1220518999462523
1231 2688 -0.21437482240798272
1232 2688 -0.27728111366749703
109 2689 -0
110 2689 -0
111 2689 -0
112 2689 -0
113 2689 -0
114 2689 -0
115 2689 -0.99509004789631994
116 2689 -0
117 2689 -0
118 2689 -0
119 2689 -0
120 2689 -0
121 2689 0
122 2689 0
123 2689 0
124 2689 0
125 2689 0
126 2689 0
127 2689 0
128 2689 0
129 2689 0
130 2689 0
131 2689 0
132 2689 0
1229 2689 -0.27832449100114248
1230 2689 -0.023030066571549251
1231 2689 0.085999904285044407
1232 2689 0.14042558666593874
109 2690 -0
110 2690 -0
111 2690 -0
112 2690 -0
113 2690 -0
114 2690 -0
115 2690 -0
116 2690 -0.99509004789631994
117 2690 -0
118 2690 -0
119 2690 -0
120 2690 -0
121 2690 0
122 2690 0
123 2690 0
124 2690 0
125 2690 0
126 2690 0
127 2690 0
128 2690 0
129 2690 0
130 2690 0
131 2690 0
132 2690 0
1229 2690 0.14426661227624929
1230 2690 0.019112219351713613
1231 2690 -0.3383340256558125
1232 2690 -0.26332006554483989
109 2691 -0
110 2691 -0
111 2691 -0
112 2691 -0
113 2691 -0
114 2691 -0
115 2691 -0
116 2691 -0
117 2691 -0.99509004789631994
118 2691 -0
119 2691 -0
120 2691 -0
121 2691 0
122 2691 0
123 2691 0
124 2691 0
125 2691 0
126 2691 0
127 2691 0
128 2691 0
129 2691 0
130 2691 0
131 2691 0
132 2691 0
1229 2691 -0.11462509557936003
1230 2691 -0.065598224589830417
1231 2691 0.12045547271290091
1232 2691 0.066735657880519217
109 2692 -0
110 2692 -0
111 2692 -0
112 2692 -0
113 2692 -0
114 2692 -0
115 2692 -0
116 2692 -0
117 2692 -0
118 2692 -0.99509004789631994
119 2692 -0
120 2692 -0
121 2692 0
122 2692 0
123 2692 0
124 2692 0
125 2692 0
126 2692 0
127 2692 0
128 2692 0
129 2692 0
130 2692 0
131 2692 0
132 2692 0
1229 2692 0.1112726701807888
1230 2692 -0.18163442438886057
1231 2692 -0.24934842404473068
1232 2692 0.087619788974651794
109 2693 -0
110 2693 -0
111 2693 -0
112 2693 -0
113 2693 -0
114 2693 -0
115 2693 -0
116 2693 -0
117 2693 -0
118 2693 -0
119 2693 -0.99509004789631994
120 2693 -0
121 2693 0
122 2693 0
123 2693 0
124 2693 0
125 2693 0
126 2693 0
127 2693 0
128 2693 0
129 2693 0
130 2693 0
131 2693 0
132 2693 0
1229 2693 0.0048220099123521959
1230 2693 -0.09230703811323461
1231 2693 -0.22028815111069383
1232 2693 -0.062540089363958593
109 2694 -0
110 2694 -0
111 2694 -0
112 2694 -0
113 2694 -0
114 2694 -0
115 2694 -0
116 2694 -0
117 2694 -0
118 2694 -0
119 2694 -0
120 2694 -0.99509004789631994
121 2694 0
122 2694 0
123 2694 0
124 2694 0
125 2694 0
126 2694 0
127 2694 0
128 2694 0
129 2694 0
130 2694 0
131 2694 0
132 2694 0
1229 2694 0.22589481330245723
1230 2694 0.085512196920050021
1231 2694 -0.209328877595194
1232 2694 0.014853171089538656
109 2695 0
110 2695 0
111 2695 0
112 2695 0
113 2695 0
114 2695 0
115 2695 0
116 2695 0
117 2695 0
118 2695 0
119 2695 0
120 2695 0
121 2695 0.99509004789631994
122 2695 0
123 2695 0
124 2695 0
125 2695 0
126 2695 0
127 2695 0
128 2695 0
129 2695 0
130 2695 0
131 2695 0
132 2695 0
1229 2695 0
1230 2695 0
1231 2695 0
1232 2695 0
109 2696 0
110 2696 0
111 2696 0
112 2696 0
113 2696 0
114 2696 0
115 2696 0
116 2696 0
117 2696 0
118 2696 0
119 2696 0
120 2696 0
121 2696 0
122 2696 0.99509004789631994
123 2696 0
124 2696 0
125 2696 0
126 2696 0
127 2696 0
128 2696 0
129 2696 0
130 2696 0
131 2696 0
132 2696 0
1229 2696 0
1230 2696 0
1231 2696 0
1232 2696 0
109 2697 0
110 2697 0
111 2697 0
112 2697 0
113 2697 0
114 2697 0
115 2697 0
116 2697 0
117 2697 0
118 2697 0
119 2697 0
120 2697 0
121 2697 0
122 2697 0
123 2697 0.99509004789631994
124 2697 0
125 2697 0
126 2697 0
127 2697 0
128 2697 0
129 2697 0
130 2697 0
131 2697 0
132 2697 0
1229 2697 0
1230 2697 0
1231 2697 0
1232 2697 0
109 2698 0
110 2698 0
111 2698 0
112 2698 0
113 2698 0
114 2698 0
115 2698 0
116 2698 0
117 2698 0
118 2698 0
119 2698 0
120 2698 0
121 2698 0
122 2698 0
123 2698 0
124 2698 0.99509004789631994
125 2698 0
126 2698 0
127 2698 0
128 2698 0
129 2698 0
130 2698 0
131 2698 0
132 2698 0
1229 2698 0
1230 2698 0
1231 2698 0
1232 2698 0
109 2699 0
110 2699 0
111 2699 0
112 2699 0
113 2699 0
114 2699 0
115 2699 0
116 2699 0
117 2699 0
118 2699 0
119 2699 0
120 2699 0
121 2699 0
122 2699 0
123 2699 0
124 2699 0
125 2699 0.99509004789631994
126 2699 0
127 2699 0
128 2699 0
129 2699 0
130 2699 0
131 2699 0
132 2699 0
1229 2699 0
1230 2699 0
1231 2699 0
1232 2699 0
109 2700 0
110 2700 0
111 2700 0
112 2700 0
113 2700 0
114 2700 0
115 2700 0
116 2700 0
117 2700 0
118 2700 0
119 2700 0
120 2700 0
121 2700 0
122 2700 0
123 2700 0
124 2700 0
125 2700 0
126 2700 0.99509004789631994
127 2700 0
128 2700 0
129 2700 0
130 2700 0
131 2700 0
132 2700 0
1229 2700 0
1230 2700 0
1231 2700 0
1232 2700 0
109 2701 0
110 2701 0
111 2701 0
112 2701 0
113 2701 0
114 2701 0
115 2701 0
116 2701 0
117 2701 0
118 2701 0
119 2701 0
120 2701 0
121 2701 0
122 2701 0
123 2701 0
124 2701 0
125 2701 0
126 2701 0
127 2701 0.99509004789631994
128 2701 0
129 2701 0
130 2701 0
131 2701 0
132 2701 0
1229 2701 0
1230 2701 0
1231 2701 0
1232 2701 0
109 2702 0
110 2702 0
111 2702 0
112 2702 0
113 2702 0
114 2702 0
115 2702 0
116 2702 0
117 2702 0
118 2702 0
119 2702 0
120 2702 0
121 2702 0
122 2702 0
123 2702 0
124 2702 0
125 2702 0
126 2702 0
127 2702 0
128 2702 0.99509004789631994
129 2702 0
130 2702 0
131 2702 0
132 2702 0
1229 2702 0
1230 2702 0
1231 2702 0
1232 2702 0
109 2703 0
110 2703 0
111 2703 0
112 2703 0
113 2703 0
114 2703 0
115 2703 0
116 2703 0
117 2703 0
118 2703 0
119 2703 0
120 2703 0
121 2703 0
122 2703 0
123 2703 0
124 2703 0
125 2703 0
126 2703 0
127 2703 0
128 2703 0
129 2703 0.99509004789631994
130 2703 0
131 2703 0
132 2703 0
1229 2703 0
1230 2703 0
1231 2703 0
1232 2703 0
109 2704 0
110 2704 0
111 2704 0
112 2704 0
113 2704 0
114 2704 0
115 2704 0
116 2704 0
117 2704 0
118 2704 0
119 2704 0
120 2704 0
121 2704 0
122 2704 0
123 2704 0
124 2704 0
125 2704 0
126 2704 0
127 2704 0
128 2704 0
129 2704 0
130 2704 0.99509004789631994
131 2704 0
132 2704 0
1229 2704 0
1230 2704 0
1231 2704 0
1232 2704 0
109 2705 0
110 2705 0
111 2705 0
112 2705 0
113 2705 0
114 2705 0
115 2705 0
116 2705 0
117 2705 0
118 2705 0
119 2705 0
120 2705 0
121 2705 0
122 2705 0
123 2705 0
124 2705 0
125 2705 0
126 2705 0
127 2705 0
128 2705 0
129 2705 0
130 2705 0
131 2705 0.99509004789631994
132 2705 0
1229 2705 0
1230 2705 0
1231 2705 0
1232 2705 0
109 2706 0
110 2706 0
111 2706 0
112 2706 0
113 2706 0
114 2706 0
115 2706 0
116 2706 0
117 2706 0
118 2706 0
119 2706 0
120 2706 0
121 2706 0
122 2706 0
123 2706 0
124 2706 0
125 2706 0
126 2706 0
127 2706 0
128 2706 0
129 2706 0
130 2706 0
131 2706 0
132 2706 0.99509004789631994
1229 2706 0
1230 2706 0
1231 2706 0
1232 2706 0
1225 2707 0
1226 2707 0
1227 2707 0
1228 2707 0
1602 2707 0
1225 2708 0.99878751991636638
1226 2708 0
1227 2708 0
1228 2708 0
1602 2708 0
1225 2709 0
1226 2709 0.99886974093913028
1227 2709 0
1228 2709 0
1602 2709 0
1225 2710 0
1226 2710 0
1227 2710 0.99859691322799182
1228 2710 0
1602 2710 0
1225 2711 0
1226 2711 0
1227 2711 0
1228 2711 0.99879118685427859
1602 2711 0
1225 2712 0
1226 2712 0
1227 2712 0
1228 2712 0
1602 2712 1
97 2713 -0.99509004789631994
98 2713 -0
99 2713 -0
100 2713 -0
101 2713 -0
102 2713 -0
103 2713 -0
104 2713 -0
105 2713 -0
106 2713 -0
107 2713 -0
108 2713 -0
109 2713 0
110 2713 0
111 2713 0
112 2713 0
113 2713 0
114 2713 0
115 2713 0
116 2713 0
117 2713 0
118 2713 0
119 2713 0
120 2713 0
1225 2713 -0.1803189598547551
1226 2713 -0.25584631152049064
1227 2713 -0.074765084896359371
1228 2713 -0.06244980534901011
97 2714 -0
98 2714 -0.99509004789631994
99 2714 -0
100 2714 -0
101 2714 -0
102 2714 -0
103 2714 -0
104 2714 -0
105 2714 -0
106 2714 -0
107 2714 -0
108 2714 -0
109 2714 0
110 2714 0
111 2714 0
112 2714 0
113 2714 0
114 2714 0
115 2714 0
116 2714 0
117 2714 0
118 2714 0
119 2714 0
120 2714 0
1225 2714 0.10820261428783474
1226 2714 0.080196783561304039
1227 2714 -0.016866001348705428
1228 2714 -0.17094248486675911
97 2715 -0
98 2715 -0
99 2715 -0.99509004789631994
100 2715 -0
101 2715 -0
102 2715 -0
103 2715 -0
104 2715 -0
105 2715 -0
106 2715 -0
107 2715 -0
108 2715 -0
109 2715 0
110 2715 0
111 2715 0
112 2715 0
113 2715 0
114 2715 0
115 2715 0
116 2715 0
117 2715 0
118 2715 0
119 2715 0
120 2715 0
1225 2715 0.021296203412182201
1226 2715 0.06379387941368389
1227 2715 0.33227429440027084
1228 2715 0.038055274961526345
97 2716 -0
98 2716 -0
99 2716 -0
100 2716 -0.99509004789631994
101 2716 -0
102 2716 -0
103 2716 -0
104 2716 -0
105 2716 -0
106 2716 -0
107 2716 -0
108 2716 -0
109 2716 0
110 2716 0
111 2716 0
112 2716 0
113 2716 0
114 2716 0
115 2716 0
116 2716 0
117 2716 0
118 2716 0
119 2716 0
120 2716 0
1225 2716 0.19846746771042395
1226 2716 0.13291349456905685
1227 2716 -0.11659569025066187
1228 2716 0.1709989853023412
97 2717 -0
98 2717 -0
99 2717 -0
100 2717 -0
101 2717 -0.99509004789631994
102 2717 -0
103 2717 -0
104 2717 -0
105 2717 -0
106 2717 -0
107 2717 -0
108 2717 -0
109 2717 0
110 2717 0
111 2717 0
112 2717 0
113 2717 0
114 2717 0
115 2717 0
116 2717 0
117 2717 0
118 2717 0
119 2717 0
120 2717 0
1225 2717 0.06406726430169403
1226 2717 0.0077975121873435499
1227 2717 -0.012888481757033089
1228 2717 0.1821584263174176
97 2718 -0
98 2718 -0
99 2718 -0
100 2718 -0
101 2718 -0
102 2718 -0.99509004789631994
103 2718 -0
104 2718 -0
105 2718 -0
106 2718 -0
107 2718 -0
108 2718 -0
109 2718 0
110 2718 0
111 2718 0
112 2718 0
113 2718 0
114 2718 0
115 2718 0
116 2718 0
117 2718 0
118 2718 0
119 2718 0
120 2718 0
1225 2718 0.14930176975937659
1226 2718 -0.1220518999462523
1227 2718 -0.21437482240798272
1228 2718 -0.27728111366749703
97 2719 -0
98 2719 -0
99 2719 -0
100 2719 -0
101 2719 -0
102 2719 -0
103 2719 -0.99509004789631994
104 2719 -0
105 2719 -0
106 2719 -0
107 2719 -0
108 2719 -0
109 2719 0
110 2719 0
111 2719 0
112 2719 0
113 2719 0
114 2719 0
115 2719 0
116 2719 0
117 2719 0
118 2719 0
119 2719 0
120 2719 0
1225 2719 -0.27832449100114248
1226 2719 -0.023030066571549251
1227 2719 0.085999904285044407
1228 2719 0.14042558666593874
97 2720 -0
98 2720 -0
99 2720 -0
100 2720 -0
101 2720 -0
102 2720 -0
103 2720 -0
104 2720 -0.99509004789631994
105 2720 -0
106 2720 -0
107 2720 -0
108 2720 -0
109 2720 0
110 2720 0
111 2720 0
112 2720 0
113 2720 0
114 2720 0
115 2720 0
116 2720 0
117 2720 0
118 2720 0
119 2720 0
120 2720 0
1225 2720 0.14426661227624929
1226 2720 0.019112219351713613
1227 2720 -0.3383340256558125
1228 2720 -0.26332006554483989
97 2721 -0
98 2721 -0
99 2721 -0
100 2721 -0
101 2721 -0
102 2721 -0
103 2721 -0
104 2721 -0
105 2721 -0.99509004789631994
106 2721 -0
107 2721 -0
108 2721 -0
109 2721 0
110 2721 0
111 2721 0
112 2721 0
113 2721 0
114 2721 0
115 2721 0
116 2721 0
117 2721 0
118 2721 0
119 2721 0
120 2721 0
1225 2721 -0.11462509557936003
1226 2721 -0.065598224589830417
1227 2721 0.12045547271290091
1228 2721 0.066735657880519217
97 2722 -0
98 2722 -0
99 2722 -0
100 2722 -0
101 2722 -0
102 2722 -0
103 2722 -0
104 2722 -0
105 2722 -0
106 2722 -0.99509004789631994
107 2722 -0
108 2722 -0
109 2722 0
110 2722 0
111 2722 0
112 2722 0
113 2722 0
114 2722 0
115 2722 0
116 2722 0
117 2722 0
118 2722 0
119 2722 0
120 2722 0
1225 2722 0.1112726701807888
1226 2722 -0.18163442438886057
1227 2722 -0.24934842404473068
1228 2722 0.087619788974651794
97 2723 -0
98 2723 -0
99 2723 -0
100 2723 -0
101 2723 -0
102 2723 -0
103 2723 -0
104 2723 -0
105 2723 -0
106 2723 -0
107 2723 -0.99509004789631994
108 2723 -0
109 2723 0
110 2723 0
111 2723 0
112 2723 0
113 2723 0
114 2723 0
115 2723 0
116 2723 0
117 2723 0
118 2723 0
119 2723 0
120 2723 0
1225 2723 0.0048220099123521959
1226 2723 -0.09230703811323461
1227 2723 -0.22028815111069383
1228 2723 -0.062540089363958593
97 2724 -0
98 2724 -0
99 2724 -0
100 2724 -0
101 2724 -0
102 2724 -0
103 2724 -0
104 2724 -0
105 2724 -0
106 2724 -0
107 2724 -0
108 2724 -0.99509004789631994
109 2724 0
110 2724 0
111 2724 0
112 2724 0
113 2724 0
114 2724 0
115 2724 0
116 2724 0
117 2724 0
118 2724 0
119 2724 0
120 2724 0
1225 2724 0.22589481330245723
1226 2724 0.085512196920050021
1227 2724 -0.209328877595194
1228 2724 0.014853171089538656
97 2725 0
98 2725 0
99 2725 0
100 2725 0
101 2725 0
102 2725 0
103 2725 0
104 2725 0
105 2725 0
106 2725 0
107 2725 0
108 2725 0
109 2725 0.99509004789631994
110 2725 0
111 2725 0
112 2725 0
113 2725 0
114 2725 0
115 2725 0
116 2725 0
117 2725 0
118 2725 0
119 2725 0
120 2725 0
1225 2725 0
1226 2725 0
1227 2725 0
1228 2725 0
97 2726 0
98 2726 0
99 2726 0
100 2726 0
101 2726 0
102 2726 0
103 2726 0
104 2726 0
105 2726 0
106 2726 0
107 2726 0
108 2726 0
109 2726 0
110 2726 0.99509004789631994
111 2726 0
112 2726 0
113 2726 0
114 2726 0
115 2726 0
116 2726 0
117 2726 0
118 2726 0
119 2726 0
120 2726 0
1225 2726 0
1226 2726 0
1227 2726 0
1228 2726 0
97 2727 0
98 2727 0
99 2727 0
100 2727 0
101 2727 0
102 2727 0
103 2727 0
104 2727 0
105 2727 0
106 2727 0
107 2727 0
108 2727 0
109 2727 0
110 2727 0
111 2727 0.99509004789631994
112 2727 0
113 2727 0
114 2727 0
115 2727 0
116 2727 0
117 2727 0
118 2727 0
119 2727 0
120 2727 0
1225 2727 0
1226 2727 0
1227 2727 0
1228 2727 0
97 2728 0
98 2728 0
99 2728 0
100 2728 0
101 2728 0
102 2728 0
103 2728 0
104 2728 0
105 2728 0
106 2728 0
107 2728 0
108 2728 0
109 2728 0
110 2728 0
111 2728 0
112 2728 0.99509004789631994
113 2728 0
114 2728 0
115 2728 0
116 2728 0
117 2728 0
118 2728 0
119 2728 0
120 2728 0
1225 2728 0
1226 2728 0
1227 2728 0
1228 2728 0
97 2729 0
98 2729 0
99 2729 0
100 2729 0
101 2729 0
102 2729 0
103 2729 0
104 2729 0
105 2729 0
106 2729 0
107 2729 0
108 2729 0
109 2729 0
110 2729 0
111 2729 0
112 2729 0
113 2729 0.99509004789631994
114 2729 0
115 2729 0
116 2729 0
117 2729 0
118 2729 0
119 2729 0
120 2729 0
1225 2729 0
1226 2729 0
1227 2729 0
1228 2729 0
97 2730 0
98 2730 0
99 2730 0
100 2730 0
101 2730 0
102 2730 0
103 2730 0
104 2730 0
105 2730 0
106 2730 0
107 2730 0
108 2730 0
109 2730 0
110 2730 0
111 2730 0
112 2730 0
113 2730 0
114 2730 0.99509004789631994
115 2730 0
116 2730 0
117 2730 0
118 2730 0
119 2730 0
120 2730 0
1225 2730 0
1226 2730 0
1227 2730 0
1228 2730 0
97 2731 0
98 2731 0
99 2731 0
100 2731 0
101 2731 0
102 2731 0
103 2731 0
104 2731 0
105 2731 0
106 2731 0
107 2731 0
108 2731 0
109 2731 0
110 2731 0
111 2731 0
112 2731 0
113 2731 0
114 2731 0
115 2731 0.99509004789631994
116 2731 0
117 2731 0
118 2731 0
119 2731 0
120 2731 0
1225 2731 0
1226 2731 0
1227 2731 0
1228 2731 0
97 2732 0
98 2732 0
99 2732 0
100 2732 0
101 2732 0
102 2732 0
103 2732 0
104 2732 0
105 2732 0
106 2732 0
107 2732 0
108 2732 0
109 2732 0
110 2732 0
111 2732 0
112 2732 0
113 2732 0
114 2732 0
115 2732 0
116 2732 0.99509004789631994
117 2732 0
118 2732 0
119 2732 0
120 2732 0
1225 2732 0
1226 2732 0
1227 2732 0
1228 2732 0
97 2733 0
98 2733 0
99 2733 0
100 2733 0
101 2733 0
102 2733 0
103 2733 0
104 2733 0
105 2733 0
106 2733 0
107 2733 0
108 2733 0
109 2733 0
110 2733 0
111 2733 0
112 2733 0
113 2733 0
114 2733 0
115 2733 0
116 2733 0
117 2733 0.99509004789631994
118 2733 0
119 2733 0
120 2733 0
1225 2733 0
1226 2733 0
1227 2733 0
1228 2733 0
97 2734 0
98 2734 0
99 2734 0
100 2734 0
101 2734 0
102 2734 0
103 2734 0
104 2734 0
105 2734 0
106 2734 0
107 2734 0
108 2734 0
109 2734 0
110 2734 0
111 2734 0
112 2734 0
113 2734 0
114 2734 0
115 2734 0
116 2734 0
117 2734 0
118 2734 0.99509004789631994
119 2734 0
120 2734 0
1225 2734 0
1226 2734 0
1227 2734 0
1228 2734 0
97 2735 0
98 2735 0
99 2735 0
100 2735 0
101 2735 0
102 2735 0
103 2735 0
104 2735 0
105 2735 0
106 2735 0
107 2735 0
108 2735 0
109 2735 0
110 2735 0
111 2735 0
112 2735 0
113 2735 0
114 2735 0
115 2735 0
116 2735 0
117 2735 0
118 2735 0
119 2735 0.99509004789631994
120 2735 0
1225 2735 0
1226 2735 0
1227 2735 0
1228 2735 0
97 2736 0
98 2736 0
99 2736 0
100 2736 0
101 2736 0
102 2736 0
103 2736 0
104 2736 0
105 2736 0
106 2736 0
107 2736 0
108 2736 0
109 2736 0
110 2736 0
111 2736 0
112 2736 0
113 2736 0
114 2736 0
115 2736 0
116 2736 0
117 2736 0
118 2736 0
119 2736 0
120 2736 0.99509004789631994
1225 2736 0
1226 2736 0
1227 2736 0
1228 2736 0
1221 2737 0
1222 2737 0
1223 2737 0
1224 2737 0
1601 2737 0
1221 2738 0.99878751991636638
1222 2738 0
1223 2738 0
1224 2738 0
1601 2738 0
1221 2739 0
1222 2739 0.99886974093913028
1223 2739 0
1224 2739 0
1601 2739 0
1221 2740 0
1222 2740 0
1223 2740 0.99859691322799182
1224 2740 0
1601 2740 0
1221 2741 0
1222 2741 0
1223 2741 0
1224 2741 0.99879118685427859
1601 2741 0
1221 2742 0
1222 2742 0
1223 2742 0
1224 2742 0
1601 2742 1
85 2743 -0.99509004789631994
86 2743 -0
87 2743 -0
88 2743 -0
89 2743 -0
90 2743 -0
91 2743 -0
92 2743 -0
93 2743 -0
94 2743 -0
95 2743 -0
96 2743 -0
97 2743 0
98 2743 0
99 2743 0
100 2743 0
101 2743 0
102 2743 0
103 2743 0
104 2743 0
105 2743 0
106 2743 0
107 2743 0
108 2743 0
1221 2743 -0.1803189598547551
1222 2743 -0.25584631152049064
1223 2743 -0.074765084896359371
1224 2743 -0.06244980534901011
85 2744 -0
86 2744 -0.99509004789631994
87 2744 -0
88 2744 -0
89 2744 -0
90 2744 -0
91 2744 -0
92 2744 -0
93 2744 -0
94 2744 -0
95 2744 -0
96 2744 -0
97 2744 0
98 2744 0
99 2744 0
100 2744 0
101 2744 0
102 2744 0
103 2744 0
104 2744 0
105 2744 0
106 2744 0
107 2744 0
108 2744 0
1221 2744 0.10820261428783474
1222 2744 0.080196783561304039
1223 2744 -0.016866001348705428
1224 2744 -0.17094248486675911
85 2745 -0
86 2745 -0
87 2745 -0.99509004789631994
88 2745 -0
89 2745 -0
90 2745 -0
91 2745 -0
92 2745 -0
93 2745 -0
94 2745 -0
95 2745 -0
96 2745 -0
97 2745 0
98 2745 0
99 2745 0
100 2745 0
101 2745 0
102 2745 0
103 2745 0
104 2745 0
105 2745 0
106 2745 0
107 2745 0
108 2745 0
1221 2745 0.021296203412182201
1222 2745 0.06379387941368389
1223 2745 0.33227429440027084
1224 2745 0.038055274961526345
85 2746 -0
86 2746 -0
87 2746 -0
88 2746 -0.99509004789631994
89 2746 -0
90 2746 -0
91 2746 -0
92 2746 -0
93 2746 -0
94 2746 -0
95 2746 -0
96 2746 -0
97 2746 0
98 2746 0
99 2746 0
100 2746 0
101 2746 0
102 2746 0
103 2746 0
104 2746 0
105 2746 0
106 2746 0
107 2746 0
108 2746 0
1221 2746 0.19846746771042395
1222 2746 0.13291349456905685
1223 2746 -0.11659569025066187
1224 2746 0.1709989853023412
85 2747 -0
86 2747 -0
87 2747 -0
88 2747 -0
89 2747 -0.99509004789631994
90 2747 -0
91 2747 -0
92 2747 -0
93 2747 -0
94 2747 -0
95 2747 -0
96 2747 -0
97 2747 0
98 2747 0
99 2747 0
100 2747 0
101 2747 0
102 2747 0
103 2747 0
104 2747 0
105 2747 0
106 2747 0
107 2747 0
108 2747 0
1221 2747 0.06406726430169403
1222 2747 0.0077975121873435499
1223 2747 -0.012888481757033089
1224 2747 0.1821584263174176
85 2748 -0
86 2748 -0
87 2748 -0
88 2748 -0
89 2748 -0
90 2748 -0.99509004789631994
91 2748 -0
92 2748 -0
93 2748 -0
94 2748 -0
95 2748 -0
96 2748 -0
97 2748 0
98 2748 0
99 2748 0
100 2748 0
101 2748 0
102 2748 0
103 2748 0
104 2748 0
105 2748 0
106 2748 0
107 2748 0
108 2748 0
1221 2748 0.14930176975937659
1222 2748 -0.1220518999462523
1223 2748 -0.21437482240798272
1224 2748 -0.27728111366749703
85 2749 -0
86 2749 -0
87 2749 -0
88 2749 -0
89 2749 -0
90 2749 -0
91 2749 -0.99509004789631994
92 2749 -0
93 2749 -0
94 2749 -0
95 2749 -0
96 2749 -0
97 2749 0
98 2749 0
99 2749 0
100 2749 0
101 2749 0
102 2749 0
103 2749 0
104 2749 0
105 2749 0
106 2749 0
107 2749 0
108 2749 0
1221 2749 -0.27832449100114248
1222 2749 -0.023030066571549251
1223 2749 0.085999904285044407
1224 2749 0.14042558666593874
85 2750 -0
86 2750 -0
87 2750 -0
88 2750 -0
89 2750 -0
90 2750 -0
91 2750 -0
92 2750 -0.99509004789631994
93 2750 -0
94 2750 -0
95 2750 -0
96 2750 -0
97 2750 0
98 2750 0
99 2750 0
100 2750 0
101 2750 0
102 2750 0
103 2750 0
104 2750 0
105 2750 0
106 2750 0
107 2750 0
108 2750 0
1221 2750 0.14426661227624929
1222 2750 0.019112219351713613
1223 2750 -0.3383340256558125
1224 2750 -0.26332006554483989
85 2751 -0
86 2751 -0
87 2751 -0
88 2751 -0
89 2751 -0
90 2751 -0
91 2751 -0
92 2751 -0
93 2751 -0.99509004789631994
94 2751 -0
95 2751 -0
96 2751 -0
97 2751 0
98 2751 0
99 2751 0
100 2751 0
101 2751 0
102 2751 0
103 2751 0
104 2751 0
105 2751 0
106 2751 0
107 2751 0
108 2751 0
1221 2751 -0.11462509557936003
1222 2751 -0.065598224589830417
1223 2751 0.12045547271290091
1224 2751 0.066735657880519217
85 2752 -0
86 2752 -0
87 2752 -0
88 2752 -0
89 2752 -0
90 2752 -0
91 2752 -0
92 2752 -0
93 2752 -0
94 2752 -0.99509004789631994
95 2752 -0
96 2752 -0
97 2752 0
98 2752 0
99 2752 0
100 2752 0
101 2752 0
102 2752 0
103 2752 0
104 2752 0
105 2752 0
106 2752 0
107 2752 0
108 2752 0
1221 2752 0.1112726701807888
1222 2752 -0.18163442438886057
1223 2752 -0.24934842404473068
1224 2752 0.087619788974651794
85 2753 -0
86 2753 -0
87 2753 -0
88 2753 -0
89 2753 -0
90 2753 -0
91 2753 -0
92 2753 -0
93 2753 -0
94 2753 -0
95 2753 -0.99509004789631994
96 2753 -0
97 2753 0
98 2753 0
99 2753 0
100 2753 0
101 2753 0
102 2753 0
103 2753 0
104 2753 0
105 2753 0
106 2753 0
107 2753 0
108 2753 0
1221 2753 0.0048220099123521959
1222 2753 -0.09230703811323461
1223 2753 -0.22028815111069383
1224 2753 -0.062540089363958593
85 2754 -0
86 2754 -0
87 2754 -0
88 2754 -0
89 2754 -0
90 2754 -0
91 2754 -0
92 2754 -0
93 2754 -0
94 2754 -0
95 2754 -0
96 2754 -0.99509004789631994
97 2754 0
98 2754 0
99 2754 0
100 2754 0
101 2754 0
102 2754 0
103 2754 0
104 2754 0
105 2754 0
106 2754 0
107 2754 0
108 2754 0
1221 2754 0.22589481330245723
1222 2754 0.085512196920050021
1223 2754 -0.209328877595194
1224 2754 0.014853171089538656
85 2755 0
86 2755 0
87 2755 0
88 2755 0
89 2755 0
90 2755 0
91 2755 0
92 2755 0
93 2755 0
94 2755 0
95 2755 0
96 2755 0
97 2755 0.99509004789631994
98 2755 0
99 2755 0
100 2755 0
101 2755 0
102 2755 0
103 2755 0
104 2755 0
105 2755 0
106 2755 0
107 2755 0
108 2755 0
1221 2755 0
1222 2755 0
1223 2755 0
1224 2755 0
85 2756 0
86 2756 0
87 2756 0
88 2756 0
89 2756 0
90 2756 0
91 2756 0
92 2756 0
93 2756 0
94 2756 0
95 2756 0
96 2756 0
97 2756 0
98 2756 0.99509004789631994
99 2756 0
100 2756 0
101 2756 0
102 2756 0
103 2756 0
104 2756 0
105 2756 0
106 2756 0
107 2756 0
108 2756 0
1221 2756 0
1222 2756 0
1223 2756 0
1224 2756 0
85 2757 0
86 2757 0
87 2757 0
88 2757 0
89 2757 0
90 2757 0
91 2757 0
92 2757 0
93 2757 0
94 2757 0
95 2757 0
96 2757 0
97 2757 0
98 2757 0
99 2757 0.99509004789631994
100 2757 0
101 2757 0
102 2757 0
103 2757 0
104 2757 0
105 2757 0
106 2757 0
107 2757 0
108 2757 0
1221 2757 0
1222 2757 0
1223 2757 0
1224 2757 0
85 2758 0
86 2758 0
87 2758 0
88 2758 0
89 2758 0
90 2758 0
91 2758 0
92 2758 0
93 2758 0
94 2758 0
95 2758 0
96 2758 0
97 2758 0
98 2758 0
99 2758 0
100 2758 0.99509004789631994
101 2758 0
102 2758 0
103 2758 0
104 2758 0
105 2758 0
106 2758 0
107 2758 0
108 2758 0
1221 2758 0
1222 2758 0
1223 2758 0
1224 2758 0
85 2759 0
86 2759 0
87 2759 0
88 2759 0
89 2759 0
90 2759 0
91 2759 0
92 2759 0
93 2759 0
94 2759 0
95 2759 0
96 2759 0
97 2759 0
98 2759 0
99 2759 0
100 2759 0
101 2759 0.99509004789631994
102 2759 0
103 2759 0
104 2759 0
105 2759 0
106 2759 0
107 2759 0
108 2759 0
1221 2759 0
1222 2759 0
1223 2759 0
1224 2759 0
85 2760 0
86 2760 0
87 2760 0
88 2760 0
89 2760 0
90 2760 0
91 2760 0
92 2760 0
93 2760 0
94 2760 0
95 2760 0
96 2760 0
97 2760 0
98 2760 0
99 2760 0
100 2760 0
101 2760 0
102 2760 0.99509004789631994
103 2760 0
104 2760 0
105 2760 0
106 2760 0
107 2760 0
108 2760 0
1221 2760 0
1222 2760 0
1223 2760 0
1224 2760 0
85 2761 0
86 2761 0
87 2761 0
88 2761 0
89 2761 0
90 2761 0
91 2761 0
92 2761 0
93 2761 0
94 2761 0
95 2761 0
96 2761 0
97 2761 0
98 2761 0
99 2761 0
100 2761 0
101 2761 0
102 2761 0
103 2761 0.99509004789631994
104 2761 0
105 2761 0
106 2761 0
107 2761 0
108 2761 0
1221 2761 0
1222 2761 0
1223 2761 0
1224 2761 0
85 2762 0
86 2762 0
87 2762 0
88 2762 0
89 2762 0
90 2762 0
91 2762 0
92 2762 0
93 2762 0
94 2762 0
95 2762 0
96 2762 0
97 2762 0
98 2762 0
99 2762 0
100 2762 0
101 2762 0
102 2762 0
103 2762 0
104 2762 0.99509004789631994
105 2762 0
106 2762 0
107 2762 0
108 2762 0
1221 2762 0
1222 2762 0
1223 2762 0
1224 2762 0
85 2763 0
86 2763 0
87 2763 0
88 2763 0
89 2763 0
90 2763 0
91 2763 0
92 2763 0
93 2763 0
94 2763 0
95 2763 0
96 2763 0
97 2763 0
98 2763 0
99 2763 0
100 2763 0
101 2763 0
102 2763 0
103 2763 0
104 2763 0
105 2763 0.99509004789631994
106 2763 0
107 2763 0
108 2763 0
1221 2763 0
1222 2763 0
1223 2763 0
1224 2763 0
85 2764 0
86 2764 0
87 2764 0
88 2764 0
89 2764 0
90 2764 0
91 2764 0
92 2764 0
93 2764 0
94 2764 0
95 2764 0
96 2764 0
97 2764 0
98 2764 0
99 2764 0
100 2764 0
101 2764 0
102 2764 0
103 2764 0
104 2764 0
105 2764 0
106 2764 0.99509004789631994
107 2764 0
108 2764 0
1221 2764 0
1222 2764 0
1223 2764 0
1224 2764 0
85 2765 0
86 2765 0
87 2765 0
88 2765 0
89 2765 0
90 2765 0
91 2765 0
92 2765 0
93 2765 0
94 2765 0
95 2765 0
96 2765 0
97 2765 0
98 2765 0
99 2765 0
100 2765 0
101 2765 0
102 2765 0
103 2765 0
104 2765 0
105 2765 0
106 2765 0
107 2765 0.99509004789631994
108 2765 0
1221 2765 0
1222 2765 0
1223 2765 0
1224 2765 0
85 2766 0
86 2766 0
87 2766 0
88 2766 0
89 2766 0
90 2766 0
91 2766 0
92 2766 0
93 2766 0
94 2766 0
95 2766 0
96 2766 0
97 2766 0
98 2766 0
99 2766 0
100 2766 0
101 2766 0
102 2766 0
103 2766 0
104 2766 0
105 2766 0
106 2766 0
107 2766 0
108 2766 0.99509004789631994
1221 2766 0
1222 2766 0
1223 2766 0
1224 2766 0
1217 2767 0
1218 2767 0
1219 2767 0
1220 2767 0
1600 2767 0
1217 2768 0.99878751991636638
1218 2768 0
1219 2768 0
1220 2768 0
1600 2768 0
1217 2769 0
1218 2769 0.99886974093913028
1219 2769 0
1220 2769 0
1600 2769 0
1217 2770 0
1218 2770 0
1219 2770 0.99859691322799182
1220 2770 0
1600 2770 0
1217 2771 0
1218 2771 0
1219 2771 0
1220 2771 0.99879118685427859
1600 2771 0
1217 2772 0
1218 2772 0
1219 2772 0
1220 2772 0
1600 2772 1
73 2773 -0.99509004789631994
74 2773 -0
75 2773 -0
76 2773 -0
77 2773 -0
78 2773 -0
79 2773 -0
80 2773 -0
81 2773 -0
82 2773 -0
83 2773 -0
84 2773 -0
85 2773 0
86 2773 0
87 2773 0
88 2773 0
89 2773 0
90 2773 0
91 2773 0
92 2773 0
93 2773 0
94 2773 0
95 2773 0
96 2773 0
1217 2773 -0.1803189598547551
1218 2773 -0.25584631152049064
1219 2773 -0.074765084896359371
1220 2773 -0.06244980534901011
73 2774 -0
74 2774 -0.99509004789631994
75 2774 -0
76 2774 -0
77 2774 -0
78 2774 -0
79 2774 -0
80 2774 -0
81 2774 -0
82 2774 -0
83 2774 -0
84 2774 -0
85 2774 0
86 2774 0
87 2774 0
88 2774 0
89 2774 0
90 2774 0
91 2774 0
92 2774 0
93 2774 0
94 2774 0
95 2774 0
96 2774 0
1217 2774 0.10820261428783474
1218 2774 0.080196783561304039
1219 2774 -0.016866001348705428
1220 2774 -0.17094248486675911
73 2775 -0
74 2775 -0
75 2775 -0.99509004789631994
76 2775 -0
77 2775 -0
78 2775 -0
79 2775 -0
80 2775 -0
81 2775 -0
82 2775 -0
83 2775 -0
84 2775 -0
85 2775 0
86 2775 0
87 2775 0
88 2775 0
89 2775 0
90 2775 0
91 2775 0
92 2775 0
93 2775 0
94 2775 0
95 2775 0
96 2775 0
1217 2775 0.021296203412182201
1218 2775 0.06379387941368389
1219 2775 0.33227429440027084
1220 2775 0.038055274961526345
73 2776 -0
74 2776 -0
75 2776 -0
76 2776 -0.99509004789631994
77 2776 -0
78 2776 -0
79 2776 -0
80 2776 -0
81 2776 -0
82 2776 -0
83 2776 -0
84 2776 -0
85 2776 0
86 2776 0
87 2776 0
88 2776 0
89 2776 0
90 2776 0
91 2776 0
92 2776 0
93 2776 0
94 2776 0
95 2776 0
96 2776 0
1217 2776 0.19846746771042395
1218 2776 0.13291349456905685
1219 2776 -0.11659569025066187
1220 2776 0.1709989853023412
73 2777 -0
74 2777 -0
75 2777 -0
76 2777 -0
77 2777 -0.99509004789631994
78 2777 -0
79 2777 -0
80 2777 -0
81 2777 -0
82 2777 -0
83 2777 -0
84 2777 -0
85 2777 0
86 2777 0
87 2777 0
88 2777 0
89 2777 0
90 2777 0
91 2777 0
92 2777 0
93 2777 0
94 2777 0
95 2777 0
96 2777 0
1217 2777 0.06406726430169403
1218 2777 0.0077975121873435499
1219 2777 -0.012888481757033089
1220 2777 0.1821584263174176
73 2778 -0
74 2778 -0
75 2778 -0
76 2778 -0
77 2778 -0
78 2778 -0.99509004789631994
79 2778 -0
80 2778 -0
81 2778 -0
82 2778 -0
83 2778 -0
84 2778 -0
85 2778 0
86 2778 0
87 2778 0
88 2778 0
89 2778 0
90 2778 0
91 2778 0
92 2778 0
93 2778 0
94 2778 0
95 2778 0
96 2778 0
1217 2778 0.14930176975937659
1218 2778 -0.1220518999462523
1219 2778 -0.21437482240798272
1220 2778 -0.27728111366749703
73 2779 -0
74 2779 -0
75 2779 -0
76 2779 -0
77 2779 -0
78 2779 -0
79 2779 -0.99509004789631994
80 2779 -0
81 2779 -0
82 2779 -0
83 2779 -0
84 2779 -0
85 2779 0
86 2779 0
87 2779 0
88 2779 0
89 2779 0
90 2779 0
91 2779 0
92 2779 0
93 2779 0
94 2779 0
95 2779 0
96 2779 0
1217 2779 -0.27832449100114248
1218 2779 -0.023030066571549251
1219 2779 0.085999904285044407
1220 2779 0.14042558666593874
73 2780 -0
74 2780 -0
75 2780 -0
76 2780 -0
77 2780 -0
78 2780 -0
79 2780 -0
80 2780 -0.99509004789631994
81 2780 -0
82 2780 -0
83 2780 -0
84 2780 -0
85 2780 0
86 2780 0
87 2780 0
88 2780 0
89 2780 0
90 2780 0
91 2780 0
92 2780 0
93 2780 0
94 2780 0
95 2780 0
96 2780 0
1217 2780 0.14426661227624929
1218 2780 0.019112219351713613
1219 2780 -0.3383340256558125
1220 2780 -0.26332006554483989
73 2781 -0
74 2781 -0
75 2781 -0
76 2781 -0
77 2781 -0
78 2781 -0
79 2781 -0
80 2781 -0
81 2781 -0.99509004789631994
82 2781 -0
83 2781 -0
84 2781 -0
85 2781 0
86 2781 0
87 2781 0
88 2781 0
89 2781 0
90 2781 0
91 2781 0
92 2781 0
93 2781 0
94 2781 0
95 2781 0
96 2781 0
1217 2781 -0.11462509557936003
1218 2781 -0.065598224589830417
1219 2781 0.12045547271290091
1220 2781 0.066735657880519217
73 2782 -0
74 2782 -0
75 2782 -0
76 2782 -0
77 2782 -0
78 2782 -0
79 2782 -0
80 2782 -0
81 2782 -0
82 2782 -0.99509004789631994
83 2782 -0
84 2782 -0
85 2782 0
86 2782 0
87 2782 0
88 2782 0
89 2782 0
90 2782 0
91 2782 0
92 2782 0
93 2782 0
94 2782 0
95 2782 0
96 2782 0
1217 2782 0.1112726701807888
1218 2782 -0.18163442438886057
1219 2782 -0.24934842404473068
1220 2782 0.087619788974651794
73 2783 -0
74 2783 -0
75 2783 -0
76 2783 -0
77 2783 -0
78 2783 -0
79 2783 -0
80 2783 -0
81 2783 -0
82 2783 -0
83 2783 -0.99509004789631994
84 2783 -0
85 2783 0
86 2783 0
87 2783 0
88 2783 0
89 2783 0
90 2783 0
91 2783 0
92 2783 0
93 2783 0
94 2783 0
95 2783 0
96 2783 0
1217 2783 0.0048220099123521959
1218 2783 -0.09230703811323461
1219 2783 -0.22028815111069383
1220 2783 -0.062540089363958593
73 2784 -0
74 2784 -0
75 2784 -0
76 2784 -0
77 2784 -0
78 2784 -0
79 2784 -0
80 2784 -0
81 2784 -0
82 2784 -0
83 2784 -0
84 2784 -0.99509004789631994
85 2784 0
86 2784 0
87 2784 0
88 2784 0
89 2784 0
90 2784 0
91 2784 0
92 2784 0
93 2784 0
94 2784 0
95 2784 0
96 2784 0
1217 2784 0.22589481330245723
1218 2784 0.085512196920050021
1219 2784 -0.209328877595194
1220 2784 0.014853171089538656
73 2785 0
74 2785 0
75 2785 0
76 2785 0
77 2785 0
78 2785 0
79 2785 0
80 2785 0
81 2785 0
82 2785 0
83 2785 0
84 2785 0
85 2785 0.99509004789631994
86 2785 0
87 2785 0
88 2785 0
89 2785 0
90 2785 0
91 2785 0
92 2785 0
93 2785 0
94 2785 0
95 2785 0
96 2785 0
1217 2785 0
1218 2785 0
1219 2785 0
1220 2785 0
73 2786 0
74 2786 0
75 2786 0
76 2786 0
77 2786 0
78 2786 0
79 2786 0
80 2786 0
81 2786 0
82 2786 0
83 2786 0
84 2786 0
85 2786 0
86 2786 0.99509004789631994
87 2786 0
88 2786 0
89 2786 0
90 2786 0
91 2786 0
92 2786 0
93 2786 0
94 2786 0
95 2786 0
96 2786 0
1217 2786 0
1218 2786 0
1219 2786 0
1220 2786 0
73 2787 0
74 2787 0
75 2787 0
76 2787 0
77 2787 0
78 2787 0
79 2787 0
80 2787 0
81 2787 0
82 2787 0
83 2787 0
84 2787 0
85 2787 0
86 2787 0
87 2787 0.99509004789631994
88 2787 0
89 2787 0
90 2787 0
91 2787 0
92 2787 0
93 2787 0
94 2787 0
95 2787 0
96 2787 0
1217 2787 0
1218 2787 0
1219 2787 0
1220 2787 0
73 2788 0
74 2788 0
75 2788 0
76 2788 0
77 2788 0
78 2788 0
79 2788 0
80 2788 0
81 2788 0
82 2788 0
83 2788 0
84 2788 0
85 2788 0
86 2788 0
87 2788 0
88 2788 0.99509004789631994
89 2788 0
90 2788 0
91 2788 0
92 2788 0
93 2788 0
94 2788 0
95 2788 0
96 2788 0
1217 2788 0
1218 2788 0
1219 2788 0
1220 2788 0
73 2789 0
74 2789 0
75 2789 0
76 2789 0
77 2789 0
78 2789 0
79 2789 0
80 2789 0
81 2789 0
82 2789 0
83 2789 0
84 2789 0
85 2789 0
86 2789 0
87 2789 0
88 2789 0
89 2789 0.99509004789631994
90 2789 0
91 2789 0
92 2789 0
93 2789 0
94 2789 0
95 2789 0
96 2789 0
1217 2789 0
1218 2789 0
1219 2789 0
1220 2789 0
73 2790 0
74 2790 0
75 2790 0
76 2790 0
77 2790 0
78 2790 0
79 2790 0
80 2790 0
81 2790 0
82 2790 0
83 2790 0
84 2790 0
85 2790 0
86 2790 0
87 2790 0
88 2790 0
89 2790 0
90 2790 0.99509004789631994
91 2790 0
92 2790 0
93 2790 0
94 2790 0
95 2790 0
96 2790 0
1217 2790 0
1218 2790 0
1219 2790 0
1220 2790 0
73 2791 0
74 2791 0
75 2791 0
76 2791 0
77 2791 0
78 2791 0
79 2791 0
80 2791 0
81 2791 0
82 2791 0
83 2791 0
84 2791 0
85 2791 0
86 2791 0
87 2791 0
88 2791 0
89 2791 0
90 2791 0
91 2791 0.99509004789631994
92 2791 0
93 2791 0
94 2791 0
95 2791 0
96 2791 0
1217 2791 0
1218 2791 0
1219 2791 0
1220 2791 0
73 2792 0
74 2792 0
75 2792 0
76 2792 0
77 2792 0
78 2792 0
79 2792 0
80 2792 0
81 2792 0
82 2792 0
83 2792 0
84 2792 0
85 2792 0
86 2792 0
87 2792 0
88 2792 0
89 2792 0
90 2792 0
91 2792 0
92 2792 0.99509004789631994
93 2792 0
94 2792 0
95 2792 0
96 2792 0
1217 2792 0
1218 2792 0
1219 2792 0
1220 2792 0
73 2793 0
74 2793 0
75 2793 0
76 2793 0
77 2793 0
78 2793 0
79 2793 0
80 2793 0
81 2793 0
82 2793 0
83 2793 0
84 2793 0
85 2793 0
86 2793 0
87 2793 0
88 2793 0
89 2793 0
90 2793 0
91 2793 0
92 2793 0
93 2793 0.99509004789631994
94 2793 0
95 2793 0
96 2793 0
1217 2793 0
1218 2793 0
1219 2793 0
1220 2793 0
73 2794 0
74 2794 0
75 2794 0
76 2794 0
77 2794 0
78 2794 0
79 2794 0
80 2794 0
81 2794 0
82 2794 0
83 2794 0
84 2794 0
85 2794 0
86 2794 0
87 2794 0
88 2794 0
89 2794 0
90 2794 0
91 2794 0
92 2794 0
93 2794 0
94 2794 0.99509004789631994
95 2794 0
96 2794 0
1217 2794 0
1218 2794 0
1219 2794 0
1220 2794 0
73 2795 0
74 2795 0
75 2795 0
76 2795 0
77 2795 0
78 2795 0
79 2795 0
80 2795 0
81 2795 0
82 2795 0
83 2795 0
84 2795 0
85 2795 0
86 2795 0
87 2795 0
88 2795 0
89 2795 0
90 2795 0
91 2795 0
92 2795 0
93 2795 0
94 2795 0
95 2795 0.99509004789631994
96 2795 0
1217 2795 0
1218 2795 0
1219 2795 0
1220 2795 0
73 2796 0
74 2796 0
75 2796 0
76 2796 0
77 2796 0
78 2796 0
79 2796 0
80 2796 0
81 2796 0
82 2796 0
83 2796 0
84 2796 0
85 2796 0
86 2796 0
87 2796 0
88 2796 0
89 2796 0
90 2796 0
91 2796 0
92 2796 0
93 2796 0
94 2796 0
95 2796 0
96 2796 0.99509004789631994
1217 2796 0
1218 2796 0
1219 2796 0
1220 2796 0
1213 2797 0
1214 2797 0
1215 2797 0
1216 2797 0
1599 2797 0
1213 2798 0.99878751991636638
1214 2798 0
1215 2798 0
1216 2798 0
1599 2798 0
1213 2799 0
1214 2799 0.99886974093913028
1215 2799 0
1216 2799 0
1599 2799 0
1213 2800 0
1214 2800 0
1215 2800 0.99859691322799182
1216 2800 0
1599 2800 0
1213 2801 0
1214 2801 0
1215 2801 0
1216 2801 0.99879118685427859
1599 2801 0
1213 2802 0
1214 2802 0
1215 2802 0
1216 2802 0
1599 2802 1
61 2803 -0.99509004789631994
62 2803 -0
63 2803 -0
64 2803 -0
65 2803 -0
66 2803 -0
67 2803 -0
68 2803 -0
69 2803 -0
70 2803 -0
71 2803 -0
72 2803 -0
73 2803 0
74 2803 0
75 2803 0
76 2803 0
77 2803 0
78 2803 0
79 2803 0
80 2803 0
81 2803 0
82 2803 0
83 2803 0
84 2803 0
1213 2803 -0.1803189598547551
1214 2803 -0.25584631152049064
1215 2803 -0.074765084896359371
1216 2803 -0.06244980534901011
61 2804 -0
62 2804 -0.99509004789631994
63 2804 -0
64 2804 -0
65 2804 -0
66 2804 -0
67 2804 -0
68 2804 -0
69 2804 -0
70 2804 -0
71 2804 -0
72 2804 -0
73 2804 0
74 2804 0
75 2804 0
76 2804 0
77 2804 0
78 2804 0
79 2804 0
80 2804 0
81 2804 0
82 2804 0
83 2804 0
84 2804 0
1213 2804 0.10820261428783474
1214 2804 0.080196783561304039
1215 2804 -0.016866001348705428
1216 2804 -0.17094248486675911
61 2805 -0
62 2805 -0
63 2805 -0.99509004789631994
64 2805 -0
65 2805 -0
66 2805 -0
67 2805 -0
68 2805 -0
69 2805 -0
70 2805 -0
71 2805 -0
72 2805 -0
73 2805 0
74 2805 0
75 2805 0
76 2805 0
77 2805 0
78 2805 0
79 2805 0
80 2805 0
81 2805 0
82 2805 0
83 2805 0
84 2805 0
1213 2805 0.021296203412182201
1214 2805 0.06379387941368389
1215 2805 0.33227429440027084
1216 2805 0.038055274961526345
61 2806 -0
62 2806 -0
63 2806 -0
64 2806 -0.99509004789631994
65 2806 -0
66 2806 -0
67 2806 -0
68 2806 -0
69 2806 -0
70 2806 -0
71 2806 -0
72 2806 -0
73 2806 0
74 2806 0
75 2806 0
76 2806 0
77 2806 0
78 2806 0
79 2806 0
80 2806 0
81 2806 0
82 2806 0
83 2806 0
84 2806 0
1213 2806 0.19846746771042395
1214 2806 0.13291349456905685
1215 2806 -0.11659569025066187
1216 2806 0.1709989853023412
61 2807 -0
62 2807 -0
63 2807 -0
64 2807 -0
65 2807 -0.99509004789631994
66 2807 -0
67 2807 -0
68 2807 -0
69 2807 -0
70 2807 -0
71 2807 -0
72 2807 -0
73 2807 0
74 2807 0
75 2807 0
76 2807 0
77 2807 0
78 2807 0
79 2807 0
80 2807 0
81 2807 0
82 2807 0
83 2807 0
84 2807 0
1213 2807 0.06406726430169403
1214 2807 0.0077975121873435499
1215 2807 -0.012888481757033089
1216 2807 0.1821584263174176
61 2808 -0
62 2808 -0
63 2808 -0
64 2808 -0
65 2808 -0
66 2808 -0.99509004789631994
67 2808 -0
68 2808 -0
69 2808 -0
70 2808 -0
71 2808 -0
72 2808 -0
73 2808 0
74 2808 0
75 2808 0
76 2808 0
77 2808 0
78 2808 0
79 2808 0
80 2808 0
81 2808 0
82 2808 0
83 2808 0
84 2808 0
1213 2808 0.14930176975937659
1214 2808 -0.1220518999462523
1215 2808 -0.21437482240798272
1216 2808 -0.27728111366749703
61 2809 -0
62 2809 -0
63 2809 -0
64 2809 -0
65 2809 -0
66 2809 -0
67 2809 -0.99509004789631994
68 2809 -0
69 2809 -0
70 2809 -0
71 2809 -0
72 2809 -0
73 2809 0
74 2809 0
75 2809 0
76 2809 0
77 2809 0
78 2809 0
79 2809 0
80 2809 0
81 2809 0
82 2809 0
83 2809 0
84 2809 0
1213 2809 -0.27832449100114248
1214 2809 -0.023030066571549251
1215 2809 0.085999904285044407
1216 2809 0.14042558666593874
61 2810 -0
62 2810 -0
63 2810 -0
64 2810 -0
65 2810 -0
66 2810 -0
67 2810 -0
68 2810 -0.99509004789631994
69 2810 -0
70 2810 -0
71 2810 -0
72 2810 -0
73 2810 0
74 2810 0
75 2810 0
76 2810 0
77 2810 0
78 2810 0
79 2810 0
80 2810 0
81 2810 0
82 2810 0
83 2810 0
84 2810 0
1213 2810 0.14426661227624929
1214 2810 0.019112219351713613
1215 2810 -0.3383340256558125
1216 2810 -0.26332006554483989
61 2811 -0
62 2811 -0
63 2811 -0
64 2811 -0
65 2811 -0
66 2811 -0
67 2811 -0
68 2811 -0
69 2811 -0.99509004789631994
70 2811 -0
71 2811 -0
72 2811 -0
73 2811 0
74 2811 0
75 2811 0
76 2811 0
77 2811 0
78 2811 0
79 2811 0
80 2811 0
81 2811 0
82 2811 0
83 2811 0
84 2811 0
1213 2811 -0.11462509557936003
1214 2811 -0.065598224589830417
1215 2811 0.12045547271290091
1216 2811 0.066735657880519217
61 2812 -0
62 2812 -0
63 2812 -0
64 2812 -0
65 2812 -0
66 2812 -0
67 2812 -0
68 2812 -0
69 2812 -0
70 2812 -0.99509004789631994
71 2812 -0
72 2812 -0
73 2812 0
74 2812 0
75 2812 0
76 2812 0
77 2812 0
78 2812 0
79 2812 0
80 2812 0
81 2812 0
82 2812 0
83 2812 0
84 2812 0
1213 2812 0.1112726701807888
1214 2812 -0.18163442438886057
1215 2812 -0.24934842404473068
1216 2812 0.087619788974651794
61 2813 -0
62 2813 -0
63 2813 -0
64 2813 -0
65 2813 -0
66 2813 -0
67 2813 -0
68 2813 -0
69 2813 -0
70 2813 -0
71 2813 -0.99509004789631994
72 2813 -0
73 2813 0
74 2813 0
75 2813 0
76 2813 0
77 2813 0
78 2813 0
79 2813 0
80 2813 0
81 2813 0
82 2813 0
83 2813 0
84 2813 0
1213 2813 0.0048220099123521959
1214 2813 -0.09230703811323461
1215 2813 -0.22028815111069383
1216 2813 -0.062540089363958593
61 2814 -0
62 2814 -0
63 2814 -0
64 2814 -0
65 2814 -0
66 2814 -0
67 2814 -0
68 2814 -0
69 2814 -0
70 2814 -0
71 2814 -0
72 2814 -0.99509004789631994
73 2814 0
74 2814 0
75 2814 0
76 2814 0
77 2814 0
78 2814 0
79 2814 0
80 2814 0
81 2814 0
82 2814 0
83 2814 0
84 2814 0
1213 2814 0.22589481330245723
1214 2814 0.085512196920050021
1215 2814 -0.209328877595194
1216 2814 0.014853171089538656
61 2815 0
62 2815 0
63 2815 0
64 2815 0
65 2815 0
66 2815 0
67 2815 0
68 2815 0
69 2815 0
70 2815 0
71 2815 0
72 2815 0
73 2815 0.99509004789631994
74 2815 0
75 2815 0
76 2815 0
77 2815 0
78 2815 0
79 2815 0
80 2815 0
81 2815 0
82 2815 0
83 2815 0
84 2815 0
1213 2815 0
1214 2815 0
1215 2815 0
1216 2815 0
61 2816 0
62 2816 0
63 2816 0
64 2816 0
65 2816 0
66 2816 0
67 2816 0
68 2816 0
69 2816 0
70 2816 0
71 2816 0
72 2816 0
73 2816 0
74 2816 0.99509004789631994
75 2816 0
76 2816 0
77 2816 0
78 2816 0
79 2816 0
80 2816 0
81 2816 0
82 2816 0
83 2816 0
84 2816 0
1213 2816 0
1214 2816 0
1215 2816 0
1216 2816 0
61 2817 0
62 2817 0
63 2817 0
64 2817 0
65 2817 0
66 2817 0
67 2817 0
68 2817 0
69 2817 0
70 2817 0
71 2817 0
72 2817 0
73 2817 0
74 2817 0
75 2817 0.99509004789631994
76 2817 0
77 2817 0
78 2817 0
79 2817 0
80 2817 0
81 2817 0
82 2817 0
83 2817 0
84 2817 0
1213 2817 0
1214 2817 0
1215 2817 0
1216 2817 0
61 2818 0
62 2818 0
63 2818 0
64 2818 0
65 2818 0
66 2818 0
67 2818 0
68 2818 0
69 2818 0
70 2818 0
71 2818 0
72 2818 0
73 2818 0
74 2818 0
75 2818 0
76 2818 0.99509004789631994
77 2818 0
78 2818 0
79 2818 0
80 2818 0
81 2818 0
82 2818 0
83 2818 0
84 2818 0
1213 2818 0
1214 2818 0
1215 2818 0
1216 2818 0
61 2819 0
62 2819 0
63 2819 0
64 2819 0
65 2819 0
66 2819 0
67 2819 0
68 2819 0
69 2819 0
70 2819 0
71 2819 0
72 2819 0
73 2819 0
74 2819 0
75 2819 0
76 2819 0
77 2819 0.99509004789631994
78 2819 0
79 2819 0
80 2819 0
81 2819 0
82 2819 0
83 2819 0
84 2819 0
1213 2819 0
1214 2819 0
1215 2819 0
1216 2819 0
61 2820 0
62 2820 0
63 2820 0
64 2820 0
65 2820 0
66 2820 0
67 2820 0
68 2820 0
69 2820 0
70 2820 0
71 2820 0
72 2820 0
73 2820 0
74 2820 0
75 2820 0
76 2820 0
77 2820 0
78 2820 0.99509004789631994
79 2820 0
80 2820 0
81 2820 0
82 2820 0
83 2820 0
84 2820 0
1213 2820 0
1214 2820 0
1215 2820 0
1216 2820 0
61 2821 0
62 2821 0
63 2821 0
64 2821 0
65 2821 0
66 2821 0
67 2821 0
68 2821 0
69 2821 0
70 2821 0
71 2821 0
72 2821 0
73 2821 0
74 2821 0
75 2821 0
76 2821 0
77 2821 0
78 2821 0
79 2821 0.99509004789631994
80 2821 0
81 2821 0
82 2821 0
83 2821 0
84 2821 0
1213 2821 0
1214 2821 0
1215 2821 0
1216 2821 0
61 2822 0
62 2822 0
63 2822 0
64 2822 0
65 2822 0
66 2822 0
67 2822 0
68 2822 0
69 2822 0
70 2822 0
71 2822 0
72 2822 0
73 2822 0
74 2822 0
75 2822 0
76 2822 0
77 2822 0
78 2822 0
79 2822 0
80 2822 0.99509004789631994
81 2822 0
82 2822 0
83 2822 0
84 2822 0
1213 2822 0
1214 2822 0
1215 2822 0
1216 2822 0
61 2823 0
62 2823 0
63 2823 0
64 2823 0
65 2823 0
66 2823 0
67 2823 0
68 2823 0
69 2823 0
70 2823 0
71 2823 0
72 2823 0
73 2823 0
74 2823 0
75 2823 0
76 2823 0
77 2823 0
78 2823 0
79 2823 0
80 2823 0
81 2823 0.99509004789631994
82 2823 0
83 2823 0
84 2823 0
1213 2823 0
1214 2823 0
1215 2823 0
1216 2823 0
61 2824 0
62 2824 0
63 2824 0
64 2824 0
65 2824 0
66 2824 0
67 2824 0
68 2824 0
69 2824 0
70 2824 0
71 2824 0
72 2824 0
73 2824 0
74 2824 0
75 2824 0
76 2824 0
77 2824 0
78 2824 0
79 2824 0
80 2824 0
81 2824 0
82 2824 0.99509004789631994
83 2824 0
84 2824 0
1213 2824 0
1214 2824 0
1215 2824 0
1216 2824 0
61 2825 0
62 2825 0
63 2825 0
64 2825 0
65 2825 0
66 2825 0
67 2825 0
68 2825 0
69 2825 0
70 2825 0
71 2825 0
72 2825 0
73 2825 0
74 2825 0
75 2825 0
76 2825 0
77 2825 0
78 2825 0
79 2825 0
80 2825 0
81 2825 0
82 2825 0
83 2825 0.99509004789631994
84 2825 0
1213 2825 0
1214 2825 0
1215 2825 0
1216 2825 0
61 2826 0
62 2826 0
63 2826 0
64 2826 0
65 2826 0
66 2826 0
67 2826 0
68 2826 0
69 2826 0
70 2826 0
71 2826 0
72 2826 0
73 2826 0
74 2826 0
75 2826 0
76 2826 0
77 2826 0
78 2826 0
79 2826 0
80 2826 0
81 2826 0
82 2826 0
83 2826 0
84 2826 0.99509004789631994
1213 2826 0
1214 2826 0
1215 2826 0
1216 2826 0
1209 2827 0
1210 2827 0
1211 2827 0
1212 2827 0
1598 2827 0
1209 2828 0.99878751991636638
1210 2828 0
1211 2828 0
1212 2828 0
1598 2828 0
1209 2829 0
1210 2829 0.99886974093913028
1211 2829 0
1212 2829 0
1598 2829 0
1209 2830 0
1210 2830 0
1211 2830 0.99859691322799182
1212 2830 0
1598 2830 0
1209 2831 0
1210 2831 0
1211 2831 0
1212 2831 0.99879118685427859
1598 2831 0
1209 2832 0
1210 2832 0
1211 2832 0
1212 2832 0
1598 2832 1
49 2833 -0.99509004789631994
50 2833 -0
51 2833 -0
52 2833 -0
53 2833 -0
54 2833 -0
55 2833 -0
56 2833 -0
57 2833 -0
58 2833 -0
59 2833 -0
60 2833 -0
61 2833 0
62 2833 0
63 2833 0
64 2833 0
65 2833 0
66 2833 0
67 2833 0
68 2833 0
69 2833 0
70 2833 0
71 2833 0
72 2833 0
1209 2833 -0.1803189598547551
1210 2833 -0.25584631152049064
1211 2833 -0.074765084896359371
1212 2833 -0.06244980534901011
49 2834 -0
50 2834 -0.99509004789631994
51 2834 -0
52 2834 -0
53 2834 -0
54 2834 -0
55 2834 -0
56 2834 -0
57 2834 -0
58 2834 -0
59 2834 -0
60 2834 -0
61 2834 0
62 2834 0
63 2834 0
64 2834 0
65 2834 0
66 2834 0
67 2834 0
68 2834 0
69 2834 0
70 2834 0
71 2834 0
72 2834 0
1209 2834 0.10820261428783474
1210 2834 0.080196783561304039
1211 2834 -0.016866001348705428
1212 2834 -0.17094248486675911
49 2835 -0
50 2835 -0
51 2835 -0.99509004789631994
52 2835 -0
53 2835 -0
54 2835 -0
55 2835 -0
56 2835 -0
57 2835 -0
58 2835 -0
59 2835 -0
60 2835 -0
61 2835 0
62 2835 0
63 2835 0
64 2835 0
65 2835 0
66 2835 0
67 2835 0
68 2835 0
69 2835 0
70 2835 0
71 2835 0
72 2835 0
1209 2835 0.021296203412182201
1210 2835 0.06379387941368389
1211 2835 0.33227429440027084
1212 2835 0.038055274961526345
49 2836 -0
50 2836 -0
51 2836 -0
52 2836 -0.99509004789631994
53 2836 -0
54 2836 -0
55 2836 -0
56 2836 -0
57 2836 -0
58 2836 -0
59 2836 -0
60 2836 -0
61 2836 0
62 2836 0
63 2836 0
64 2836 0
65 2836 0
66 2836 0
67 2836 0
68 2836 0
69 2836 0
70 2836 0
71 2836 0
72 2836 0
1209 2836 0.19846746771042395
1210 2836 0.13291349456905685
1211 2836 -0.11659569025066187
1212 2836 0.1709989853023412
49 2837 -0
50 2837 -0
51 2837 -0
52 2837 -0
53 2837 -0.99509004789631994
54 2837 -0
55 2837 -0
56 2837 -0
57 2837 -0
58 2837 -0
59 2837 -0
60 2837 -0
61 2837 0
62 2837 0
63 2837 0
64 2837 0
65 2837 0
66 2837 0
67 2837 0
68 2837 0
69 2837 0
70 2837 0
71 2837 0
72 2837 0
1209 2837 0.06406726430169403
1210 2837 0.0077975121873435499
1211 2837 -0.012888481757033089
1212 2837 0.1821584263174176
49 2838 -0
50 2838 -0
51 2838 -0
52 2838 -0
53 2838 -0
54 2838 -0.99509004789631994
55 2838 -0
56 2838 -0
57 2838 -0
58 2838 -0
59 2838 -0
60 2838 -0
61 2838 0
62 2838 0
63 2838 0
64 2838 0
65 2838 0
66 2838 0
67 2838 0
68 2838 0
69 2838 0
70 2838 0
71 2838 0
72 2838 0
1209 2838 0.14930176975937659
1210 2838 -0.1220518999462523
1211 2838 -0.21437482240798272
1212 2838 -0.27728111366749703
49 2839 -0
50 2839 -0
51 2839 -0
52 2839 -0
53 2839 -0
54 2839 -0
55 2839 -0.99509004789631994
56 2839 -0
57 2839 -0
58 2839 -0
59 2839 -0
60 2839 -0
61 2839 0
62 2839 0
63 2839 0
64 2839 0
65 2839 0
66 2839 0
67 2839 0
68 2839 0
69 2839 0
70 2839 0
71 2839 0
72 2839 0
1209 2839 -0.27832449100114248
1210 2839 -0.023030066571549251
1211 2839 0.085999904285044407
1212 2839 0.14042558666593874
49 2840 -0
50 2840 -0
51 2840 -0
52 2840 -0
53 2840 -0
54 2840 -0
55 2840 -0
56 2840 -0.99509004789631994
57 2840 -0
58 2840 -0
59 2840 -0
60 2840 -0
61 2840 0
62 2840 0
63 2840 0
64 2840 0
65 2840 0
66 2840 0
67 2840 0
68 2840 0
69 2840 0
70 2840 0
71 2840 0
72 2840 0
1209 2840 0.14426661227624929
1210 2840 0.019112219351713613
1211 2840 -0.3383340256558125
1212 2840 -0.26332006554483989
49 2841 -0
50 2841 -0
51 2841 -0
52 2841 -0
53 2841 -0
54 2841 -0
55 2841 -0
56 2841 -0
57 2841 -0.99509004789631994
58 2841 -0
59 2841 -0
60 2841 -0
61 2841 0
62 2841 0
63 2841 0
64 2841 0
65 2841 0
66 2841 0
67 2841 0
68 2841 0
69 2841 0
70 2841 0
71 2841 0
72 2841 0
1209 2841 -0.11462509557936003
1210 2841 -0.065598224589830417
1211 2841 0.12045547271290091
1212 2841 0.066735657880519217
49 2842 -0
50 2842 -0
51 2842 -0
52 2842 -0
53 2842 -0
54 2842 -0
55 2842 -0
56 2842 -0
57 2842 -0
58 2842 -0.99509004789631994
59 2842 -0
60 2842 -0
61 2842 0
62 2842 0
63 2842 0
64 2842 0
65 2842 0
66 2842 0
67 2842 0
68 2842 0
69 2842 0
70 2842 0
71 2842 0
72 2842 0
1209 2842 0.1112726701807888
1210 2842 -0.18163442438886057
1211 2842 -0.24934842404473068
1212 2842 0.087619788974651794
49 2843 -0
50 2843 -0
51 2843 -0
52 2843 -0
53 2843 -0
54 2843 -0
55 2843 -0
56 2843 -0
57 2843 -0
58 2843 -0
59 2843 -0.99509004789631994
60 2843 -0
61 2843 0
62 2843 0
63 2843 0
64 2843 0
65 2843 0
66 2843 0
67 2843 0
68 2843 0
69 2843 0
70 2843 0
71 2843 0
72 2843 0
1209 2843 0.0048220099123521959
1210 2843 -0.09230703811323461
1211 2843 -0.22028815111069383
1212 2843 -0.062540089363958593
49 2844 -0
50 2844 -0
51 2844 -0
52 2844 -0
53 2844 -0
54 2844 -0
55 2844 -0
56 2844 -0
57 2844 -0
58 2844 -0
59 2844 -0
60 2844 -0.99509004789631994
61 2844 0
62 2844 0
63 2844 0
64 2844 0
65 2844 0
66 2844 0
67 2844 0
68 2844 0
69 2844 0
70 2844 0
71 2844 0
72 2844 0
1209 2844 0.22589481330245723
1210 2844 0.085512196920050021
1211 2844 -0.209328877595194
1212 2844 0.014853171089538656
49 2845 0
50 2845 0
51 2845 0
52 2845 0
53 2845 0
54 2845 0
55 2845 0
56 2845 0
57 2845 0
58 2845 0
59 2845 0
60 2845 0
61 2845 0.99509004789631994
62 2845 0
63 2845 0
64 2845 0
65 2845 0
66 2845 0
67 2845 0
68 2845 0
69 2845 0
70 2845 0
71 2845 0
72 2845 0
1209 2845 0
1210 2845 0
1211 2845 0
1212 2845 0
49 2846 0
50 2846 0
51 2846 0
52 2846 0
53 2846 0
54 2846 0
55 2846 0
56 2846 0
57 2846 0
58 2846 0
59 2846 0
60 2846 0
61 2846 0
62 2846 0.99509004789631994
63 2846 0
64 2846 0
65 2846 0
66 2846 0
67 2846 0
68 2846 0
69 2846 0
70 2846 0
71 2846 0
72 2846 0
1209 2846 0
1210 2846 0
1211 2846 0
1212 2846 0
49 2847 0
50 2847 0
51 2847 0
52 2847 0
53 2847 0
54 2847 0
55 2847 0
56 2847 0
57 2847 0
58 2847 0
59 2847 0
60 2847 0
61 2847 0
62 2847 0
63 2847 0.99509004789631994
64 2847 0
65 2847 0
66 2847 0
67 2847 0
68 2847 0
69 2847 0
70 2847 0
71 2847 0
72 2847 0
1209 2847 0
1210 2847 0
1211 2847 0
1212 2847 0
49 2848 0
50 2848 0
51 2848 0
52 2848 0
53 2848 0
54 2848 0
55 2848 0
56 2848 0
57 2848 0
58 2848 0
59 2848 0
60 2848 0
61 2848 0
62 2848 0
63 2848 0
64 2848 0.99509004789631994
65 2848 0
66 2848 0
67 2848 0
68 2848 0
69 2848 0
70 2848 0
71 2848 0
72 2848 0
1209 2848 0
1210 2848 0
1211 2848 0
1212 2848 0
49 2849 0
50 2849 0
51 2849 0
52 2849 0
53 2849 0
54 2849 0
55 2849 0
56 2849 0
57 2849 0
58 2849 0
59 2849 0
60 2849 0
61 2849 0
62 2849 0
63 2849 0
64 2849 0
65 2849 0.99509004789631994
66 2849 0
67 2849 0
68 2849 0
69 2849 0
70 2849 0
71 2849 0
72 2849 0
1209 2849 0
1210 2849 0
1211 2849 0
1212 2849 0
49 2850 0
50 2850 0
51 2850 0
52 2850 0
53 2850 0
54 2850 0
55 2850 0
56 2850 0
57 2850 0
58 2850 0
59 2850 0
60 2850 0
61 2850 0
62 2850 0
63 2850 0
64 2850 0
65 2850 0
66 2850 0.99509004789631994
67 2850 0
68 2850 0
69 2850 0
70 2850 0
71 2850 0
72 2850 0
1209 2850 0
1210 2850 0
1211 2850 0
1212 2850 0
49 2851 0
50 2851 0
51 2851 0
52 2851 0
53 2851 0
54 2851 0
55 2851 0
56 2851 0
57 2851 0
58 2851 0
59 2851 0
60 2851 0
61 2851 0
62 2851 0
63 2851 0
64 2851 0
65 2851 0
66 2851 0
67 2851 0.99509004789631994
68 2851 0
69 2851 0
70 2851 0
71 2851 0
72 2851 0
1209 2851 0
1210 2851 0
1211 2851 0
1212 2851 0
49 2852 0
50 2852 0
51 2852 0
52 2852 0
53 2852 0
54 2852 0
55 2852 0
56 2852 0
57 2852 0
58 2852 0
59 2852 0
60 2852 0
61 2852 0
62 2852 0
63 2852 0
64 2852 0
65 2852 0
66 2852 0
67 2852 0
68 2852 0.99509004789631994
69 2852 0
70 2852 0
71 2852 0
72 2852 0
1209 2852 0
1210 2852 0
1211 2852 0
1212 2852 0
49 2853 0
50 2853 0
51 2853 0
52 2853 0
53 2853 0
54 2853 0
55 2853 0
56 2853 0
57 2853 0
58 2853 0
59 2853 0
60 2853 0
61 2853 0
62 2853 0
63 2853 0
64 2853 0
65 2853 0
66 2853 0
67 2853 0
68 2853 0
69 2853 0.99509004789631994
70 2853 0
71 2853 0
72 2853 0
1209 2853 0
1210 2853 0
1211 2853 0
1212 2853 0
49 2854 0
50 2854 0
51 2854 0
52 2854 0
53 2854 0
54 2854 0
55 2854 0
56 2854 0
57 2854 0
58 2854 0
59 2854 0
60 2854 0
61 2854 0
62 2854 0
63 2854 0
64 2854 0
65 2854 0
66 2854 0
67 2854 0
68 2854 0
69 2854 0
70 2854 0.99509004789631994
71 2854 0
72 2854 0
1209 2854 0
1210 2854 0
1211 2854 0
1212 2854 0
49 2855 0
50 2855 0
51 2855 0
52 2855 0
53 2855 0
54 2855 0
55 2855 0
56 2855 0
57 2855 0
58 2855 0
59 2855 0
60 2855 0
61 2855 0
62 2855 0
63 2855 0
64 2855 0
65 2855 0
66 2855 0
67 2855 0
68 2855 0
69 2855 0
70 2855 0
71 2855 0.99509004789631994
72 2855 0
1209 2855 0
1210 2855 0
1211 2855 0
1212 2855 0
49 2856 0
50 2856 0
51 2856 0
52 2856 0
53 2856 0
54 2856 0
55 2856 0
56 2856 0
57 2856 0
58 2856 0
59 2856 0
60 2856 0
61 2856 0
62 2856 0
63 2856 0
64 2856 0
65 2856 0
66 2856 0
67 2856 0
68 2856 0
69 2856 0
70 2856 0
71 2856 0
72 2856 0.99509004789631994
1209 2856 0
1210 2856 0
1211 2856 0
1212 2856 0
1205 2857 0
1206 2857 0
1207 2857 0
1208 2857 0
1597 2857 0
1205 2858 0.99878751991636638
1206 2858 0
1207 2858 0
1208 2858 0
1597 2858 0
1205 2859 0
1206 2859 0.99886974093913028
1207 2859 0
1208 2859 0
1597 2859 0
1205 2860 0
1206 2860 0
1207 2860 0.99859691322799182
1208 2860 0
1597 2860 0
1205 2861 0
1206 2861 0
1207 2861 0
1208 2861 0.99879118685427859
1597 2861 0
1205 2862 0
1206 2862 0
1207 2862 0
1208 2862 0
1597 2862 1
37 2863 -0.99509004789631994
38 2863 -0
39 2863 -0
40 2863 -0
41 2863 -0
42 2863 -0
43 2863 -0
44 2863 -0
45 2863 -0
46 2863 -0
47 2863 -0
48 2863 -0
49 2863 0
50 2863 0
51 2863 0
52 2863 0
53 2863 0
54 2863 0
55 2863 0
56 2863 0
57 2863 0
58 2863 0
59 2863 0
60 2863 0
1205 2863 -0.1803189598547551
1206 2863 -0.25584631152049064
1207 2863 -0.074765084896359371
1208 2863 -0.06244980534901011
37 2864 -0
38 2864 -0.99509004789631994
39 2864 -0
40 2864 -0
41 2864 -0
42 2864 -0
43 2864 -0
44 2864 -0
45 2864 -0
46 2864 -0
47 2864 -0
48 2864 -0
49 2864 0
50 2864 0
51 2864 0
52 2864 0
53 2864 0
54 2864 0
55 2864 0
56 2864 0
57 2864 0
58 2864 0
59 2864 0
60 2864 0
1205 2864 0.10820261428783474
1206 2864 0.080196783561304039
1207 2864 -0.016866001348705428
1208 2864 -0.17094248486675911
37 2865 -0
38 2865 -0
39 2865 -0.99509004789631994
40 2865 -0
41 2865 -0
42 2865 -0
43 2865 -0
44 2865 -0
45 2865 -0
46 2865 -0
47 2865 -0
48 2865 -0
49 2865 0
50 2865 0
51 2865 0
52 2865 0
53 2865 0
54 2865 0
55 2865 0
56 2865 0
57 2865 0
58 2865 0
59 2865 0
60 2865 0
1205 2865 0.021296203412182201
1206 2865 0.06379387941368389
1207 2865 0.33227429440027084
1208 2865 0.038055274961526345
37 2866 -0
38 2866 -0
39 2866 -0
40 2866 -0.99509004789631994
41 2866 -0
42 2866 -0
43 2866 -0
44 2866 -0
45 2866 -0
46 2866 -0
47 2866 -0
48 2866 -0
49 2866 0
50 2866 0
51 2866 0
52 2866 0
53 2866 0
54 2866 0
55 2866 0
56 2866 0
57 2866 0
58 2866 0
59 2866 0
60 2866 0
1205 2866 0.19846746771042395
1206 2866 0.13291349456905685
1207 2866 -0.11659569025066187
1208 2866 0.1709989853023412
37 2867 -0
38 2867 -0
39 2867 -0
40 2867 -0
41 2867 -0.99509004789631994
42 2867 -0
43 2867 -0
44 2867 -0
45 2867 -0
46 2867 -0
47 2867 -0
48 2867 -0
49 2867 0
50 2867 0
51 2867 0
52 2867 0
53 2867 0
54 2867 0
55 2867 0
56 2867 0
57 2867 0
58 2867 0
59 2867 0
60 2867 0
1205 2867 0.06406726430169403
1206 2867 0.0077975121873435499
1207 2867 -0.012888481757033089
1208 2867 0.1821584263174176
37 2868 -0
38 2868 -0
39 2868 -0
40 2868 -0
41 2868 -0
42 2868 -0.99509004789631994
43 2868 -0
44 2868 -0
45 2868 -0
46 2868 -0
47 2868 -0
48 2868 -0
49 2868 0
50 2868 0
51 2868 0
52 2868 0
53 2868 0
54 2868 0
55 2868 0
56 2868 0
57 2868 0
58 2868 0
59 2868 0
60 2868 0
1205 2868 0.14930176975937659
1206 2868 -0.1220518999462523
1207 2868 -0.21437482240798272
1208 2868 -0.27728111366749703
37 2869 -0
38 2869 -0
39 2869 -0
40 2869 -0
41 2869 -0
42 2869 -0
43 2869 -0.99509004789631994
44 2869 -0
45 2869 -0
46 2869 -0
47 2869 -0
48 2869 -0
49 2869 0
50 2869 0
51 2869 0
52 2869 0
53 2869 0
54 2869 0
55 2869 0
56 2869 0
57 2869 0
58 2869 0
59 2869 0
60 2869 0
1205 2869 -0.27832449100114248
1206 2869 -0.023030066571549251
1207 2869 0.085999904285044407
1208 2869 0.14042558666593874
37 2870 -0
38 2870 -0
39 2870 -0
40 2870 -0
41 2870 -0
42 2870 -0
43 2870 -0
44 2870 -0.99509004789631994
45 2870 -0
46 2870 -0
47 2870 -0
48 2870 -0
49 2870 0
50 2870 0
51 2870 0
52 2870 0
53 2870 0
54 2870 0
55 2870 0
56 2870 0
57 2870 0
58 2870 0
59 2870 0
60 2870 0
1205 2870 0.14426661227624929
1206 2870 0.019112219351713613
1207 2870 -0.3383340256558125
1208 2870 -0.26332006554483989
37 2871 -0
38 2871 -0
39 2871 -0
40 2871 -0
41 2871 -0
42 2871 -0
43 2871 -0
44 2871 -0
45 2871 -0.99509004789631994
46 2871 -0
47 2871 -0
48 2871 -0
49 2871 0
50 2871 0
51 2871 0
52 2871 0
53 2871 0
54 2871 0
55 2871 0
56 2871 0
57 2871 0
58 2871 0
59 2871 0
60 2871 0
1205 2871 -0.11462509557936003
1206 2871 -0.065598224589830417
1207 2871 0.12045547271290091
1208 2871 0.066735657880519217
37 2872 -0
38 2872 -0
39 2872 -0
40 2872 -0
41 2872 -0
42 2872 -0
43 2872 -0
44 2872 -0
45 2872 -0
46 2872 -0.99509004789631994
47 2872 -0
48 2872 -0
49 2872 0
50 2872 0
51 2872 0
52 2872 0
53 2872 0
54 2872 0
55 2872 0
56 2872 0
57 2872 0
58 2872 0
59 2872 0
60 2872 0
1205 2872 0.1112726701807888
1206 2872 -0.18163442438886057
1207 2872 -0.24934842404473068
1208 2872 0.087619788974651794
37 2873 -0
38 2873 -0
39 2873 -0
40 2873 -0
41 2873 -0
42 2873 -0
43 2873 -0
44 2873 -0
45 2873 -0
46 2873 -0
47 2873 -0.99509004789631994
48 2873 -0
49 2873 0
50 2873 0
51 2873 0
52 2873 0
53 2873 0
54 2873 0
55 2873 0
56 2873 0
57 2873 0
58 2873 0
59 2873 0
60 2873 0
1205 2873 0.0048220099123521959
1206 2873 -0.09230703811323461
1207 2873 -0.22028815111069383
1208 2873 -0.062540089363958593
37 2874 -0
38 2874 -0
39 2874 -0
40 2874 -0
41 2874 -0
42 2874 -0
43 2874 -0
44 2874 -0
45 2874 -0
46 2874 -0
47 2874 -0
48 2874 -0.99509004789631994
49 2874 0
50 2874 0
51 2874 0
52 2874 0
53 2874 0
54 2874 0
55 2874 0
56 2874 0
57 2874 0
58 2874 0
59 2874 0
60 2874 0
1205 2874 0.22589481330245723
1206 2874 0.085512196920050021
1207 2874 -0.209328877595194
1208 2874 0.014853171089538656
37 2875 0
38 2875 0
39 2875 0
40 2875 0
41 2875 0
42 2875 0
43 2875 0
44 2875 0
45 2875 0
46 2875 0
47 2875 0
48 2875 0
49 2875 0.99509004789631994
50 2875 0
51 2875 0
52 2875 0
53 2875 0
54 2875 0
55 2875 0
56 2875 0
57 2875 0
58 2875 0
59 2875 0
60 2875 0
1205 2875 0
1206 2875 0
1207 2875 0
1208 2875 0
37 2876 0
38 2876 0
39 2876 0
40 2876 0
41 2876 0
42 2876 0
43 2876 0
44 2876 0
45 2876 0
46 2876 0
47 2876 0
48 2876 0
49 2876 0
50 2876 0.99509004789631994
51 2876 0
52 2876 0
53 2876 0
54 2876 0
55 2876 0
56 2876 0
57 2876 0
58 2876 0
59 2876 0
60 2876 0
1205 2876 0
1206 2876 0
1207 2876 0
1208 2876 0
37 2877 0
38 2877 0
39 2877 0
40 2877 0
41 2877 0
42 2877 0
43 2877 0
44 2877 0
45 2877 0
46 2877 0
47 2877 0
48 2877 0
49 2877 0
50 2877 0
51 2877 0.99509004789631994
52 2877 0
53 2877 0
54 2877 0
55 2877 0
56 2877 0
57 2877 0
58 2877 0
59 2877 0
60 2877 0
1205 2877 0
1206 2877 0
1207 2877 0
1208 2877 0
37 2878 0
38 2878 0
39 2878 0
40 2878 0
41 2878 0
42 2878 0
43 2878 0
44 2878 0
45 2878 0
46 2878 0
47 2878 0
48 2878 0
49 2878 0
50 2878 0
51 2878 0
52 2878 0.99509004789631994
53 2878 0
54 2878 0
55 2878 0
56 2878 0
57 2878 0
58 2878 0
59 2878 0
60 2878 0
1205 2878 0
1206 2878 0
1207 2878 0
1208 2878 0
37 2879 0
38 2879 0
39 2879 0
40 2879 0
41 2879 0
42 2879 0
43 2879 0
44 2879 0
45 2879 0
46 2879 0
47 2879 0
48 2879 0
49 2879 0
50 2879 0
51 2879 0
52 2879 0
53 2879 0.99509004789631994
54 2879 0
55 2879 0
56 2879 0
57 2879 0
58 2879 0
59 2879 0
60 2879 0
1205 2879 0
1206 2879 0
1207 2879 0
1208 2879 0
37 2880 0
38 2880 0
39 2880 0
40 2880 0
41 2880 0
42 2880 0
43 2880 0
44 2880 0
45 2880 0
46 2880 0
47 2880 0
48 2880 0
49 2880 0
50 2880 0
51 2880 0
52 2880 0
53 2880 0
54 2880 0.99509004789631994
55 2880 0
56 2880 0
57 2880 0
58 2880 0
59 2880 0
60 2880 0
1205 2880 0
1206 2880 0
1207 2880 0
1208 2880 0
37 2881 0
38 2881 0
39 2881 0
40 2881 0
41 2881 0
42 2881 0
43 2881 0
44 2881 0
45 2881 0
46 2881 0
47 2881 0
48 2881 0
49 2881 0
50 2881 0
51 2881 0
52 2881 0
53 2881 0
54 2881 0
55 2881 0.99509004789631994
56 2881 0
57 2881 0
58 2881 0
59 2881 0
60 2881 0
1205 2881 0
1206 2881 0
1207 2881 0
1208 2881 0
37 2882 0
38 2882 0
39 2882 0
40 2882 0
41 2882 0
42 2882 0
43 2882 0
44 2882 0
45 2882 0
46 2882 0
47 2882 0
48 2882 0
49 2882 0
50 2882 0
51 2882 0
52 2882 0
53 2882 0
54 2882 0
55 2882 0
56 2882 0.99509004789631994
57 2882 0
58 2882 0
59 2882 0
60 2882 0
1205 2882 0
1206 2882 0
1207 2882 0
1208 2882 0
37 2883 0
38 2883 0
39 2883 0
40 2883 0
41 2883 0
42 2883 0
43 2883 0
44 2883 0
45 2883 0
46 2883 0
47 2883 0
48 2883 0
49 2883 0
50 2883 0
51 2883 0
52 2883 0
53 2883 0
54 2883 0
55 2883 0
56 2883 0
57 2883 0.99509004789631994
58 2883 0
59 2883 0
60 2883 0
1205 2883 0
1206 2883 0
1207 2883 0
1208 2883 0
37 2884 0
38 2884 0
39 2884 0
40 2884 0
41 2884 0
42 2884 0
43 2884 0
44 2884 0
45 2884 0
46 2884 0
47 2884 0
48 2884 0
49 2884 0
50 2884 0
51 2884 0
52 2884 0
53 2884 0
54 2884 0
55 2884 0
56 2884 0
57 2884 0
58 2884 0.99509004789631994
59 2884 0
60 2884 0
1205 2884 0
1206 2884 0
1207 2884 0
1208 2884 0
37 2885 0
38 2885 0
39 2885 0
40 2885 0
41 2885 0
42 2885 0
43 2885 0
44 2885 0
45 2885 0
46 2885 0
47 2885 0
48 2885 0
49 2885 0
50 2885 0
51 2885 0
52 2885 0
53 2885 0
54 2885 0
55 2885 0
56 2885 0
57 2885 0
58 2885 0
59 2885 0.99509004789631994
60 2885 0
1205 2885 0
1206 2885 0
1207 2885 0
1208 2885 0
37 2886 0
38 2886 0
39 2886 0
40 2886 0
41 2886 0
42 2886 0
43 2886 0
44 2886 0
45 2886 0
46 2886 0
47 2886 0
48 2886 0
49 2886 0
50 2886 0
51 2886 0
52 2886 0
53 2886 0
54 2886 0
55 2886 0
56 2886 0
57 2886 0
58 2886 0
59 2886 0
60 2886 0.99509004789631994
1205 2886 0
1206 2886 0
1207 2886 0
1208 2886 0
1201 2887 0
1202 2887 0
1203 2887 0
1204 2887 0
1596 2887 0
1201 2888 0.99878751991636638
1202 2888 0
1203 2888 0
1204 2888 0
1596 2888 0
1201 2889 0
1202 2889 0.99886974093913028
1203 2889 0
1204 2889 0
1596 2889 0
1201 2890 0
1202 2890 0
1203 2890 0.99859691322799182
1204 2890 0
1596 2890 0
1201 2891 0
1202 2891 0
1203 2891 0
1204 2891 0.99879118685427859
1596 2891 0
1201 2892 0
1202 2892 0
1203 2892 0
1204 2892 0
1596 2892 1
25 2893 -0.99509004789631994
26 2893 -0
27 2893 -0
28 2893 -0
29 2893 -0
30 2893 -0
31 2893 -0
32 2893 -0
33 2893 -0
34 2893 -0
35 2893 -0
36 2893 -0
37 2893 0
38 2893 0
39 2893 0
40 2893 0
41 2893 0
42 2893 0
43 2893 0
44 2893 0
45 2893 0
46 2893 0
47 2893 0
48 2893 0
1201 2893 -0.1803189598547551
1202 2893 -0.25584631152049064
1203 2893 -0.074765084896359371
1204 2893 -0.06244980534901011
25 2894 -0
26 2894 -0.99509004789631994
27 2894 -0
28 2894 -0
29 2894 -0
30 2894 -0
31 2894 -0
32 2894 -0
33 2894 -0
34 2894 -0
35 2894 -0
36 2894 -0
37 2894 0
38 2894 0
39 2894 0
40 2894 0
41 2894 0
42 2894 0
43 2894 0
44 2894 0
45 2894 0
46 2894 0
47 2894 0
48 2894 0
1201 2894 0.10820261428783474
1202 2894 0.080196783561304039
1203 2894 -0.016866001348705428
1204 2894 -0.17094248486675911
25 2895 -0
26 2895 -0
27 2895 -0.99509004789631994
28 2895 -0
29 2895 -0
30 2895 -0
31 2895 -0
32 2895 -0
33 2895 -0
34 2895 -0
35 2895 -0
36 2895 -0
37 2895 0
38 2895 0
39 2895 0
40 2895 0
41 2895 0
42 2895 0
43 2895 0
44 2895 0
45 2895 0
46 2895 0
47 2895 0
48 2895 0
1201 2895 0.021296203412182201
1202 2895 0.06379387941368389
1203 2895 0.33227429440027084
1204 2895 0.038055274961526345
25 2896 -0
26 2896 -0
27 2896 -0
28 2896 -0.99509004789631994
29 2896 -0
30 2896 -0
31 2896 -0
32 2896 -0
33 2896 -0
34 2896 -0
35 2896 -0
36 2896 -0
37 2896 0
38 2896 0
39 2896 0
40 2896 0
41 2896 0
42 2896 0
43 2896 0
44 2896 0
45 2896 0
46 2896 0
47 2896 0
48 2896 0
1201 2896 0.19846746771042395
1202 2896 0.13291349456905685
1203 2896 -0.11659569025066187
1204 2896 0.1709989853023412
25 2897 -0
26 2897 -0
27 2897 -0
28 2897 -0
29 2897 -0.99509004789631994
30 2897 -0
31 2897 -0
32 2897 -0
33 2897 -0
34 2897 -0
35 2897 -0
36 2897 -0
37 2897 0
38 2897 0
39 2897 0
40 2897 0
41 2897 0
42 2897 0
43 2897 0
44 2897 0
45 2897 0
46 2897 0
47 2897 0
48 2897 0
1201 2897 0.06406726430169403
1202 2897 0.0077975121873435499
1203 2897 -0.012888481757033089
1204 2897 0.1821584263174176
25 2898 -0
26 2898 -0
27 2898 -0
28 2898 -0
29 2898 -0
30 2898 -0.99509004789631994
31 2898 -0
32 2898 -0
33 2898 -0
34 2898 -0
35 2898 -0
36 2898 -0
37 2898 0
38 2898 0
39 2898 0
40 2898 0
41 2898 0
42 2898 0
43 2898 0
44 2898 0
45 2898 0
46 2898 0
47 2898 0
48 2898 0
1201 2898 0.14930176975937659
1202 2898 -0.1220518999462523
1203 2898 -0.21437482240798272
1204 2898 -0.27728111366749703
25 2899 -0
26 2899 -0
27 2899 -0
28 2899 -0
29 2899 -0
30 2899 -0
31 2899 -0.99509004789631994
32 2899 -0
33 2899 -0
34 2899 -0
35 2899 -0
36 2899 -0
37 2899 0
38 2899 0
39 2899 0
40 2899 0
41 2899 0
42 2899 0
43 2899 0
44 2899 0
45 2899 0
46 2899 0
47 2899 0
48 2899 0
1201 2899 -0.27832449100114248
1202 2899 -0.023030066571549251
1203 2899 0.085999904285044407
1204 2899 0.14042558666593874
25 2900 -0
26 2900 -0
27 2900 -0
28 2900 -0
29 2900 -0
30 2900 -0
31 2900 -0
32 2900 -0.99509004789631994
33 2900 -0
34 2900 -0
35 2900 -0
36 2900 -0
37 2900 0
38 2900 0
39 2900 0
40 2900 0
41 2900 0
42 2900 0
43 2900 0
44 2900 0
45 2900 0
46 2900 0
47 2900 0
48 2900 0
1201 2900 0.14426661227624929
1202 2900 0.019112219351713613
1203 2900 -0.3383340256558125
1204 2900 -0.26332006554483989
25 2901 -0
26 2901 -0
27 2901 -0
28 2901 -0
29 2901 -0
30 2901 -0
31 2901 -0
32 2901 -0
33 2901 -0.99509004789631994
34 2901 -0
35 2901 -0
36 2901 -0
37 2901 0
38 2901 0
39 2901 0
40 2901 0
41 2901 0
42 2901 0
43 2901 0
44 2901 0
45 2901 0
46 2901 0
47 2901 0
48 2901 0
1201 2901 -0.11462509557936003
1202 2901 -0.065598224589830417
1203 2901 0.12045547271290091
1204 2901 0.066735657880519217
25 2902 -0
26 2902 -0
27 2902 -0
28 2902 -0
29 2902 -0
30 2902 -0
31 2902 -0
32 2902 -0
33 2902 -0
34 2902 -0.99509004789631994
35 2902 -0
36 2902 -0
37 2902 0
38 2902 0
39 2902 0
40 2902 0
41 2902 0
42 2902 0
43 2902 0
44 2902 0
45 2902 0
46 2902 0
47 2902 0
48 2902 0
1201 2902 0.1112726701807888
1202 2902 -0.18163442438886057
1203 2902 -0.24934842404473068
1204 2902 0.087619788974651794
25 2903 -0
26 2903 -0
27 2903 -0
28 2903 -0
29 2903 -0
30 2903 -0
31 2903 -0
32 2903 -0
33 2903 -0
34 2903 -0
35 2903 -0.99509004789631994
36 2903 -0
37 2903 0
38 2903 0
39 2903 0
40 2903 0
41 2903 0
42 2903 0
43 2903 0
44 2903 0
45 2903 0
46 2903 0
47 2903 0
48 2903 0
1201 2903 0.0048220099123521959
1202 2903 -0.09230703811323461
1203 2903 -0.22028815111069383
1204 2903 -0.062540089363958593
25 2904 -0
26 2904 -0
27 2904 -0
28 2904 -0
29 2904 -0
30 2904 -0
31 2904 -0
32 2904 -0
33 2904 -0
34 2904 -0
35 2904 -0
36 2904 -0.99509004789631994
37 2904 0
38 2904 0
39 2904 0
40 2904 0
41 2904 0
42 2904 0
43 2904 0
44 2904 0
45 2904 0
46 2904 0
47 2904 0
48 2904 0
1201 2904 0.22589481330245723
1202 2904 0.085512196920050021
1203 2904 -0.209328877595194
1204 2904 0.014853171089538656
25 2905 0
26 2905 0
27 2905 0
28 2905 0
29 2905 0
30 2905 0
31 2905 0
32 2905 0
33 2905 0
34 2905 0
35 2905 0
36 2905 0
37 2905 0.99509004789631994
38 2905 0
39 2905 0
40 2905 0
41 2905 0
42 2905 0
43 2905 0
44 2905 0
45 2905 0
46 2905 0
47 2905 0
48 2905 0
1201 2905 0
1202 2905 0
1203 2905 0
1204 2905 0
25 2906 0
26 2906 0
27 2906 0
28 2906 0
29 2906 0
30 2906 0
31 2906 0
32 2906 0
33 2906 0
34 2906 0
35 2906 0
36 2906 0
37 2906 0
38 2906 0.99509004789631994
39 2906 0
40 2906 0
41 2906 0
42 2906 0
43 2906 0
44 2906 0
45 2906 0
46 2906 0
47 2906 0
48 2906 0
1201 2906 0
1202 2906 0
1203 2906 0
1204 2906 0
25 2907 0
26 2907 0
27 2907 0
28 2907 0
29 2907 0
30 2907 0
31 2907 0
32 2907 0
33 2907 0
34 2907 0
35 2907 0
36 2907 0
37 2907 0
38 2907 0
39 2907 0.99509004789631994
40 2907 0
41 2907 0
42 2907 0
43 2907 0
44 2907 0
45 2907 0
46 2907 0
47 2907 0
48 2907 0
1201 2907 0
1202 2907 0
1203 2907 0
1204 2907 0
25 2908 0
26 2908 0
27 2908 0
28 2908 0
29 2908 0
30 2908 0
31 2908 0
32 2908 0
33 2908 0
34 2908 0
35 2908 0
36 2908 0
37 2908 0
38 2908 0
39 2908 0
40 2908 0.99509004789631994
41 2908 0
42 2908 0
43 2908 0
44 2908 0
45 2908 0
46 2908 0
47 2908 0
48 2908 0
1201 2908 0
1202 2908 0
1203 2908 0
1204 2908 0
25 2909 0
26 2909 0
27 2909 0
28 2909 0
29 2909 0
30 2909 0
31 2909 0
32 2909 0
33 2909 0
34 2909 0
35 2909 0
36 2909 0
37 2909 0
38 2909 0
39 2909 0
40 2909 0
41 2909 0.99509004789631994
42 2909 0
43 2909 0
44 2909 0
45 2909 0
46 2909 0
47 2909 0
48 2909 0
1201 2909 0
1202 2909 0
1203 2909 0
1204 2909 0
25 2910 0
26 2910 0
27 2910 0
28 2910 0
29 2910 0
30 2910 0
31 2910 0
32 2910 0
33 2910 0
34 2910 0
35 2910 0
36 2910 0
37 2910 0
38 2910 0
39 2910 0
40 2910 0
41 2910 0
42 2910 0.99509004789631994
43 2910 0
44 2910 0
45 2910 0
46 2910 0
47 2910 0
48 2910 0
1201 2910 0
1202 2910 0
1203 2910 0
1204 2910 0
25 2911 0
26 2911 0
27 2911 0
28 2911 0
29 2911 0
30 2911 0
31 2911 0
32 2911 0
33 2911 0
34 2911 0
35 2911 0
36 2911 0
37 2911 0
38 2911 0
39 2911 0
40 2911 0
41 2911 0
42 2911 0
43 2911 0.99509004789631994
44 2911 0
45 2911 0
46 2911 0
47 2911 0
48 2911 0
1201 2911 0
1202 2911 0
1203 2911 0
1204 2911 0
25 2912 0
26 2912 0
27 2912 0
28 2912 0
29 2912 0
30 2912 0
31 2912 0
32 2912 0
33 2912 0
34 2912 0
35 2912 0
36 2912 0
37 2912 0
38 2912 0
39 2912 0
40 2912 0
41 2912 0
42 2912 0
43 2912 0
44 2912 0.99509004789631994
45 2912 0
46 2912 0
47 2912 0
48 2912 0
1201 2912 0
1202 2912 0
1203 2912 0
1204 2912 0
25 2913 0
26 2913 0
27 2913 0
28 2913 0
29 2913 0
30 2913 0
31 2913 0
32 2913 0
33 2913 0
34 2913 0
35 2913 0
36 2913 0
37 2913 0
38 2913 0
39 2913 0
40 2913 0
41 2913 0
42 2913 0
43 2913 0
44 2913 0
45 2913 0.99509004789631994
46 2913 0
47 2913 0
48 2913 0
1201 2913 0
1202 2913 0
1203 2913 0
1204 2913 0
25 2914 0
26 2914 0
27 2914 0
28 2914 0
29 2914 0
30 2914 0
31 2914 0
32 2914 0
33 2914 0
34 2914 0
35 2914 0
36 2914 0
37 2914 0
38 2914 0
39 2914 0
40 2914 0
41 2914 0
42 2914 0
43 2914 0
44 2914 0
45 2914 0
46 2914 0.99509004789631994
47 2914 0
48 2914 0
1201 2914 0
1202 2914 0
1203 2914 0
1204 2914 0
25 2915 0
26 2915 0
27 2915 0
28 2915 0
29 2915 0
30 2915 0
31 2915 0
32 2915 0
33 2915 0
34 2915 0
35 2915 0
36 2915 0
37 2915 0
38 2915 0
39 2915 0
40 2915 0
41 2915 0
42 2915 0
43 2915 0
44 2915 0
45 2915 0
46 2915 0
47 2915 0.99509004789631994
48 2915 0
1201 2915 0
1202 2915 0
1203 2915 0
1204 2915 0
25 2916 0
26 2916 0
27 2916 0
28 2916 0
29 2916 0
30 2916 0
31 2916 0
32 2916 0
33 2916 0
34 2916 0
35 2916 0
36 2916 0
37 2916 0
38 2916 0
39 2916 0
40 2916 0
41 2916 0
42 2916 0
43 2916 0
44 2916 0
45 2916 0
46 2916 0
47 2916 0
48 2916 0.99509004789631994
1201 2916 0
1202 2916 0
1203 2916 0
1204 2916 0
1197 2917 0
1198 2917 0
1199 2917 0
1200 2917 0
1595 2917 0
1197 2918 0.99878751991636638
1198 2918 0
1199 2918 0
1200 2918 0
1595 2918 0
1197 2919 0
1198 2919 0.99886974093913028
1199 2919 0
1200 2919 0
1595 2919 0
1197 2920 0
1198 2920 0
1199 2920 0.99859691322799182
1200 2920 0
1595 2920 0
1197 2921 0
1198 2921 0
1199 2921 0
1200 2921 0.99879118685427859
1595 2921 0
1197 2922 0
1198 2922 0
1199 2922 0
1200 2922 0
1595 2922 1
13 2923 -0.99509004789631994
14 2923 -0
15 2923 -0
16 2923 -0
17 2923 -0
18 2923 -0
19 2923 -0
20 2923 -0
21 2923 -0
22 2923 -0
23 2923 -0
24 2923 -0
25 2923 0
26 2923 0
27 2923 0
28 2923 0
29 2923 0
30 2923 0
31 2923 0
32 2923 0
33 2923 0
34 2923 0
35 2923 0
36 2923 0
1197 2923 -0.1803189598547551
1198 2923 -0.25584631152049064
1199 2923 -0.074765084896359371
1200 2923 -0.06244980534901011
13 2924 -0
14 2924 -0.99509004789631994
15 2924 -0
16 2924 -0
17 2924 -0
18 2924 -0
19 2924 -0
20 2924 -0
21 2924 -0
22 2924 -0
23 2924 -0
24 2924 -0
25 2924 0
26 2924 0
27 2924 0
28 2924 0
29 2924 0
30 2924 0
31 2924 0
32 2924 0
33 2924 0
34 2924 0
35 2924 0
36 2924 0
1197 2924 0.10820261428783474
1198 2924 0.080196783561304039
1199 2924 -0.016866001348705428
1200 2924 -0.17094248486675911
13 2925 -0
14 2925 -0
15 2925 -0.99509004789631994
16 2925 -0
17 2925 -0
18 2925 -0
19 2925 -0
20 2925 -0
21 2925 -0
22 2925 -0
23 2925 -0
24 2925 -0
25 2925 0
26 2925 0
27 2925 0
28 2925 0
29 2925 0
30 2925 0
31 2925 0
32 2925 0
33 2925 0
34 2925 0
35 2925 0
36 2925 0
1197 2925 0.021296203412182201
1198 2925 0.06379387941368389
1199 2925 0.33227429440027084
1200 2925 0.038055274961526345
13 2926 -0
14 2926 -0
15 2926 -0
16 2926 -0.99509004789631994
17 2926 -0
18 2926 -0
19 2926 -0
20 2926 -0
21 2926 -0
22 2926 -0
23 2926 -0
24 2926 -0
25 2926 0
26 2926 0
27 2926 0
28 2926 0
29 2926 0
30 2926 0
31 2926 0
32 2926 0
33 2926 0
34 2926 0
35 2926 0
36 2926 0
1197 2926 0.19846746771042395
1198 2926 0.13291349456905685
1199 2926 -0.11659569025066187
1200 2926 0.1709989853023412
13 2927 -0
14 2927 -0
15 2927 -0
16 2927 -0
17 2927 -0.99509004789631994
18 2927 -0
19 2927 -0
20 2927 -0
21 2927 -0
22 2927 -0
23 2927 -0
24 2927 -0
25 2927 0
26 2927 0
27 2927 0
28 2927 0
29 2927 0
30 2927 0
31 2927 0
32 2927 0
33 2927 0
34 2927 0
35 2927 0
36 2927 0
1197 2927 0.06406726430169403
1198 2927 0.0077975121873435499
1199 2927 -0.012888481757033089
1200 2927 0.1821584263174176
13 2928 -0
14 2928 -0
15 2928 -0
16 2928 -0
17 2928 -0
18 2928 -0.99509004789631994
19 2928 -0
20 2928 -0
21 2928 -0
22 2928 -0
23 2928 -0
24 2928 -0
25 2928 0
26 2928 0
27 2928 0
28 2928 0
29 2928 0
30 2928 0
31 2928 0
32 2928 0
33 2928 0
34 2928 0
35 2928 0
36 2928 0
1197 2928 0.14930176975937659
1198 2928 -0.1220518999462523
1199 2928 -0.21437482240798272
1200 2928 -0.27728111366749703
13 2929 -0
14 2929 -0
15 2929 -0
16 2929 -0
17 2929 -0
18 2929 -0
19 2929 -0.99509004789631994
20 2929 -0
21 2929 -0
22 2929 -0
23 2929 -0
24 2929 -0
25 2929 0
26 2929 0
27 2929 0
28 2929 0
29 2929 0
30 2929 0
31 2929 0
32 2929 0
33 2929 0
34 2929 0
35 2929 0
36 2929 0
1197 2929 -0.27832449100114248
1198 2929 -0.023030066571549251
1199 2929 0.085999904285044407
1200 2929 0.14042558666593874
13 2930 -0
14 2930 -0
15 2930 -0
16 2930 -0
17 2930 -0
18 2930 -0
19 2930 -0
20 2930 -0.99509004789631994
21 2930 -0
22 2930 -0
23 2930 -0
24 2930 -0
25 2930 0
26 2930 0
27 2930 0
28 2930 0
29 2930 0
30 2930 0
31 2930 0
32 2930 0
33 2930 0
34 2930 0
35 2930 0
36 2930 0
1197 2930 0.14426661227624929
1198 2930 0.019112219351713613
1199 2930 -0.3383340256558125
1200 2930 -0.26332006554483989
13 2931 -0
14 2931 -0
15 2931 -0
16 2931 -0
17 2931 -0
18 2931 -0
19 2931 -0
20 2931 -0
21 2931 -0.99509004789631994
22 2931 -0
23 2931 -0
24 2931 -0
25 2931 0
26 2931 0
27 2931 0
28 2931 0
29 2931 0
30 2931 0
31 2931 0
32 2931 0
33 2931 0
34 2931 0
35 2931 0
36 2931 0
1197 2931 -0.11462509557936003
1198 2931 -0.065598224589830417
1199 2931 0.12045547271290091
1200 2931 0.066735657880519217
13 2932 -0
14 2932 -0
15 2932 -0
16 2932 -0
17 2932 -0
18 2932 -0
19 2932 -0
20 2932 -0
21 2932 -0
22 2932 -0.99509004789631994
23 2932 -0
24 2932 -0
25 2932 0
26 2932 0
27 2932 0
28 2932 0
29 2932 0
30 2932 0
31 2932 0
32 2932 0
33 2932 0
34 2932 0
35 2932 0
36 2932 0
1197 2932 0.1112726701807888
1198 2932 -0.18163442438886057
1199 2932 -0.24934842404473068
1200 2932 0.087619788974651794
13 2933 -0
14 2933 -0
15 2933 -0
16 2933 -0
17 2933 -0
18 2933 -0
19 2933 -0
20 2933 -0
21 2933 -0
22 2933 -0
23 2933 -0.99509004789631994
24 2933 -0
25 2933 0
26 2933 0
27 2933 0
28 2933 0
29 2933 0
30 2933 0
31 2933 0
32 2933 0
33 2933 0
34 2933 0
35 2933 0
36 2933 0
1197 2933 0.0048220099123521959
1198 2933 -0.09230703811323461
1199 2933 -0.22028815111069383
1200 2933 -0.062540089363958593
13 2934 -0
14 2934 -0
15 2934 -0
16 2934 -0
17 2934 -0
18 2934 -0
19 2934 -0
20 2934 -0
21 2934 -0
22 2934 -0
23 2934 -0
24 2934 -0.99509004789631994
25 2934 0
26 2934 0
27 2934 0
28 2934 0
29 2934 0
30 2934 0
31 2934 0
32 2934 0
33 2934 0
34 2934 0
35 2934 0
36 2934 0
1197 2934 0.22589481330245723
1198 2934 0.085512196920050021
1199 2934 -0.209328877595194
1200 2934 0.014853171089538656
13 2935 0
14 2935 0
15 2935 0
16 2935 0
17 2935 0
18 2935 0
19 2935 0
20 2935 0
21 2935 0
22 2935 0
23 2935 0
24 2935 0
25 2935 0.99509004789631994
26 2935 0
27 2935 0
28 2935 0
29 2935 0
30 2935 0
31 2935 0
32 2935 0
33 2935 0
34 2935 0
35 2935 0
36 2935 0
1197 2935 0
1198 2935 0
1199 2935 0
1200 2935 0
13 2936 0
14 2936 0
15 2936 0
16 2936 0
17 2936 0
18 2936 0
19 2936 0
20 2936 0
21 2936 0
22 2936 0
23 2936 0
24 2936 0
25 2936 0
26 2936 0.99509004789631994
27 2936 0
28 2936 0
29 2936 0
30 2936 0
31 2936 0
32 2936 0
33 2936 0
34 2936 0
35 2936 0
36 2936 0
1197 2936 0
1198 2936 0
1199 2936 0
1200 2936 0
13 2937 0
14 2937 0
15 2937 0
16 2937 0
17 2937 0
18 2937 0
19 2937 0
20 2937 0
21 2937 0
22 2937 0
23 2937 0
24 2937 0
25 2937 0
26 2937 0
27 2937 0.99509004789631994
28 2937 0
29 2937 0
30 2937 0
31 2937 0
32 2937 0
33 2937 0
34 2937 0
35 2937 0
36 2937 0
1197 2937 0
1198 2937 0
1199 2937 0
1200 2937 0
13 2938 0
14 2938 0
15 2938 0
16 2938 0
17 2938 0
18 2938 0
19 2938 0
20 2938 0
21 2938 0
22 2938 0
23 2938 0
24 2938 0
25 2938 0
26 2938 0
27 2938 0
28 2938 0.99509004789631994
29 2938 0
30 2938 0
31 2938 0
32 2938 0
33 2938 0
34 2938 0
35 2938 0
36 2938 0
1197 2938 0
1198 2938 0
1199 2938 0
1200 2938 0
13 2939 0
14 2939 0
15 2939 0
16 2939 0
17 2939 0
18 2939 0
19 2939 0
20 2939 0
21 2939 0
22 2939 0
23 2939 0
24 2939 0
25 2939 0
26 2939 0
27 2939 0
28 2939 0
29 2939 0.99509004789631994
30 2939 0
31 2939 0
32 2939 0
33 2939 0
34 2939 0
35 2939 0
36 2939 0
1197 2939 0
1198 2939 0
1199 2939 0
1200 2939 0
13 2940 0
14 2940 0
15 2940 0
16 2940 0
17 2940 0
18 2940 0
19 2940 0
20 2940 0
21 2940 0
22 2940 0
23 2940 0
24 2940 0
25 2940 0
26 2940 0
27 2940 0
28 2940 0
29 2940 0
30 2940 0.99509004789631994
31 2940 0
32 2940 0
33 2940 0
34 2940 0
35 2940 0
36 2940 0
1197 2940 0
1198 2940 0
1199 2940 0
1200 2940 0
13 2941 0
14 2941 0
15 2941 0
16 2941 0
17 2941 0
18 2941 0
19 2941 0
20 2941 0
21 2941 0
22 2941 0
23 2941 0
24 2941 0
25 2941 0
26 2941 0
27 2941 0
28 2941 0
29 2941 0
30 2941 0
31 2941 0.99509004789631994
32 2941 0
33 2941 0
34 2941 0
35 2941 0
36 2941 0
1197 2941 0
1198 2941 0
1199 2941 0
1200 2941 0
13 2942 0
14 2942 0
15 2942 0
16 2942 0
17 2942 0
18 2942 0
19 2942 0
20 2942 0
21 2942 0
22 2942 0
23 2942 0
24 2942 0
25 2942 0
26 2942 0
27 2942 0
28 2942 0
29 2942 0
30 2942 0
31 2942 0
32 2942 0.99509004789631994
33 2942 0
34 2942 0
35 2942 0
36 2942 0
1197 2942 0
1198 2942 0
1199 2942 0
1200 2942 0
13 2943 0
14 2943 0
15 2943 0
16 2943 0
17 2943 0
18 2943 0
19 2943 0
20 2943 0
21 2943 0
22 2943 0
23 2943 0
24 2943 0
25 2943 0
26 2943 0
27 2943 0
28 2943 0
29 2943 0
30 2943 0
31 2943 0
32 2943 0
33 2943 0.99509004789631994
34 2943 0
35 2943 0
36 2943 0
1197 2943 0
1198 2943 0
1199 2943 0
1200 2943 0
13 2944 0
14 2944 0
15 2944 0
16 2944 0
17 2944 0
18 2944 0
19 2944 0
20 2944 0
21 2944 0
22 2944 0
23 2944 0
24 2944 0
25 2944 0
26 2944 0
27 2944 0
28 2944 0
29 2944 0
30 2944 0
31 2944 0
32 2944 0
33 2944 0
34 2944 0.99509004789631994
35 2944 0
36 2944 0
1197 2944 0
1198 2944 0
1199 2944 0
1200 2944 0
13 2945 0
14 2945 0
15 2945 0
16 2945 0
17 2945 0
18 2945 0
19 2945 0
20 2945 0
21 2945 0
22 2945 0
23 2945 0
24 2945 0
25 2945 0
26 2945 0
27 2945 0
28 2945 0
29 2945 0
30 2945 0
31 2945 0
32 2945 0
33 2945 0
34 2945 0
35 2945 0.99509004789631994
36 2945 0
1197 2945 0
1198 2945 0
1199 2945 0
1200 2945 0
13 2946 0
14 2946 0
15 2946 0
16 2946 0
17 2946 0
18 2946 0
19 2946 0
20 2946 0
21 2946 0
22 2946 0
23 2946 0
24 2946 0
25 2946 0
26 2946 0
27 2946 0
28 2946 0
29 2946 0
30 2946 0
31 2946 0
32 2946 0
33 2946 0
34 2946 0
35 2946 0
36 2946 0.99509004789631994
1197 2946 0
1198 2946 0
1199 2946 0
1200 2946 0
1193 2947 0
1194 2947 0
1195 2947 0
1196 2947 0
1594 2947 0
1193 2948 0.99878751991636638
1194 2948 0
1195 2948 0
1196 2948 0
1594 2948 0
1193 2949 0
1194 2949 0.99886974093913028
1195 2949 0
1196 2949 0
1594 2949 0
1193 2950 0
1194 2950 0
1195 2950 0.99859691322799182
1196 2950 0
1594 2950 0
1193 2951 0
1194 2951 0
1195 2951 0
1196 2951 0.99879118685427859
1594 2951 0
1193 2952 0
1194 2952 0
1195 2952 0
1196 2952 0
1594 2952 1
1189 2953 0
1190 2953 0
1191 2953 0
1192 2953 0
1593 2953 0
1189 2954 0.99878751991636638
1190 2954 0
1191 2954 0
1192 2954 0
1593 2954 0
1189 2955 0
1190 2955 0.99886974093913028
1191 2955 0
1192 2955 0
1593 2955 0
1189 2956 0
1190 2956 0
1191 2956 0.99859691322799182
1192 2956 0
1593 2956 0
1189 2957 0
1190 2957 0
1191 2957 0
1192 2957 0.99879118685427859
1593 2957 0
1189 2958 0
1190 2958 0
1191 2958 0
1192 2958 0
1593 2958 1
1 2959 -0.99509004789631994
2 2959 -0
3 2959 -0
4 2959 -0
5 2959 -0
6 2959 -0
7 2959 -0
8 2959 -0
9 2959 -0
10 2959 -0
11 2959 -0
12 2959 -0
13 2959 0
14 2959 0
15 2959 0
16 2959 0
17 2959 0
18 2959 0
19 2959 0
20 2959 0
21 2959 0
22 2959 0
23 2959 0
24 2959 0
1193 2959 -0.1803189598547551
1194 2959 -0.25584631152049064
1195 2959 -0.074765084896359371
1196 2959 -0.06244980534901011
1 2960 -0
2 2960 -0.99509004789631994
3 2960 -0
4 2960 -0
5 2960 -0
6 2960 -0
7 2960 -0
8 2960 -0
9 2960 -0
10 2960 -0
11 2960 -0
12 2960 -0
13 2960 0
14 2960 0
15 2960 0
16 2960 0
17 2960 0
18 2960 0
19 2960 0
20 2960 0
21 2960 0
22 2960 0
23 2960 0
24 2960 0
1193 2960 0.10820261428783474
1194 2960 0.080196783561304039
1195 2960 -0.016866001348705428
1196 2960 -0.17094248486675911
1 2961 -0
2 2961 -0
3 2961 -0.99509004789631994
4 2961 -0
5 2961 -0
6 2961 -0
7 2961 -0
8 2961 -0
9 2961 -0
10 2961 -0
11 2961 -0
12 2961 -0
13 2961 0
14 2961 0
15 2961 0
16 2961 0
17 2961 0
18 2961 0
19 2961 0
20 2961 0
21 2961 0
22 2961 0
23 2961 0
24 2961 0
1193 2961 0.021296203412182201
1194 2961 0.06379387941368389
1195 2961 0.33227429440027084
1196 2961 0.038055274961526345
1 2962 -0
2 2962 -0
3 2962 -0
4 2962 -0.99509004789631994
5 2962 -0
6 2962 -0
7 2962 -0
8 2962 -0
9 2962 -0
10 2962 -0
11 2962 -0
12 2962 -0
13 2962 0
14 2962 0
15 2962 0
16 2962 0
17 2962 0
18 2962 0
19 2962 0
20 2962 0
21 2962 0
22 2962 0
23 2962 0
24 2962 0
1193 2962 0.19846746771042395
1194 2962 0.13291349456905685
1195 2962 -0.11659569025066187
1196 2962 0.1709989853023412
1 2963 -0
2 2963 -0
3 2963 -0
4 2963 -0
5 2963 -0.99509004789631994
6 2963 -0
7 2963 -0
8 2963 -0
9 2963 -0
10 2963 -0
11 2963 -0
12 2963 -0
13 2963 0
14 2963 0
15 2963 0
16 2963 0
17 2963 0
18 2963 0
19 2963 0
20 2963 0
21 2963 0
22 2963 0
23 2963 0
24 2963 0
1193 2963 0.06406726430169403
1194 2963 0.0077975121873435499
1195 2963 -0.012888481757033089
1196 2963 0.1821584263174176
1 2964 -0
2 2964 -0
3 2964 -0
4 2964 -0
5 2964 -0
6 2964 -0.99509004789631994
7 2964 -0
8 2964 -0
9 2964 -0
10 2964 -0
11 2964 -0
12 2964 -0
13 2964 0
14 2964 0
15 2964 0
16 2964 0
17 2964 0
18 2964 0
19 2964 0
20 2964 0
21 2964 0
22 2964 0
23 2964 0
24 2964 0
1193 2964 0.14930176975937659
1194 2964 -0.1220518999462523
1195 2964 -0.21437482240798272
1196 2964 -0.27728111366749703
1 2965 -0
2 2965 -0
3 2965 -0
4 2965 -0
5 2965 -0
6 2965 -0
7 2965 -0.99509004789631994
8 2965 -0
9 2965 -0
10 2965 -0
11 2965 -0
12 2965 -0
13 2965 0
14 2965 0
15 2965 0
16 2965 0
17 2965 0
18 2965 0
19 2965 0
20 2965 0
21 2965 0
22 2965 0
23 2965 0
24 2965 0
1193 2965 -0.27832449100114248
1194 2965 -0.023030066571549251
1195 2965 0.085999904285044407
1196 2965 0.14042558666593874
1 2966 -0
2 2966 -0
3 2966 -0
4 2966 -0
5 2966 -0
6 2966 -0
7 2966 -0
8 2966 -0.99509004789631994
9 2966 -0
10 2966 -0
11 2966 -0
12 2966 -0
13 2966 0
14 2966 0
15 2966 0
16 2966 0
17 2966 0
18 2966 0
19 2966 0
20 2966 0
21 2966 0
22 2966 0
23 2966 0
24 2966 0
1193 2966 0.14426661227624929
1194 2966 0.019112219351713613
1195 2966 -0.3383340256558125
1196 2966 -0.26332006554483989
1 2967 -0
2 2967 -0
3 2967 -0
4 2967 -0
5 2967 -0
6 2967 -0
7 2967 -0
8 2967 -0
9 2967 -0.99509004789631994
10 2967 -0
11 2967 -0
12 2967 -0
13 2967 0
14 2967 0
15 2967 0
16 2967 0
17 2967 0
18 2967 0
19 2967 0
20 2967 0
21 2967 0
22 2967 0
23 2967 0
24 2967 0
1193 2967 -0.11462509557936003
1194 2967 -0.065598224589830417
1195 2967 0.12045547271290091
1196 2967 0.066735657880519217
1 2968 -0
2 2968 -0
3 2968 -0
4 2968 -0
5 2968 -0
6 2968 -0
7 2968 -0
8 2968 -0
9 2968 -0
10 2968 -0.99509004789631994
11 2968 -0
12 2968 -0
13 2968 0
14 2968 0
15 2968 0
16 2968 0
17 2968 0
18 2968 0
19 2968 0
20 2968 0
21 2968 0
22 2968 0
23 2968 0
24 2968 0
1193 2968 0.1112726701807888
1194 2968 -0.18163442438886057
1195 2968 -0.24934842404473068
1196 2968 0.087619788974651794
1 2969 -0
2 2969 -0
3 2969 -0
4 2969 -0
5 2969 -0
6 2969 -0
7 2969 -0
8 2969 -0
9 2969 -0
10 2969 -0
11 2969 -0.99509004789631994
12 2969 -0
13 2969 0
14 2969 0
15 2969 0
16 2969 0
17 2969 0
18 2969 0
19 2969 0
20 2969 0
21 2969 0
22 2969 0
23 2969 0
24 2969 0
1193 2969 0.0048220099123521959
1194 2969 -0.09230703811323461
1195 2969 -0.22028815111069383
1196 2969 -0.062540089363958593
1 2970 -0
2 2970 -0
3 2970 -0
4 2970 -0
5 2970 -0
6 2970 -0
7 2970 -0
8 2970 -0
9 2970 -0
10 2970 -0
11 2970 -0
12 2970 -0.99509004789631994
13 2970 0
14 2970 0
15 2970 0
16 2970 0
17 2970 0
18 2970 0
19 2970 0
20 2970 0
21 2970 0
22 2970 0
23 2970 0
24 2970 0
1193 2970 0.22589481330245723
1194 2970 0.085512196920050021
1195 2970 -0.209328877595194
1196 2970 0.014853171089538656
1 2971 0
2 2971 0
3 2971 0
4 2971 0
5 2971 0
6 2971 0
7 2971 0
8 2971 0
9 2971 0
10 2971 0
11 2971 0
12 2971 0
13 2971 0.99509004789631994
14 2971 0
15 2971 0
16 2971 0
17 2971 0
18 2971 0
19 2971 0
20 2971 0
21 2971 0
22 2971 0
23 2971 0
24 2971 0
1193 2971 0
1194 2971 0
1195 2971 0
1196 2971 0
1 2972 0
2 2972 0
3 2972 0
4 2972 0
5 2972 0
6 2972 0
7 2972 0
8 2972 0
9 2972 0
10 2972 0
11 2972 0
12 2972 0
13 2972 0
14 2972 0.99509004789631994
15 2972 0
16 2972 0
17 2972 0
18 2972 0
19 2972 0
20 2972 0
21 2972 0
22 2972 0
23 2972 0
24 2972 0
1193 2972 0
1194 2972 0
1195 2972 0
1196 2972 0
1 2973 0
2 2973 0
3 2973 0
4 2973 0
5 2973 0
6 2973 0
7 2973 0
8 2973 0
9 2973 0
10 2973 0
11 2973 0
12 2973 0
13 2973 0
14 2973 0
15 2973 0.99509004789631994
16 2973 0
17 2973 0
18 2973 0
19 2973 0
20 2973 0
21 2973 0
22 2973 0
23 2973 0
24 2973 0
1193 2973 0
1194 2973 0
1195 2973 0
1196 2973 0
1 2974 0
2 2974 0
3 2974 0
4 2974 0
5 2974 0
6 2974 0
7 2974 0
8 2974 0
9 2974 0
10 2974 0
11 2974 0
12 2974 0
13 2974 0
14 2974 0
15 2974 0
16 2974 0.99509004789631994
17 2974 0
18 2974 0
19 2974 0
20 2974 0
21 2974 0
22 2974 0
23 2974 0
24 2974 0
1193 2974 0
1194 2974 0
1195 2974 0
1196 2974 0
1 2975 0
2 2975 0
3 2975 0
4 2975 0
5 2975 0
6 2975 0
7 2975 0
8 2975 0
9 2975 0
10 2975 0
11 2975 0
12 2975 0
13 2975 0
14 2975 0
15 2975 0
16 2975 0
17 2975 0.99509004789631994
18 2975 0
19 2975 0
20 2975 0
21 2975 0
22 2975 0
23 2975 0
24 2975 0
1193 2975 0
1194 2975 0
1195 2975 0
1196 2975 0
1 2976 0
2 2976 0
3 2976 0
4 2976 0
5 2976 0
6 2976 0
7 2976 0
8 2976 0
9 2976 0
10 2976 0
11 2976 0
12 2976 0
13 2976 0
14 2976 0
15 2976 0
16 2976 0
17 2976 0
18 2976 0.99509004789631994
19 2976 0
20 2976 0
21 2976 0
22 2976 0
23 2976 0
24 2976 0
1193 2976 0
1194 2976 0
1195 2976 0
1196 2976 0
1 2977 0
2 2977 0
3 2977 0
4 2977 0
5 2977 0
6 2977 0
7 2977 0
8 2977 0
9 2977 0
10 2977 0
11 2977 0
12 2977 0
13 2977 0
14 2977 0
15 2977 0
16 2977 0
17 2977 0
18 2977 0
19 2977 0.99509004789631994
20 2977 0
21 2977 0
22 2977 0
23 2977 0
24 2977 0
1193 2977 0
1194 2977 0
1195 2977 0
1196 2977 0
1 2978 0
2 2978 0
3 2978 0
4 2978 0
5 2978 0
6 2978 0
7 2978 0
8 2978 0
9 2978 0
10 2978 0
11 2978 0
12 2978 0
13 2978 0
14 2978 0
15 2978 0
16 2978 0
17 2978 0
18 2978 0
19 2978 0
20 2978 0.99509004789631994
21 2978 0
22 2978 0
23 2978 0
24 2978 0
1193 2978 0
1194 2978 0
1195 2978 0
1196 2978 0
1 2979 0
2 2979 0
3 2979 0
4 2979 0
5 2979 0
6 2979 0
7 2979 0
8 2979 0
9 2979 0
10 2979 0
11 2979 0
12 2979 0
13 2979 0
14 2979 0
15 2979 0
16 2979 0
17 2979 0
18 2979 0
19 2979 0
20 2979 0
21 2979 0.99509004789631994
22 2979 0
23 2979 0
24 2979 0
1193 2979 0
1194 2979 0
1195 2979 0
1196 2979 0
1 2980 0
2 2980 0
3 2980 0
4 2980 0
5 2980 0
6 2980 0
7 2980 0
8 2980 0
9 2980 0
10 2980 0
11 2980 0
12 2980 0
13 2980 0
14 2980 0
15 2980 0
16 2980 0
17 2980 0
18 2980 0
19 2980 0
20 2980 0
21 2980 0
22 2980 0.99509004789631994
23 2980 0
24 2980 0
1193 2980 0
1194 2980 0
1195 2980 0
1196 2980 0
1 2981 0
2 2981 0
3 2981 0
4 2981 0
5 2981 0
6 2981 0
7 2981 0
8 2981 0
9 2981 0
10 2981 0
11 2981 0
12 2981 0
13 2981 0
14 2981 0
15 2981 0
16 2981 0
17 2981 0
18 2981 0
19 2981 0
20 2981 0
21 2981 0
22 2981 0
23 2981 0.99509004789631994
24 2981 0
1193 2981 0
1194 2981 0
1195 2981 0
1196 2981 0
1 2982 0
2 2982 0
3 2982 0
4 2982 0
5 2982 0
6 2982 0
7 2982 0
8 2982 0
9 2982 0
10 2982 0
11 2982 0
12 2982 0
13 2982 0
14 2982 0
15 2982 0
16 2982 0
17 2982 0
18 2982 0
19 2982 0
20 2982 0
21 2982 0
22 2982 0
23 2982 0
24 2982 0.99509004789631994
1193 2982 0
1194 2982 0
1195 2982 0
1196 2982 0
1 2983 0
2 2983 0
3 2983 0
4 2983 0
5 2983 0
6 2983 0
7 2983 0
8 2983 0
9 2983 0
10 2983 0
11 2983 0
12 2983 0
1189 2983 -0.1803189598547551
1190 2983 -0.25584631152049064
1191 2983 -0.074765084896359371
1192 2983 -0.06244980534901011
1 2984 0
2 2984 0
3 2984 0
4 2984 0
5 2984 0
6 2984 0
7 2984 0
8 2984 0
9 2984 0
10 2984 0
11 2984 0
12 2984 0
1189 2984 0.10820261428783474
1190 2984 0.080196783561304039
1191 2984 -0.016866001348705428
1192 2984 -0.17094248486675911
1 2985 0
2 2985 0
3 2985 0
4 2985 0
5 2985 0
6 2985 0
7 2985 0
8 2985 0
9 2985 0
10 2985 0
11 2985 0
12 2985 0
1189 2985 0.021296203412182201
1190 2985 0.06379387941368389
1191 2985 0.33227429440027084
1192 2985 0.038055274961526345
1 2986 0
2 2986 0
3 2986 0
4 2986 0
5 2986 0
6 2986 0
7 2986 0
8 2986 0
9 2986 0
10 2986 0
11 2986 0
12 2986 0
1189 2986 0.19846746771042395
1190 2986 0.13291349456905685
1191 2986 -0.11659569025066187
1192 2986 0.1709989853023412
1 2987 0
2 2987 0
3 2987 0
4 2987 0
5 2987 0
6 2987 0
7 2987 0
8 2987 0
9 2987 0
10 2987 0
11 2987 0
12 2987 0
1189 2987 0.06406726430169403
1190 2987 0.0077975121873435499
1191 2987 -0.012888481757033089
1192 2987 0.1821584263174176
1 2988 0
2 2988 0
3 2988 0
4 2988 0
5 2988 0
6 2988 0
7 2988 0
8 2988 0
9 2988 0
10 2988 0
11 2988 0
12 2988 0
1189 2988 0.14930176975937659
1190 2988 -0.1220518999462523
1191 2988 -0.21437482240798272
1192 2988 -0.27728111366749703
1 2989 0
2 2989 0
3 2989 0
4 2989 0
5 2989 0
6 2989 0
7 2989 0
8 2989 0
9 2989 0
10 2989 0
11 2989 0
12 2989 0
1189 2989 -0.27832449100114248
1190 2989 -0.023030066571549251
1191 2989 0.085999904285044407
1192 2989 0.14042558666593874
1 2990 0
2 2990 0
3 2990 0
4 2990 0
5 2990 0
6 2990 0
7 2990 0
8 2990 0
9 2990 0
10 2990 0
11 2990 0
12 2990 0
1189 2990 0.14426661227624929
1190 2990 0.019112219351713613
1191 2990 -0.3383340256558125
1192 2990 -0.26332006554483989
1 2991 0
2 2991 0
3 2991 0
4 2991 0
5 2991 0
6 2991 0
7 2991 0
8 2991 0
9 2991 0
10 2991 0
11 2991 0
12 2991 0
1189 2991 -0.11462509557936003
1190 2991 -0.065598224589830417
1191 2991 0.12045547271290091
1192 2991 0.066735657880519217
1 2992 0
2 2992 0
3 2992 0
4 2992 0
5 2992 0
6 2992 0
7 2992 0
8 2992 0
9 2992 0
10 2992 0
11 2992 0
12 2992 0
1189 2992 0.1112726701807888
1190 2992 -0.18163442438886057
1191 2992 -0.24934842404473068
1192 2992 0.087619788974651794
1 2993 0
2 2993 0
3 2993 0
4 2993 0
5 2993 0
6 2993 0
7 2993 0
8 2993 0
9 2993 0
10 2993 0
11 2993 0
12 2993 0
1189 2993 0.0048220099123521959
1190 2993 -0.09230703811323461
1191 2993 -0.22028815111069383
1192 2993 -0.062540089363958593
1 2994 0
2 2994 0
3 2994 0
4 2994 0
5 2994 0
6 2994 0
7 2994 0
8 2994 0
9 2994 0
10 2994 0
11 2994 0
12 2994 0
1189 2994 0.22589481330245723
1190 2994 0.085512196920050021
1191 2994 -0.209328877595194
1192 2994 0.014853171089538656
1 2995 0.99509004789631994
2 2995 0
3 2995 0
4 2995 0
5 2995 0
6 2995 0
7 2995 0
8 2995 0
9 2995 0
10 2995 0
11 2995 0
12 2995 0
1189 2995 0
1190 2995 0
1191 2995 0
1192 2995 0
1 2996 0
2 2996 0.99509004789631994
3 2996 0
4 2996 0
5 2996 0
6 2996 0
7 2996 0
8 2996 0
9 2996 0
10 2996 0
11 2996 0
12 2996 0
1189 2996 0
1190 2996 0
1191 2996 0
1192 2996 0
1 2997 0
2 2997 0
3 2997 0.99509004789631994
4 2997 0
5 2997 0
6 2997 0
7 2997 0
8 2997 0
9 2997 0
10 2997 0
11 2997 0
12 2997 0
1189 2997 0
1190 2997 0
1191 2997 0
1192 2997 0
1 2998 0
2 2998 0
3 2998 0
4 2998 0.99509004789631994
5 2998 0
6 2998 0
7 2998 0
8 2998 0
9 2998 0
10 2998 0
11 2998 0
12 2998 0
1189 2998 0
1190 2998 0
1191 2998 0
1192 2998 0
1 2999 0
2 2999 0
3 2999 0
4 2999 0
5 2999 0.99509004789631994
6 2999 0
7 2999 0
8 2999 0
9 2999 0
10 2999 0
11 2999 0
12 2999 0
1189 2999 0
1190 2999 0
1191 2999 0
1192 2999 0
1 3000 0
2 3000 0
3 3000 0
4 3000 0
5 3000 0
6 3000 0.99509004789631994
7 3000 0
8 3000 0
9 3000 0
10 3000 0
11 3000 0
12 3000 0
1189 3000 0
1190 3000 0
1191 3000 0
1192 3000 0
1 3001 0
2 3001 0
3 3001 0
4 3001 0
5 3001 0
6 3001 0
7 3001 0.99509004789631994
8 3001 0
9 3001 0
10 3001 0
11 3001 0
12 3001 0
1189 3001 0
1190 3001 0
1191 3001 0
1192 3001 0
1 3002 0
2 3002 0
3 3002 0
4 3002 0
5 3002 0
6 3002 0
7 3002 0
8 3002 0.99509004789631994
9 3002 0
10 3002 0
11 3002 0
12 3002 0
1189 3002 0
1190 3002 0
1191 3002 0
1192 3002 0
1 3003 0
2 3003 0
3 3003 0
4 3003 0
5 3003 0
6 3003 0
7 3003 0
8 3003 0
9 3003 0.99509004789631994
10 3003 0
11 3003 0
12 3003 0
1189 3003 0
1190 3003 0
1191 3003 0
1192 3003 0
1 3004 0
2 3004 0
3 3004 0
4 3004 0
5 3004 0
6 3004 0
7 3004 0
8 3004 0
9 3004 0
10 3004 0.99509004789631994
11 3004 0
12 3004 0
1189 3004 0
1190 3004 0
1191 3004 0
1192 3004 0
1 3005 0
2 3005 0
3 3005 0
4 3005 0
5 3005 0
6 3005 0
7 3005 0
8 3005 0
9 3005 0
10 3005 0
11 3005 0.99509004789631994
12 3005 0
1189 3005 0
1190 3005 0
1191 3005 0
1192 3005 0
1 3006 0
2 3006 0
3 3006 0
4 3006 0
5 3006 0
6 3006 0
7 3006 0
8 3006 0
9 3006 0
10 3006 0
11 3006 0
12 3006 0.99509004789631994
1189 3006 0
1190 3006 0
1191 3006 0
1192 3006 0
