%%MatrixMarket matrix coordinate real general
360 360 12960
1 1 117.29637622469831
2 1 -5.7131577469827281e-15
3 1 1.4628997268493552e-15
4 1 -2.1146106751689008e-31
5 1 8.8564726050269377e-15
6 1 -2.5892370062912134e-31
7 1 7.4263960806292318e-32
8 1 -1.4274458402748636e-47
9 1 1.3913546391092266e-31
10 1 -5.0383830406428604e-32
11 1 7.2829452133942987e-48
12 1 -3.0502638392850606e-31
13 1 8.9176090344884788e-48
14 1 -2.5577301970193077e-48
15 1 4.9162760653230204e-64
16 1 9.1225137541100842e-33
17 1 -1.8648563605582421e-48
18 1 7.8104444773386557e-32
19 1 -2.283425103672702e-48
20 1 6.5492727004605921e-49
21 1 -1.2588517999306718e-64
22 1 1.9061024950210042e-64
23 1 -1.1289939403546748e-47
24 1 3.3006740048917787e-64
25 1 -9.466924979754519e-65
26 1 1.8196609143690863e-80
27 1 3.3435434891016415e-31
28 1 -1.3823976794269092e-47
29 1 3.9649644599634977e-48
30 1 -7.6211556234865109e-64
31 1 2.8577814978538918e-64
32 1 -1.1591785088952714e-64
33 1 2.2280854975868398e-80
34 1 2.3509404349033311e-65
35 1 -6.390548785754813e-81
36 1 8.6856972590187255e-97
1 2 -5.7131577469827281e-15
2 2 77.028252791620034
3 2 38.839335630547346
4 2 1.1948359822448136e-15
5 2 1.4287878024285299
6 2 9.0040676457720306e-16
7 2 6.2130316346026547e-16
8 2 -2.9882339420059806e-30
9 2 -3.7518171774377727e-15
10 2 -6.5836292229780635e-16
11 2 -1.3934450660621982e-31
12 2 4.0633414612450947e-15
13 2 -1.512435772436176e-31
14 2 1.3086522436537666e-32
15 2 9.6289550197017548e-47
16 2 4.8439734725119961e-16
17 2 -3.8973952740335798e-32
18 2 2.086238544733081e-15
19 2 -5.2683311387332219e-32
20 2 2.2867244452015202e-32
21 2 -2.9695164964368792e-47
22 2 -2.1540417568503973e-48
23 2 6.1971108001022876e-32
24 2 -3.0128160377287216e-48
25 2 -2.570992948501429e-49
26 2 3.7064843416005123e-63
27 2 1.0788074140050308e-16
28 2 4.5842677560717825e-32
29 2 3.3811128544988619e-32
30 2 -1.5966522641035308e-46
31 2 -1.9875861391591827e-48
32 2 -5.6668155784422401e-49
33 2 4.5868219181699926e-63
34 2 3.9336623402621767e-49
35 2 -1.3912701746433482e-63
36 2 3.6365506314958043e-79
1 3 1.4628997268493552e-15
2 3 38.839335630547346
3 3 39.744094567123796
4 3 -8.1976722302233144e-16
5 3 38.712946026954761
6 3 -7.9309764713845631e-16
7 3 1.1586493634821252e-15
8 3 -2.3393971165848475e-30
9 3 -1.8917485636738083e-15
10 3 -1.026308453555994e-15
11 3 -2.1277445597733608e-32
12 3 7.4032294747111096e-16
13 3 -3.3308787844635174e-32
14 3 -2.2517095581271456e-32
15 3 7.7229142056071078e-47
16 3 4.9568134120166152e-16
17 3 -5.7893916231042173e-32
18 3 2.4633494432400779e-15
19 3 -6.9030405177920225e-32
20 3 2.8011105406582337e-32
21 3 -2.4050986817789917e-47
22 3 1.4778704822479906e-48
23 3 -9.3117487775648711e-32
24 3 2.2905809513301254e-48
25 3 -1.8440105600426056e-48
26 3 3.05272880648868e-63
27 3 2.9230241972159118e-15
28 3 -1.0277024557226203e-31
29 3 7.9191913944907663e-32
30 3 -1.2823209658942233e-46
31 3 1.750708626886372e-48
32 3 -2.1635866503759059e-48
33 3 3.7197883379547893e-63
34 3 7.3357671982783362e-49
35 3 -1.1470312831373786e-63
36 3 2.8469444584131774e-79
1 4 -2.1146106751689008e-31
2 4 1.1948359822448136e-15
3 4 -8.1976722302233144e-16
4 4 77.154642395225167
5 4 -3.6557851552042247e-16
6 4 38.712946026928812
7 4 1.4287878024347038
8 4 2.247283100252308e-15
9 4 -5.8196908277175794e-32
10 4 3.8770811812279768e-32
11 4 -2.6572883609948157e-15
12 4 7.6383394475961077e-32
13 4 -1.3333152446168051e-15
14 4 -4.9208979264548739e-17
15 4 -7.7398832278273509e-32
16 4 -1.0223992294121141e-32
17 4 6.804199340570104e-16
18 4 -4.6991504438962233e-32
19 4 3.4140603034882412e-16
20 4 1.2600352644325742e-17
21 4 1.9818589930961285e-32
22 4 -1.3909383708028372e-31
23 4 4.119298401175174e-15
24 4 -1.6977987375597235e-31
25 4 3.2720079452376949e-32
26 4 -9.5040596244571352e-48
27 4 -2.7603036103334381e-32
28 4 2.06689023142235e-15
29 4 7.6283203804057674e-17
30 4 1.1998279552067761e-31
31 4 -8.5456171539617284e-32
32 4 1.5101263412315266e-32
33 4 -6.8390803834415088e-48
34 4 9.0460971409858144e-34
35 4 8.8313898244410372e-49
36 4 -2.7348457102011006e-64
1 5 8.8564726050269377e-15
2 5 1.4287878024285299
3 5 38.712946026954761
4 5 -3.6557851552042247e-16
5 5 77.154642395259245
6 5 -2.4053378958844465e-15
7 5 -6.0007808573684e-16
8 5 -1.9850599716855845e-30
9 5 -6.9592005866160199e-17
10 5 -1.3207148919734273e-15
11 5 1.0769543267944313e-32
12 5 -2.5810051571922616e-15
13 5 8.0612228245124919e-32
14 5 2.1306986408719642e-32
15 5 6.8244637631678596e-47
16 5 4.8282103839559116e-16
17 5 -5.257399221091819e-32
18 5 2.7473101654810458e-15
19 5 -8.1639099516263447e-32
20 5 1.2039408259410955e-32
21 5 -2.0837386823410304e-47
22 5 6.5906233118197508e-49
23 5 -1.1787248943077377e-31
24 5 3.6368732159059997e-48
25 5 6.0129349928524576e-49
26 5 2.5619477280148932e-63
27 5 5.8255676664063119e-15
28 5 -2.4885125171389851e-31
29 5 2.5031883869349369e-33
30 5 -1.1262195894335893e-46
31 5 5.309618330221152e-48
32 5 -1.4019280528288137e-49
33 5 3.3054433443804957e-63
34 5 -3.7992798136309314e-49
35 5 -8.3705598396558337e-64
36 5 2.4157315771416296e-79
1 6 -2.5892370062912134e-31
2 6 9.0040676457720306e-16
3 6 -7.9309764713845631e-16
4 6 38.712946026928812
5 6 -2.4053378958844465e-15
6 6 39.744094567120733
7 6 38.839335630572393
8 6 -1.4486775665892841e-15
9 6 -4.3856136464688211e-32
10 6 3.5255738006700809e-32
11 6 -1.3333152446168051e-15
12 6 1.3091526611080115e-31
13 6 -1.3688291025859864e-15
14 6 -1.3376682376745237e-15
15 6 4.9894004003835893e-32
16 6 -9.8913740451028571e-33
17 6 3.4140603034882412e-16
18 6 -6.3556068308635814e-32
19 6 3.504996376713106e-16
20 6 3.4252064903031894e-16
21 6 -1.2775758706676722e-32
22 6 -6.9791422012610975e-32
23 6 2.06689023142235e-15
24 6 -1.1109110033897047e-31
25 6 -3.2179661510402395e-32
26 6 -1.4845929384970155e-48
27 6 -1.8161523711616358e-31
28 6 2.1219434128908614e-15
29 6 2.0736381920901468e-15
30 6 -7.7345121417039131e-32
31 6 -8.7732361173615059e-32
32 6 -4.2830838972894976e-32
33 6 -1.158825683214246e-48
34 6 2.4590383708959887e-32
35 6 -3.9907555476153477e-48
36 6 1.7629775385248344e-64
1 7 7.4263960806292318e-32
2 7 6.2130316346026547e-16
3 7 1.1586493634821252e-15
4 7 1.4287878024347038
5 7 -6.0007808573684e-16
6 7 38.839335630572393
7 7 77.028252791657792
8 7 -4.58775660958945e-15
9 7 -3.0261829869137725e-32
10 7 -3.442590527440351e-32
11 7 -4.9208979264549275e-17
12 7 5.3838803627381165e-32
13 7 -1.3376682376745239e-15
14 7 -2.6529353679397218e-15
15 7 1.5800724186431521e-31
16 7 1.445047061061499e-32
17 7 1.2600352644325881e-17
18 7 5.6568435074687673e-32
19 7 3.4252064903031899e-16
20 7 6.7930531537618769e-16
21 7 -4.0459017797224755e-32
22 7 -2.5758084237977932e-33
23 7 7.6283203804058512e-17
24 7 -5.1741285227695351e-32
25 7 -9.7553422456219111e-32
26 7 5.7253711451865667e-48
27 7 -4.5308945581317127e-32
28 7 2.0736381920901468e-15
29 7 4.1125504405114462e-15
30 7 -2.4494104152930604e-31
31 7 -8.5735167915720447e-32
32 7 -1.0284457868026827e-31
33 7 3.8187865871318475e-48
34 7 4.8768967383212688e-32
35 7 -8.6823191951867555e-48
36 7 5.5831000917391277e-64
1 8 -1.4274458402748636e-47
2 8 -2.9882339420059806e-30
3 8 -2.3393971165848475e-30
4 8 2.247283100252308e-15
5 8 -1.9850599716855845e-30
6 8 -1.4486775665892841e-15
7 8 -4.58775660958945e-15
8 8 117.29637622473969
9 8 1.4554799086895392e-46
10 8 5.4218367917575811e-47
11 8 -7.7398832278273771e-32
12 8 -9.117468920486385e-47
13 8 4.989400400383574e-32
14 8 1.5800724186431521e-31
15 8 -4.0398125848813703e-15
16 8 -2.917654844099689e-47
17 8 1.9818589930961353e-32
18 8 -1.4240684469710686e-46
19 8 -1.2775758706676684e-32
20 8 -4.045901779722476e-32
21 8 1.0344263170514919e-15
22 8 -4.0513858883903871e-48
23 8 1.1998279552067802e-31
24 8 -1.6610346062179059e-48
25 8 6.8544097014432481e-48
26 8 -1.495255547981921e-31
27 8 -1.4988211762859891e-46
28 8 -7.7345121417038912e-32
29 8 -2.4494104152930604e-31
30 8 6.2624718364096438e-15
31 8 3.1978563075497883e-48
32 8 6.5124218653946704e-48
33 8 -1.8308670452483181e-31
34 8 -2.9046504931541455e-48
35 8 5.2512550283919801e-32
36 8 -1.4274458402753673e-47
1 9 1.3913546391092266e-31
2 9 -3.7518171774377727e-15
3 9 -1.8917485636738083e-15
4 9 -5.8196908277175794e-32
5 9 -6.9592005866160199e-17
6 9 -4.3856136464688211e-32
7 9 -3.0261829869137725e-32
8 9 1.4554799086895392e-46
9 9 50.584271391107109
10 9 36.070506618140286
11 9 1.1096569625989333e-15
12 9 1.326930521511861
13 9 8.3621739747669782e-16
14 9 5.7701089644383231e-16
15 9 -2.7752048389031406e-30
16 9 12.860533639551024
17 9 5.5951339468006107e-16
18 9 0.66906749168393753
19 9 4.2163916464499177e-16
20 9 2.9094155790320645e-16
21 9 -1.3993191884368399e-30
22 9 1.2171160528815151e-32
23 9 2.0582893621524729e-17
24 9 1.2971119028237141e-32
25 9 8.9503962019294459e-33
26 9 -4.3048030813249644e-47
27 9 0.017404072061657609
28 9 1.5510895994758009e-17
29 9 1.0702905763009751e-17
30 9 -5.1476940984805678e-32
31 9 6.9118276949172121e-33
32 9 6.744856537315217e-33
33 9 -3.2440216667358486e-47
34 9 3.2909594767834201e-33
35 9 -2.2384559991872543e-47
36 9 7.6128030376035598e-62
1 10 -5.0383830406428604e-32
2 10 -6.5836292229780635e-16
3 10 -1.026308453555994e-15
4 10 3.8770811812279768e-32
5 10 -1.3207148919734273e-15
6 10 3.5255738006700809e-32
7 10 -3.442590527440351e-32
8 10 5.4218367917575811e-47
9 10 36.070506618140286
10 10 38.960386523773934
11 10 -1.4270348058021148e-16
12 10 25.895802237269528
13 10 -2.2268143619530318e-16
14 10 9.6660904462826204e-16
15 10 -2.5257446395880489e-30
16 10 18.611218275665401
17 10 1.3340957716899713e-16
18 10 13.302806376106531
19 10 4.2477577353488359e-17
20 10 5.9417268830439876e-16
21 10 -1.7871420150370167e-30
22 10 -1.1809438404500522e-32
23 10 3.8436266263367476e-16
24 10 -1.4371676376495933e-32
25 10 7.4603496672379222e-33
26 10 -2.9458677446014034e-48
27 10 0.6668902357222235
28 10 2.8751297628069829e-16
29 10 2.1917079400833506e-16
30 10 -1.0147444039618762e-30
31 10 -8.6098545197142588e-33
32 10 4.6932536645674969e-33
33 10 2.246892258599627e-48
34 10 8.679325879352005e-33
35 10 -4.1909139414417184e-47
36 10 8.4284739207441973e-62
1 11 7.2829452133942987e-48
2 11 -1.3934450660621982e-31
3 11 -2.1277445597733608e-32
4 11 -2.6572883609948157e-15
5 11 1.0769543267944313e-32
6 11 -1.3333152446168051e-15
7 11 -4.9208979264549275e-17
8 11 -7.7398832278273771e-32
9 11 1.1096569625989333e-15
10 11 -1.4270348058021148e-16
11 11 50.66727114480824
12 11 -2.2552024267607481e-16
13 11 25.422700076811303
14 11 0.93828156992849332
15 11 1.475785495778594e-15
16 11 -3.8387757702018544e-16
17 11 25.547550127970062
18 11 -1.3103644432618569e-16
19 11 12.818683342097756
20 11 0.4731021604432305
21 11 7.4412343669592347e-16
22 11 1.1114777114613251e-15
23 11 0.93982112237949844
24 11 9.8661345343923992e-16
25 11 4.2323209011881818e-16
26 11 -1.9426941719044047e-30
27 11 -6.2976540772857569e-18
28 11 0.47156260798596328
29 11 0.017404072061732816
30 11 2.7374167775828932e-17
31 11 4.2026708126549087e-16
32 11 2.1602513949391358e-16
33 11 -9.6899728761069318e-31
34 11 1.0702905763056001e-17
35 11 -2.4496137052880658e-32
36 11 -8.0966018418697876e-47
1 12 -3.0502638392850606e-31
2 12 4.0633414612450947e-15
3 12 7.4032294747111096e-16
4 12 7.6383394475961077e-32
5 12 -2.5810051571922616e-15
6 12 1.3091526611080115e-31
7 12 5.3838803627381165e-32
8 12 -9.117468920486385e-47
9 12 1.326930521511861
10 12 25.895802237269528
11 12 -2.2552024267607481e-16
12 12 50.684675216892281
13 12 -1.5686118464367338e-15
14 12 -3.8650176211945887e-16
15 12 -1.339983881607111e-30
16 12 18.128355834172869
17 12 2.7329739639147777e-16
18 12 26.019112735967628
19 12 -4.9928505252420696e-16
20 12 6.3586078356043781e-18
21 12 -1.6435439525616293e-30
22 12 -5.266466918657913e-33
23 12 7.8148031300873913e-16
24 12 -2.7308206262993559e-32
25 12 -8.0490975729748198e-33
26 12 -1.0907301604080033e-47
27 12 1.3291077774743782
28 12 5.6296576765536885e-16
29 12 4.0136823200750829e-16
30 12 -1.9897660795196711e-30
31 12 -2.6112307140289968e-32
32 12 -1.7347154934226833e-32
33 12 4.6040219568070043e-47
34 12 -4.4951246022482417e-33
35 12 4.7729493579452189e-48
36 12 7.1518538190257476e-62
1 13 8.9176090344884788e-48
2 13 -1.512435772436176e-31
3 13 -3.3308787844635174e-32
4 13 -1.3333152446168051e-15
5 13 8.0612228245124919e-32
6 13 -1.3688291025859864e-15
7 13 -1.3376682376745239e-15
8 13 4.989400400383574e-32
9 13 8.3621739747669782e-16
10 13 -2.2268143619530318e-16
11 13 25.422700076811303
12 13 -1.5686118464367338e-15
13 13 26.099852884220905
14 13 25.505699830537683
15 13 -9.5134313099771994e-16
16 13 -3.7138884621595204e-16
17 13 12.818683342097756
18 13 -8.0611948238851844e-16
19 13 13.160118648864994
20 13 12.860533639559316
21 13 -4.7968808620225741e-16
22 13 5.5769264581747616e-16
23 13 0.47156260798596328
24 13 7.0202571809770608e-16
25 13 6.0069299529692503e-16
26 13 -1.0010051049831486e-30
27 13 -4.1435657086419734e-17
28 13 0.48412303400014522
29 13 0.47310216044149123
30 13 -1.7646349388042091e-17
31 13 4.3146121220597571e-16
32 13 5.0866304771819608e-16
33 13 -1.0236382002836949e-30
34 13 2.9094155790339405e-16
35 13 -9.9714153784372389e-31
36 13 5.2193537399027987e-47
1 14 -2.5577301970193077e-48
2 14 1.3086522436537666e-32
3 14 -2.2517095581271456e-32
4 14 -4.9208979264548739e-17
5 14 2.1306986408719642e-32
6 14 -1.3376682376745237e-15
7 14 -2.6529353679397218e-15
8 14 1.5800724186431521e-31
9 14 5.7701089644383231e-16
10 14 9.6660904462826204e-16
11 14 0.93828156992849332
12 14 -3.8650176211945887e-16
13 14 25.505699830537683
14 14 50.584271391131914
15 14 -3.0127689127526221e-15
16 14 5.4256805807590082e-16
17 14 0.47310216044323566
18 14 -1.8458515766371925e-16
19 14 12.860533639559318
20 14 25.505699830533739
21 14 -1.5191042083967335e-15
22 14 2.0582893621613895e-17
23 14 0.017404072061733007
24 14 4.0660357528345166e-16
25 14 7.9221406028841521e-16
26 14 -8.3132737736772524e-32
27 14 -1.0337271045456911e-17
28 14 0.47310216044149128
29 14 0.93828156992489886
30 14 -5.5883488436089722e-17
31 14 4.2163916464526368e-16
32 14 7.9702174082469803e-16
33 14 -1.0246852628467094e-30
34 14 5.7701089644411512e-16
35 14 -1.98666689184643e-30
36 14 1.6528953833667795e-46
1 15 4.9162760653230204e-64
2 15 9.6289550197017548e-47
3 15 7.7229142056071078e-47
4 15 -7.7398832278273509e-32
5 15 6.8244637631678596e-47
6 15 4.9894004003835893e-32
7 15 1.5800724186431521e-31
8 15 -4.0398125848813703e-15
9 15 -2.7752048389031406e-30
10 15 -2.5257446395880489e-30
11 15 1.475785495778594e-15
12 15 -1.339983881607111e-30
13 15 -9.5134313099771994e-16
14 15 -3.0127689127526221e-15
15 15 77.028252791647205
16 15 -1.0954842686826116e-30
17 15 7.4412343669592603e-16
18 15 -6.8579196682822338e-31
19 15 -4.7968808620225603e-16
20 15 -1.5191042083967337e-15
21 15 38.839335630561052
22 15 3.2374008870542189e-32
23 15 2.7374167775829024e-17
24 15 2.4939971001114528e-33
25 15 -3.4829486699146558e-32
26 15 1.1948359822452352e-15
27 15 -3.4195721284512893e-32
28 15 -1.7646349388042039e-17
29 15 -5.5883488436089722e-17
30 15 1.4287878024290339
31 15 -1.572681893498278e-32
32 15 -4.2890626312865749e-32
33 15 9.0040676457752077e-16
34 15 -3.4366423462323182e-32
35 15 6.2130316346048468e-16
36 15 -4.2260009683299659e-30
1 16 9.1225137541100842e-33
2 16 4.8439734725119961e-16
3 16 4.9568134120166152e-16
4 16 -1.0223992294121141e-32
5 16 4.8282103839559116e-16
6 16 -9.8913740451028571e-33
7 16 1.445047061061499e-32
8 16 -2.917654844099689e-47
9 16 12.860533639551024
10 16 18.611218275665401
11 16 -3.8387757702018544e-16
12 16 18.128355834172869
13 16 -3.7138884621595204e-16
14 16 5.4256805807590082e-16
15 16 -1.0954842686826116e-30
16 16 13.466682465840325
17 16 -3.9281997169140761e-16
18 16 18.550654302001899
19 16 -3.800403169924782e-16
20 16 5.5520713366081644e-16
21 16 -1.121003479162995e-30
22 16 5.7292332600294932e-33
23 16 -3.8262837607480323e-16
24 16 7.8387644428311605e-33
25 16 -1.145177956956802e-32
26 16 2.3121973695561432e-47
27 16 12.776969232431583
28 16 -3.7018028566027237e-16
29 16 5.4080245213365051e-16
30 16 -1.0919193822031516e-30
31 16 5.3625175657342492e-33
32 16 -1.1079217584093655e-32
33 16 2.236974402018449e-47
34 16 1.1445096521458476e-32
35 16 -3.2680326015038653e-47
36 16 4.6657697750595904e-62
1 17 -1.8648563605582421e-48
2 17 -3.8973952740335798e-32
3 17 -5.7893916231042173e-32
4 17 6.804199340570104e-16
5 17 -5.257399221091819e-32
6 17 3.4140603034882412e-16
7 17 1.2600352644325881e-17
8 17 1.9818589930961353e-32
9 17 5.5951339468006107e-16
10 17 1.3340957716899713e-16
11 17 25.547550127970062
12 17 2.7329739639147777e-16
13 17 12.818683342097756
14 17 0.47310216044323566
15 17 7.4412343669592603e-16
16 17 -3.9281997169140761e-16
17 17 26.142678080700232
18 17 -3.9442984379571726e-16
19 17 13.11729345238415
20 17 0.48412303400227458
21 17 7.6145772724421438e-16
22 17 -7.6257579325994691e-16
23 17 25.464414186507248
24 17 -7.9223904949079818e-16
25 17 7.5214517899867852e-16
26 17 -1.5545032408067277e-30
27 17 -1.7063467505531872e-16
28 17 12.776969232423019
29 17 0.47156260798831706
30 17 7.4170193631078346e-16
31 17 -3.7018028566002422e-16
32 17 3.7274435439391217e-16
33 17 -7.8729856984710992e-31
34 17 1.9959523271551936e-17
35 17 -6.2976279006872714e-33
36 17 -6.3385823769509399e-47
1 18 7.8104444773386557e-32
2 18 2.086238544733081e-15
3 18 2.4633494432400779e-15
4 18 -4.6991504438962233e-32
5 18 2.7473101654810458e-15
6 18 -6.3556068308635814e-32
7 18 5.6568435074687673e-32
8 18 -1.4240684469710686e-46
9 18 0.66906749168393753
10 18 13.302806376106531
11 18 -1.3103644432618569e-16
12 18 26.019112735967628
13 18 -8.0611948238851844e-16
14 18 -1.8458515766371925e-16
15 18 -6.8579196682822338e-31
16 18 18.550654302001899
17 18 -3.9442984379571726e-16
18 18 38.919647313143358
19 18 -1.0767691830855637e-15
20 18 1.7907774103784841e-16
21 18 -1.4447110047192106e-30
22 18 3.6132800026126027e-33
23 18 -6.5987945042023635e-16
24 18 1.9282408380031669e-32
25 18 5.8268664242637471e-34
26 18 2.1164510836045445e-47
27 18 36.012119900460306
28 18 -1.3155468775469578e-15
29 18 5.6407869437097871e-16
30 18 -2.1939541167206536e-30
31 18 2.3000281838225789e-32
32 18 -1.9702422005956206e-32
33 18 6.1394794646366523e-47
34 18 -8.3828210855405604e-33
35 18 -7.6401979159162634e-48
36 18 5.5989679948664733e-62
1 19 -2.283425103672702e-48
2 19 -5.2683311387332219e-32
3 19 -6.9030405177920225e-32
4 19 3.4140603034882412e-16
5 19 -8.1639099516263447e-32
6 19 3.504996376713106e-16
7 19 3.4252064903031899e-16
8 19 -1.2775758706676684e-32
9 19 4.2163916464499177e-16
10 19 4.2477577353488359e-17
11 19 12.818683342097756
12 19 -4.9928505252420696e-16
13 19 13.160118648864994
14 19 12.860533639559318
15 19 -4.7968808620225603e-16
16 19 -3.800403169924782e-16
17 19 13.11729345238415
18 19 -1.0767691830855637e-15
19 19 13.466682465839286
20 19 13.160118648874494
21 19 -4.9086237832737085e-16
22 19 -3.8262837607454675e-16
23 19 12.776969232423019
24 19 -5.3952265602025694e-16
25 19 1.1096264332915247e-16
26 19 -7.6197900396881016e-31
27 19 -1.1226974038072474e-15
28 19 13.11729345239193
29 19 12.818683342114614
30 19 -4.7812710205876177e-16
31 19 -3.8004031699244887e-16
32 19 1.2997915755816094e-16
33 19 -7.8287395072296666e-31
34 19 5.4256805807624713e-16
35 19 -7.889343396949317e-31
36 19 4.0860726859184135e-47
1 20 6.5492727004605921e-49
2 20 2.2867244452015202e-32
3 20 2.8011105406582337e-32
4 20 1.2600352644325742e-17
5 20 1.2039408259410955e-32
6 20 3.4252064903031894e-16
7 20 6.7930531537618769e-16
8 20 -4.045901779722476e-32
9 20 2.9094155790320645e-16
10 20 5.9417268830439876e-16
11 20 0.4731021604432305
12 20 6.3586078356043781e-18
13 20 12.860533639559316
14 20 25.505699830533739
15 20 -1.5191042083967337e-15
16 20 5.5520713366081644e-16
17 20 0.48412303400227458
18 20 1.7907774103784841e-16
19 20 13.160118648874494
20 20 26.099852884235712
21 20 -1.5544916084205832e-15
22 20 -1.4121755451533835e-17
23 20 0.47156260798832222
24 20 -2.8110316464845794e-16
25 20 -5.2422568186888646e-16
26 20 3.5669510345331139e-33
27 20 -2.8008792864032976e-16
28 20 12.818683342114616
29 20 25.422700076840805
30 20 -1.5141607927693023e-15
31 20 -3.7138884621619304e-16
32 20 -1.3717179560893247e-16
33 20 -7.4360430918325979e-31
34 20 1.0760500625231097e-15
35 20 -1.5815942463196423e-30
36 20 1.2940013295173631e-46
1 21 -1.2588517999306718e-64
2 21 -2.9695164964368792e-47
3 21 -2.4050986817789917e-47
4 21 1.9818589930961285e-32
5 21 -2.0837386823410304e-47
6 21 -1.2775758706676722e-32
7 21 -4.0459017797224755e-32
8 21 1.0344263170514919e-15
9 21 -1.3993191884368399e-30
10 21 -1.7871420150370167e-30
11 21 7.4412343669592347e-16
12 21 -1.6435439525616293e-30
13 21 -4.7968808620225741e-16
14 21 -1.5191042083967335e-15
15 21 38.839335630561052
16 21 -1.121003479162995e-30
17 21 7.6145772724421438e-16
18 21 -1.4447110047192106e-30
19 21 -4.9086237832737085e-16
20 21 -1.5544916084205832e-15
21 21 39.744094567137822
22 21 -2.2211543462261589e-32
23 21 7.4170193631078602e-16
24 21 -5.0703744872070946e-33
25 21 5.4261741362569583e-32
26 21 -8.1976722302262066e-16
27 21 -9.2653164465011959e-31
28 21 -4.7812710205876039e-16
29 21 -1.5141607927693025e-15
30 21 38.712946026968424
31 21 1.3852520421883067e-32
32 21 1.6710061260134578e-32
33 21 -7.9309764713873606e-16
34 21 -6.4088897355702061e-32
35 21 1.1586493634825341e-15
36 21 -3.3084071300519716e-30
1 22 1.9061024950210042e-64
2 22 -2.1540417568503973e-48
3 22 1.4778704822479906e-48
4 22 -1.3909383708028372e-31
5 22 6.5906233118197508e-49
6 22 -6.9791422012610975e-32
7 22 -2.5758084237977932e-33
8 22 -4.0513858883903871e-48
9 22 1.2171160528815151e-32
10 22 -1.1809438404500522e-32
11 22 1.1114777114613251e-15
12 22 -5.266466918657913e-33
13 22 5.5769264581747616e-16
14 22 2.0582893621613895e-17
15 22 3.2374008870542189e-32
16 22 5.7292332600294932e-33
17 22 -7.6257579325994691e-16
18 22 3.6132800026126027e-33
19 22 -3.8262837607454675e-16
20 22 -1.4121755451533835e-17
21 22 -2.2211543462261589e-32
22 22 50.75040708627931
23 22 -3.4007376562820404e-16
24 22 36.012119900420259
25 22 1.3291077774795343
26 22 2.0905003819698865e-15
27 22 1.1394013635615957e-33
28 22 -1.7063467505520433e-16
29 22 -6.2976540773129695e-18
30 22 -9.9053278275919907e-33
31 22 12.776969232414455
32 22 0.66689023572465822
33 22 1.0489249375683927e-15
34 22 0.017404072061808024
35 22 3.8712919327421108e-17
36 22 4.3055731943910451e-32
1 23 -1.1289939403546748e-47
2 23 6.1971108001022876e-32
3 23 -9.3117487775648711e-32
4 23 4.119298401175174e-15
5 23 -1.1787248943077377e-31
6 23 2.06689023142235e-15
7 23 7.6283203804058512e-17
8 23 1.1998279552067802e-31
9 23 2.0582893621524729e-17
10 23 3.8436266263367476e-16
11 23 0.93982112237949844
12 23 7.8148031300873913e-16
13 23 0.47156260798596328
14 23 0.017404072061733007
15 23 2.7374167775829024e-17
16 23 -3.8262837607480323e-16
17 23 25.464414186507248
18 23 -6.5987945042023635e-16
19 23 12.776969232423019
20 23 0.47156260798832222
21 23 7.4170193631078602e-16
22 23 -3.4007376562820404e-16
23 23 50.750407086301728
24 23 -1.7028284501583368e-15
25 23 -3.9916957151473537e-16
26 23 -1.3127272608369548e-30
27 23 -3.4007376562835427e-16
28 23 25.464414186501429
29 23 0.93982112238397464
30 23 1.4782069961646273e-15
31 23 -1.1226974038064968e-15
32 23 -2.2735150777879578e-16
33 23 -7.0124071515246208e-31
34 23 -1.0337271045501742e-17
35 23 -3.5676931805404022e-32
36 23 -5.3785080200857062e-47
1 24 3.3006740048917787e-64
2 24 -3.0128160377287216e-48
3 24 2.2905809513301254e-48
4 24 -1.6977987375597235e-31
5 24 3.6368732159059997e-48
6 24 -1.1109110033897047e-31
7 24 -5.1741285227695351e-32
8 24 -1.6610346062179059e-48
9 24 1.2971119028237141e-32
10 24 -1.4371676376495933e-32
11 24 9.8661345343923992e-16
12 24 -2.7308206262993559e-32
13 24 7.0202571809770608e-16
14 24 4.0660357528345166e-16
15 24 2.4939971001114528e-33
16 24 7.8387644428311605e-33
17 24 -7.9223904949079818e-16
18 24 1.9282408380031669e-32
19 24 -5.3952265602025694e-16
20 24 -2.8110316464845794e-16
21 24 -5.0703744872070946e-33
22 24 36.012119900420259
23 24 -1.7028284501583368e-15
24 24 38.919647313112669
25 24 26.019112735974538
26 24 -2.1120217883108402e-16
27 24 1.0601984410504741e-32
28 24 -9.1773767185092133e-16
29 24 -1.503502893931237e-16
30 24 -4.1568801752726222e-32
31 24 18.550654301988033
32 24 13.30280637610826
33 24 2.8333062518571432e-16
34 24 0.66906749168725999
35 24 7.2647708730828496e-16
36 24 -3.9251831287507556e-32
1 25 -9.466924979754519e-65
2 25 -2.570992948501429e-49
3 25 -1.8440105600426056e-48
4 25 3.2720079452376949e-32
5 25 6.0129349928524576e-49
6 25 -3.2179661510402395e-32
7 25 -9.7553422456219111e-32
8 25 6.8544097014432481e-48
9 25 8.9503962019294459e-33
10 25 7.4603496672379222e-33
11 25 4.2323209011881818e-16
12 25 -8.0490975729748198e-33
13 25 6.0069299529692503e-16
14 25 7.9221406028841521e-16
15 25 -3.4829486699146558e-32
16 25 -1.145177956956802e-32
17 25 7.5214517899867852e-16
18 25 5.8268664242637471e-34
19 25 1.1096264332915247e-16
20 25 -5.2422568186888646e-16
21 25 5.4261741362569583e-32
22 25 1.3291077774795343
23 25 -3.9916957151473537e-16
24 25 26.019112735974538
25 25 50.684675216894888
26 25 -2.9903381606045963e-15
27 25 2.6449583324458839e-33
28 25 -3.1910292895420751e-16
29 25 -2.4738410078765147e-16
30 25 2.8017908189066881e-33
31 25 18.128355834172414
32 25 25.895802237267301
33 25 -7.7003735607188405e-16
34 25 1.3269305215182454
35 25 1.4199020073429864e-15
36 25 -1.243049886191872e-31
1 26 1.8196609143690863e-80
2 26 3.7064843416005123e-63
3 26 3.05272880648868e-63
4 26 -9.5040596244571352e-48
5 26 2.5619477280148932e-63
6 26 -1.4845929384970155e-48
7 26 5.7253711451865667e-48
8 26 -1.495255547981921e-31
9 26 -4.3048030813249644e-47
10 26 -2.9458677446014034e-48
11 26 -1.9426941719044047e-30
12 26 -1.0907301604080033e-47
13 26 -1.0010051049831486e-30
14 26 -8.3132737736772524e-32
15 26 1.1948359822452352e-15
16 26 2.3121973695561432e-47
17 26 -1.5545032408067277e-30
18 26 2.1164510836045445e-47
19 26 -7.6197900396881016e-31
20 26 3.5669510345331139e-33
21 26 -8.1976722302262066e-16
22 26 2.0905003819698865e-15
23 26 -1.3127272608369548e-30
24 26 -2.1120217883108402e-16
25 26 -2.9903381606045963e-15
26 26 77.154642395252381
27 26 8.749529498427859e-48
28 26 -6.5064170443144107e-31
29 26 -9.8813301915871416e-33
30 26 -3.6557851552055145e-16
31 26 -6.7617383226919074e-16
32 26 -1.531807142156406e-15
33 26 38.712946026942475
34 26 -7.903118725937962e-17
35 26 1.4287878024352079
36 26 3.1781382388697914e-15
1 27 3.3435434891016415e-31
2 27 1.0788074140050308e-16
3 27 2.9230241972159118e-15
4 27 -2.7603036103334381e-32
5 27 5.8255676664063119e-15
6 27 -1.8161523711616358e-31
7 27 -4.5308945581317127e-32
8 27 -1.4988211762859891e-46
9 27 0.017404072061657609
10 27 0.6668902357222235
11 27 -6.2976540772857569e-18
12 27 1.3291077774743782
13 27 -4.1435657086419734e-17
14 27 -1.0337271045456911e-17
15 27 -3.4195721284512893e-32
16 27 12.776969232431583
17 27 -1.7063467505531872e-16
18 27 36.012119900460306
19 27 -1.1226974038072474e-15
20 27 -2.8008792864032976e-16
21 27 -9.2653164465011959e-31
22 27 1.1394013635615957e-33
23 27 -3.4007376562835427e-16
24 27 1.0601984410504741e-32
25 27 2.6449583324458839e-33
26 27 8.749529498427859e-48
27 27 50.750407086324145
28 27 -2.2375284135544615e-15
29 27 -5.5821336764572947e-16
30 27 -1.8465713681457288e-30
31 27 4.9325056575864591e-32
32 27 1.740260502182632e-32
33 27 5.7567865671121219e-47
34 27 3.0699474320915789e-33
35 27 1.4361896800856597e-47
36 27 3.3594073560068359e-62
1 28 -1.3823976794269092e-47
2 28 4.5842677560717825e-32
3 28 -1.0277024557226203e-31
4 28 2.06689023142235e-15
5 28 -2.4885125171389851e-31
6 28 2.1219434128908614e-15
7 28 2.0736381920901468e-15
8 28 -7.7345121417038912e-32
9 28 1.5510895994758009e-17
10 28 2.8751297628069829e-16
11 28 0.47156260798596328
12 28 5.6296576765536885e-16
13 28 0.48412303400014522
14 28 0.47310216044149128
15 28 -1.7646349388042039e-17
16 28 -3.7018028566027237e-16
17 28 12.776969232423019
18 28 -1.3155468775469578e-15
19 28 13.11729345239193
20 28 12.818683342114616
21 28 -4.7812710205876039e-16
22 28 -1.7063467505520433e-16
23 28 25.464414186501429
24 28 -9.1773767185092133e-16
25 28 -3.1910292895420751e-16
26 28 -6.5064170443144107e-31
27 28 -2.2375284135544615e-15
28 28 26.142678080709764
29 28 25.547550127997823
30 28 -9.5290411514179145e-16
31 28 -1.1526012966046413e-15
32 28 -9.9978609574537962e-16
33 28 -6.4290010153802447e-31
34 28 -2.8100235665245923e-16
35 28 -6.4988444895112617e-31
36 28 3.4671750566468072e-47
1 29 3.9649644599634977e-48
2 29 3.3811128544988619e-32
3 29 7.9191913944907663e-32
4 29 7.6283203804057674e-17
5 29 2.5031883869349369e-33
6 29 2.0736381920901468e-15
7 29 4.1125504405114462e-15
8 29 -2.4494104152930604e-31
9 29 1.0702905763009751e-17
10 29 2.1917079400833506e-16
11 29 0.017404072061732816
12 29 4.0136823200750829e-16
13 29 0.47310216044149123
14 29 0.93828156992489886
15 29 -5.5883488436089722e-17
16 29 5.4080245213365051e-16
17 29 0.47156260798831706
18 29 5.6407869437097871e-16
19 29 12.818683342114614
20 29 25.422700076840805
21 29 -1.5141607927693025e-15
22 29 -6.2976540773129695e-18
23 29 0.93982112238397464
24 29 -1.503502893931237e-16
25 29 -2.4738410078765147e-16
26 29 -9.8813301915871416e-33
27 29 -5.5821336764572947e-16
28 29 25.547550127997823
29 29 50.667271144855462
30 29 -3.0177123283818769e-15
31 29 -1.1263627740363957e-15
32 29 -1.7782783780960354e-15
33 29 -5.6321693630995424e-31
34 29 -5.5729893963372143e-16
35 29 -1.2801136227187873e-30
36 29 1.0980052186619349e-46
1 30 -7.6211556234865109e-64
2 30 -1.5966522641035308e-46
3 30 -1.2823209658942233e-46
4 30 1.1998279552067761e-31
5 30 -1.1262195894335893e-46
6 30 -7.7345121417039131e-32
7 30 -2.4494104152930604e-31
8 30 6.2624718364096438e-15
9 30 -5.1476940984805678e-32
10 30 -1.0147444039618762e-30
11 30 2.7374167775828932e-17
12 30 -1.9897660795196711e-30
13 30 -1.7646349388042091e-17
14 30 -5.5883488436089722e-17
15 30 1.4287878024290339
16 30 -1.0919193822031516e-30
17 30 7.4170193631078346e-16
18 30 -2.1939541167206536e-30
19 30 -4.7812710205876177e-16
20 30 -1.5141607927693023e-15
21 30 38.712946026968424
22 30 -9.9053278275919907e-33
23 30 1.4782069961646273e-15
24 30 -4.1568801752726222e-32
25 30 2.8017908189066881e-33
26 30 -3.6557851552055145e-16
27 30 -1.8465713681457288e-30
28 30 -9.5290411514179145e-16
29 30 -3.0177123283818769e-15
30 30 77.154642395286459
31 30 4.2012471534229195e-32
32 30 1.0149013016775114e-31
33 30 -2.4053378958852949e-15
34 30 3.3192391118754386e-32
35 30 -6.0007808573705171e-16
36 30 -2.8072987340826964e-30
1 31 2.8577814978538918e-64
2 31 -1.9875861391591827e-48
3 31 1.750708626886372e-48
4 31 -8.5456171539617284e-32
5 31 5.309618330221152e-48
6 31 -8.7732361173615059e-32
7 31 -8.5735167915720447e-32
8 31 3.1978563075497883e-48
9 31 6.9118276949172121e-33
10 31 -8.6098545197142588e-33
11 31 4.2026708126549087e-16
12 31 -2.6112307140289968e-32
13 31 4.3146121220597571e-16
14 31 4.2163916464526368e-16
15 31 -1.572681893498278e-32
16 31 5.3625175657342492e-33
17 31 -3.7018028566002422e-16
18 31 2.3000281838225789e-32
19 31 -3.8004031699244887e-16
20 31 -3.7138884621619304e-16
21 31 1.3852520421883067e-32
22 31 12.776969232414455
23 31 -1.1226974038064968e-15
24 31 18.550654301988033
25 31 18.128355834172414
26 31 -6.7617383226919074e-16
27 31 4.9325056575864591e-32
28 31 -1.1526012966046413e-15
29 31 -1.1263627740363957e-15
30 31 4.2012471534229195e-32
31 31 13.466682465838248
32 31 18.611218275675967
33 31 -6.9418423268922752e-16
34 31 12.86053363956761
35 31 -6.783813972164643e-16
36 31 1.7891999390813571e-32
1 32 -1.1591785088952714e-64
2 32 -5.6668155784422401e-49
3 32 -2.1635866503759059e-48
4 32 1.5101263412315266e-32
5 32 -1.4019280528288137e-49
6 32 -4.2830838972894976e-32
7 32 -1.0284457868026827e-31
8 32 6.5124218653946704e-48
9 32 6.744856537315217e-33
10 32 4.6932536645674969e-33
11 32 2.1602513949391358e-16
12 32 -1.7347154934226833e-32
13 32 5.0866304771819608e-16
14 32 7.9702174082469803e-16
15 32 -4.2890626312865749e-32
16 32 -1.1079217584093655e-32
17 32 3.7274435439391217e-16
18 32 -1.9702422005956206e-32
19 32 1.2997915755816094e-16
20 32 -1.3717179560893247e-16
21 32 1.6710061260134578e-32
22 32 0.66689023572465822
23 32 -2.2735150777879578e-16
24 32 13.30280637610826
25 32 25.895802237267301
26 32 -1.531807142156406e-15
27 32 1.740260502182632e-32
28 32 -9.9978609574537962e-16
29 32 -1.7782783780960354e-15
30 32 1.0149013016775114e-31
31 32 18.611218275675967
32 32 38.960386523801311
33 32 -2.0341796946230301e-15
34 32 36.070506618181227
35 32 -2.4704473393958992e-15
36 32 8.0131358798335186e-32
1 33 2.2280854975868398e-80
2 33 4.5868219181699926e-63
3 33 3.7197883379547893e-63
4 33 -6.8390803834415088e-48
5 33 3.3054433443804957e-63
6 33 -1.158825683214246e-48
7 33 3.8187865871318475e-48
8 33 -1.8308670452483181e-31
9 33 -3.2440216667358486e-47
10 33 2.246892258599627e-48
11 33 -9.6899728761069318e-31
12 33 4.6040219568070043e-47
13 33 -1.0236382002836949e-30
14 33 -1.0246852628467094e-30
15 33 9.0040676457752077e-16
16 33 2.236974402018449e-47
17 33 -7.8729856984710992e-31
18 33 6.1394794646366523e-47
19 33 -7.8287395072296666e-31
20 33 -7.4360430918325979e-31
21 33 -7.9309764713873606e-16
22 33 1.0489249375683927e-15
23 33 -7.0124071515246208e-31
24 33 2.8333062518571432e-16
25 33 -7.7003735607188405e-16
26 33 38.712946026942475
27 33 5.7567865671121219e-47
28 33 -6.4290010153802447e-31
29 33 -5.6321693630995424e-31
30 33 -2.4053378958852949e-15
31 33 -6.9418423268922752e-16
32 33 -2.0341796946230301e-15
33 33 39.744094567134752
34 33 -2.1483377741740904e-15
35 33 38.839335630586092
36 33 -2.0487394621769409e-15
1 34 2.3509404349033311e-65
2 34 3.9336623402621767e-49
3 34 7.3357671982783362e-49
4 34 9.0460971409858144e-34
5 34 -3.7992798136309314e-49
6 34 2.4590383708959887e-32
7 34 4.8768967383212688e-32
8 34 -2.9046504931541455e-48
9 34 3.2909594767834201e-33
10 34 8.679325879352005e-33
11 34 1.0702905763056001e-17
12 34 -4.4951246022482417e-33
13 34 2.9094155790339405e-16
14 34 5.7701089644411512e-16
15 34 -3.4366423462323182e-32
16 34 1.1445096521458476e-32
17 34 1.9959523271551936e-17
18 34 -8.3828210855405604e-33
19 34 5.4256805807624713e-16
20 34 1.0760500625231097e-15
21 34 -6.4088897355702061e-32
22 34 0.017404072061808024
23 34 -1.0337271045501742e-17
24 34 0.66906749168725999
25 34 1.3269305215182454
26 34 -7.903118725937962e-17
27 34 3.0699474320915789e-33
28 34 -2.8100235665245923e-16
29 34 -5.5729893963372143e-16
30 34 3.3192391118754386e-32
31 34 12.86053363956761
32 34 36.070506618181227
33 34 -2.1483377741740904e-15
34 34 50.584271391156712
35 34 -4.2606986567128918e-15
36 34 1.7943871231530248e-31
1 35 -6.390548785754813e-81
2 35 -1.3912701746433482e-63
3 35 -1.1470312831373786e-63
4 35 8.8313898244410372e-49
5 35 -8.3705598396558337e-64
6 35 -3.9907555476153477e-48
7 35 -8.6823191951867555e-48
8 35 5.2512550283919801e-32
9 35 -2.2384559991872543e-47
10 35 -4.1909139414417184e-47
11 35 -2.4496137052880658e-32
12 35 4.7729493579452189e-48
13 35 -9.9714153784372389e-31
14 35 -1.98666689184643e-30
15 35 6.2130316346048468e-16
16 35 -3.2680326015038653e-47
17 35 -6.2976279006872714e-33
18 35 -7.6401979159162634e-48
19 35 -7.889343396949317e-31
20 35 -1.5815942463196423e-30
21 35 1.1586493634825341e-15
22 35 3.8712919327421108e-17
23 35 -3.5676931805404022e-32
24 35 7.2647708730828496e-16
25 35 1.4199020073429864e-15
26 35 1.4287878024352079
27 35 1.4361896800856597e-47
28 35 -6.4988444895112617e-31
29 35 -1.2801136227187873e-30
30 35 -6.0007808573705171e-16
31 35 -6.783813972164643e-16
32 35 -2.4704473393958992e-15
33 35 38.839335630586092
34 35 -4.2606986567128918e-15
35 35 77.028252791684977
36 35 -6.4880676181504984e-15
1 36 8.6856972590187255e-97
2 36 3.6365506314958043e-79
3 36 2.8469444584131774e-79
4 36 -2.7348457102011006e-64
5 36 2.4157315771416296e-79
6 36 1.7629775385248344e-64
7 36 5.5831000917391277e-64
8 36 -1.4274458402753673e-47
9 36 7.6128030376035598e-62
10 36 8.4284739207441973e-62
11 36 -8.0966018418697876e-47
12 36 7.1518538190257476e-62
13 36 5.2193537399027987e-47
14 36 1.6528953833667795e-46
15 36 -4.2260009683299659e-30
16 36 4.6657697750595904e-62
17 36 -6.3385823769509399e-47
18 36 5.5989679948664733e-62
19 36 4.0860726859184135e-47
20 36 1.2940013295173631e-46
21 36 -3.3084071300519716e-30
22 36 4.3055731943910451e-32
23 36 -5.3785080200857062e-47
24 36 -3.9251831287507556e-32
25 36 -1.243049886191872e-31
26 36 3.1781382388697914e-15
27 36 3.3594073560068359e-62
28 36 3.4671750566468072e-47
29 36 1.0980052186619349e-46
30 36 -2.8072987340826964e-30
31 36 1.7891999390813571e-32
32 36 8.0131358798335186e-32
33 36 -2.0487394621769409e-15
34 36 1.7943871231530248e-31
35 36 -6.4880676181504984e-15
36 36 117.29637622478107
37 37 133.86430471065759
38 37 -3.98694352838539e-14
39 37 -1.2240468965437679e-14
40 37 2.5807045327855098e-30
41 37 1.2526496485061288e-14
42 37 -1.5536897399139246e-30
43 37 -2.537012820990926e-30
44 37 2.5515968046963277e-46
45 37 5.9372506856890823e-30
46 37 2.5778542378830761e-30
47 37 -5.4349879366140055e-46
48 37 -2.6380919016274033e-30
49 37 3.2720851559704539e-46
50 37 5.3429727820247006e-46
51 37 -5.3736867884131341e-62
52 37 5.5963044374978019e-31
53 37 -1.6686165904284469e-46
54 37 -8.099307607429276e-31
55 37 1.0045754728847548e-46
56 37 1.6403666632328023e-46
57 37 -1.6497962886921357e-62
58 37 2.4876070958515901e-62
59 37 1.7076077651874105e-46
60 37 -2.1179845998703802e-62
61 37 -3.4584472990277828e-62
62 37 3.4783281363013256e-78
63 37 5.8609019981311097e-31
64 37 -1.0280497557406866e-46
65 37 -1.6786977116005197e-46
66 37 1.6883476825702031e-62
67 37 9.0164133491354985e-63
68 37 2.0821268054009677e-62
69 37 -2.0940958830308898e-78
70 37 2.4040890018562131e-62
71 37 -3.4194395233169346e-78
72 37 2.4318081910848635e-94
37 38 -3.98694352838539e-14
38 38 85.649319906261852
39 38 44.27745220665237
40 38 1.3834089953250263e-14
41 38 3.9375325975716113
42 38 1.2040760706915355e-14
43 38 3.4954469109527868e-15
44 38 -9.9336710826614525e-31
45 38 -2.5509339659107627e-14
46 38 -1.4862735733098015e-14
47 38 -1.7459036788787283e-30
48 38 4.838020005748437e-15
49 38 -3.2387195892742385e-30
50 38 -1.883945918079104e-30
51 38 3.2464400850368188e-46
52 38 -4.0487027574653938e-15
53 38 -2.9088763033527847e-31
54 38 2.6751721522578198e-15
55 38 -1.1419094627872246e-30
56 38 -8.1937641202756145e-31
57 38 1.2390662606884143e-46
58 38 2.6670066173913901e-46
59 38 9.690542294809879e-31
60 38 5.0602845672913517e-47
61 38 -1.3774324592060274e-46
62 38 5.1043321195936112e-63
63 38 3.684588535403389e-16
64 38 7.6440107307771592e-31
65 38 1.7852014175679738e-31
66 38 -6.0422301884229806e-47
67 38 -1.3975052133329059e-46
68 38 -1.9004747908585978e-46
69 38 2.438135723142056e-62
70 38 -6.6246141175680934e-47
71 38 1.8023523682647555e-62
72 38 -1.8934639408465577e-78
37 39 -1.2240468965437679e-14
38 39 44.27745220665237
39 39 45.373840256401415
40 39 2.320022954413864e-14
41 39 44.213012247454614
42 39 1.5267498498976128e-14
43 39 7.5271339576654298e-15
44 39 1.0168327599060097e-31
45 39 -1.3187361777405195e-14
46 39 -1.2418638464356015e-14
47 39 -4.2824013577286454e-30
48 39 -6.3815390294886132e-15
49 39 -3.5787346122122844e-30
50 39 -2.1785913513972576e-30
51 39 3.8263493059053137e-47
52 39 -4.1489558003799866e-15
53 39 -8.8153198954025548e-31
54 39 1.4361024908099118e-16
55 39 -1.3595400145112603e-30
56 39 -1.0947477236932926e-30
57 39 5.458124449902243e-47
58 39 4.4726589120290983e-46
59 39 2.137829540099729e-30
60 39 1.7721704376850924e-47
61 39 -2.0830069987848884e-46
62 39 3.2655902910633786e-62
63 39 4.1372802384693945e-15
64 39 6.4736783596095546e-31
65 39 -9.4448816291377422e-32
66 39 6.6319440092333067e-47
67 39 -1.7720150135213087e-46
68 39 -2.663776185024628e-46
69 39 1.9743342496789833e-62
70 39 -1.4265517157342436e-46
71 39 8.7825549305069125e-63
72 39 1.9381919823317465e-79
37 40 2.5807045327855098e-30
38 40 1.3834089953250263e-14
39 40 2.320022954413864e-14
40 40 85.713759865488754
41 40 3.448230091761666e-14
42 40 44.213012247451303
43 40 3.9375325975904945
44 40 1.7996624589064451e-14
45 40 -4.1202720568295992e-30
46 40 -5.7804664506682906e-30
47 40 -1.8051398172362747e-14
48 40 -6.3466269774278815e-30
49 40 -9.3113018229521188e-15
50 40 -8.2924805594966593e-16
51 40 -3.7901060078257974e-30
52 40 -2.1214145947420106e-30
53 40 -5.5420293148984444e-15
54 40 -6.9441685539400582e-31
55 40 -2.858698654250203e-15
56 40 -2.545906412076035e-16
57 40 -1.1636150508331484e-30
58 40 1.652433702054826e-30
59 40 5.6715319428694513e-15
60 40 -1.0074266872049378e-31
61 40 -1.0949887820704445e-30
62 40 3.6085619576483545e-46
63 40 3.2267184458037857e-30
64 40 2.9254989122905859e-15
65 40 2.6053975392784404e-16
66 40 1.1908056697323324e-30
67 40 -5.1315624167730728e-31
68 40 -6.2482164906425715e-31
69 40 -8.8107092428943426e-47
70 40 -7.4624603659829067e-32
71 40 -2.3586882530014071e-46
72 40 3.4303491058631195e-62
37 41 1.2526496485061288e-14
38 41 3.9375325975716113
39 41 44.213012247454614
40 41 3.448230091761666e-14
41 41 85.713759865512458
42 41 1.7015045718551918e-14
43 41 7.1620449035668557e-15
44 41 -1.0720965716444037e-31
45 41 -1.1727338472899219e-15
46 41 -9.5658924641591998e-15
47 41 -7.2083285844527757e-30
48 41 -1.7790858418441147e-14
49 41 -3.6156999135760893e-30
50 41 -1.5611009334175738e-30
51 41 2.7885543984296125e-47
52 41 -4.042810407578656e-15
53 41 -1.6268258195790449e-30
54 41 -2.6165304026091719e-15
55 41 -1.4630049662260653e-30
56 41 -1.0555855534918945e-30
57 41 6.6523131017067194e-47
58 41 6.6476743349900066e-46
59 41 3.4500815701920559e-30
60 41 -5.1047767820319742e-47
61 41 -3.6447059402139396e-46
62 41 4.5014495857178871e-62
63 41 8.0207573930404272e-15
64 41 4.2240332887893405e-31
65 41 -6.7476491074887164e-31
66 41 1.0843293943269056e-46
67 41 -1.9748432574627371e-46
68 41 -2.8680051814225438e-46
69 41 2.3813108207810827e-62
70 41 -1.3573595877012723e-46
71 41 1.1089890931117034e-62
72 41 -2.0435307175179997e-79
37 42 -1.5536897399139246e-30
38 42 1.2040760706915355e-14
39 42 1.5267498498976128e-14
40 42 44.213012247451303
41 42 1.7015045718551918e-14
42 42 45.373840256409586
43 42 44.277452206668286
44 42 1.6582147396953696e-14
45 42 -3.5861563753978041e-30
46 42 -3.9938738407180569e-30
47 42 -9.3113018229521156e-15
48 42 -2.7866681685466089e-30
49 42 -9.5557732895452813e-15
50 42 -9.3248729387668446e-15
51 42 -3.4922157852887814e-30
52 42 -1.3960505899008424e-30
53 42 -2.8586986542502022e-15
54 42 -8.9924613668601631e-32
55 42 -2.9337547812924767e-15
56 42 -2.8628651748134825e-15
57 42 -1.0721586256765993e-30
58 42 8.5236106341100675e-31
59 42 2.9254989122905851e-15
60 42 2.5567839781181688e-31
61 42 1.1082418214179538e-32
62 42 2.8563850537086954e-46
63 42 1.5922012283175949e-30
64 42 3.0023089033319495e-15
65 42 2.9297627934652553e-15
66 42 1.0972121488064109e-30
67 42 -5.2662933720999113e-31
68 42 -9.7144788947404934e-31
69 42 -7.4933887442792378e-47
70 42 -8.3915173781966539e-31
71 42 -1.6254217235159291e-46
72 42 3.1607346263695988e-62
37 43 -2.537012820990926e-30
38 43 3.4954469109527868e-15
39 43 7.5271339576654298e-15
40 43 3.9375325975904945
41 43 7.1620449035668557e-15
42 43 44.277452206668286
43 43 85.649319906276276
44 43 1.4405259304840227e-14
45 43 -1.0410653886160668e-30
46 43 -1.8112279949117222e-30
47 43 -8.2924805594965992e-16
48 43 -1.277045665078832e-30
49 43 -9.3248729387668415e-15
50 43 -1.8037827056548968e-14
51 43 -3.033761112555476e-30
52 43 -6.8827645881649773e-31
53 43 -2.5459064120760168e-16
54 43 3.4978256393259597e-32
55 43 -2.8628651748134817e-15
56 43 -5.5378627943354556e-15
57 43 -9.314066899218305e-31
58 43 7.5909767317226506e-32
59 43 2.6053975392784217e-16
60 43 5.7127339532636438e-31
61 43 1.1148010695478959e-30
62 43 2.0167909744141372e-46
63 43 6.7019606537356987e-31
64 43 2.9297627934652545e-15
65 43 5.6672680616950797e-15
66 43 9.5317121103874265e-31
67 43 -5.1390416102513517e-31
68 43 -1.2962939820919616e-30
69 43 -5.8545898577021243e-47
70 43 -1.6232364795091087e-30
71 43 -7.7607436078094268e-47
72 43 2.7457964759742691e-62
37 44 2.5515968046963277e-46
38 44 -9.9336710826614525e-31
39 44 1.0168327599060097e-31
40 44 1.7996624589064451e-14
41 44 -1.0720965716444037e-31
42 44 1.6582147396953696e-14
43 44 1.4405259304840227e-14
44 44 133.86430471066552
45 44 2.9585919653507728e-46
46 44 4.28139465342787e-47
47 44 -3.7901060078257981e-30
48 44 -4.315093728214626e-47
49 44 -3.4922157852887821e-30
50 44 -3.0337611125554767e-30
51 44 -2.8191948051292958e-14
52 44 -9.2978556663524078e-48
53 44 -1.1636150508331486e-30
54 44 1.3660105594865361e-47
55 44 -1.0721586256765995e-30
56 44 -9.3140668992183068e-31
57 44 -8.655318610364979e-15
58 44 3.4694813342938239e-46
59 44 1.1908056697323326e-30
60 44 7.834894742740015e-47
61 44 -4.4803907240990275e-47
62 44 1.8248336753716023e-30
63 44 -1.0032259133962239e-47
64 44 1.0972121488064111e-30
65 44 9.5317121103874282e-31
66 44 8.8575706090968126e-15
67 44 -1.9245991179102314e-46
68 44 -3.4044424352227227e-46
69 44 -1.0986245509531641e-30
70 44 -2.7301025187666674e-46
71 44 -1.7939389696800022e-30
72 44 2.5515968046964786e-46
37 45 5.9372506856890823e-30
38 45 -2.5509339659107627e-14
39 45 -1.3187361777405195e-14
40 45 -4.1202720568295992e-30
41 45 -1.1727338472899219e-15
42 45 -3.5861563753978041e-30
43 45 -1.0410653886160668e-30
44 45 2.9585919653507728e-46
45 45 54.800314514601943
46 45 40.064225626567335
47 45 1.2517705369279909e-14
48 45 3.5628561838833934
49 45 1.0895020594813844e-14
50 45 3.1628372168410342e-15
51 45 -8.9884313509814249e-31
52 45 14.645373747426977
53 45 6.4711792439019306e-15
54 45 1.8418616116925079
55 45 5.6323127166795737e-15
56 45 1.6350669668014121e-15
57 45 -4.646678339023282e-31
58 45 1.4296719745395475e-30
59 45 5.7547302176895363e-16
60 45 1.7597652277669666e-30
61 45 5.1086190309117092e-31
62 45 -1.4518126703823669e-46
63 45 0.11581999391523
64 45 5.008737814934831e-16
65 45 1.4540424437578224e-16
66 45 -4.1322267923051757e-32
67 45 1.0830364279383377e-30
68 45 4.446382776306135e-31
69 45 -1.2636124974187252e-46
70 45 9.1272644591772969e-32
71 45 -3.6682818538257902e-47
72 45 7.3714812468140547e-63
37 46 2.5778542378830761e-30
38 46 -1.4862735733098015e-14
39 46 -1.2418638464356015e-14
40 46 -5.7804664506682906e-30
41 46 -9.5658924641591998e-15
42 46 -3.9938738407180569e-30
43 46 -1.8112279949117222e-30
44 46 4.28139465342787e-47
45 46 40.064225626567335
46 46 43.676552506603819
47 46 1.9419830734320148e-14
48 46 29.590848359090881
49 46 1.3751127112015628e-14
50 46 5.9721924346033056e-15
51 46 -2.6351058485747194e-31
52 46 21.224544170893598
53 46 1.2362913668666729e-14
54 46 15.958701734677854
55 46 9.1311981235312712e-15
56 46 3.6744983279095347e-15
57 46 -3.030726090912979e-31
58 46 3.3907290595467898e-30
59 46 5.2515750943568371e-15
60 46 3.6646091797691833e-30
61 46 1.3836864080809744e-30
62 46 -1.6165361926401173e-46
63 46 1.83918102640157
64 46 4.425933970311573e-15
65 46 1.3758901060918221e-15
66 46 -3.2510063832579782e-31
67 46 1.9421019426847232e-30
68 46 1.0757098359543478e-30
69 46 -1.041493986804515e-46
70 46 2.7796016878809544e-31
71 46 -5.320147753762851e-47
72 46 -1.0671108034428944e-63
37 47 -5.4349879366140055e-46
38 47 -1.7459036788787283e-30
39 47 -4.2824013577286454e-30
40 47 -1.8051398172362747e-14
41 47 -7.2083285844527757e-30
42 47 -9.3113018229521156e-15
43 47 -8.2924805594965992e-16
44 47 -3.7901060078257981e-30
45 47 1.2517705369279909e-14
46 47 1.9419830734320148e-14
47 47 54.841544614698293
48 47 2.2469453742989586e-14
49 47 28.288455523453802
50 47 2.519319768028454
51 47 1.1514635361434621e-14
52 47 1.0852383090404671e-14
53 47 28.351000022626465
54 47 1.2087913163004882e-14
55 47 14.624059348342676
56 47 1.3023928356412018
57 47 5.9526300670792479e-15
58 47 1.2527123312405472e-14
59 47 2.5212152280540012
60 47 1.2278894391740913e-14
61 47 2.6450671675423357e-15
62 47 1.2237892244695481e-30
63 47 1.4344011043491186e-15
64 47 1.3004973755980871
65 47 0.11581999391578544
66 47 5.2935916052748697e-16
67 47 5.6241156325299136e-15
68 47 1.5086555396942002e-15
69 47 1.2906599594257847e-30
70 47 1.4540424437647954e-16
71 47 4.4070621055557597e-31
72 47 -1.8886480925606549e-46
37 48 -2.6380919016274033e-30
38 48 4.838020005748437e-15
39 48 -6.3815390294886132e-15
40 48 -6.3466269774278815e-30
41 48 -1.7790858418441147e-14
42 48 -2.7866681685466089e-30
43 48 -1.277045665078832e-30
44 48 -4.315093728214626e-47
45 48 3.5628561838833934
46 48 29.590848359090881
47 48 2.2469453742989586e-14
48 48 54.957364608628687
49 48 1.1240770906012775e-14
50 48 4.6852498329314318e-15
51 48 -9.7814347312105818e-32
52 48 20.681543067376811
53 48 1.5974648537029623e-14
54 48 29.65149739823249
55 48 9.6048097137574502e-15
56 48 3.5234287364870217e-15
57 48 -3.6355264908546379e-31
58 48 5.0396113339722854e-30
59 48 9.8722885907911766e-15
60 48 4.8600021373363696e-30
61 48 1.6405525442089366e-30
62 48 -2.6696236661054936e-46
63 48 3.5655367691765307
64 48 8.2102258056645207e-15
65 48 2.4488132450888938e-15
66 48 -6.3920976903199604e-31
67 48 2.1643986634146474e-30
68 48 1.0885027055472511e-30
69 48 -1.3590682467070774e-46
70 48 2.6447824915298906e-31
71 48 -5.5946844951176355e-47
72 48 1.1251071749906851e-63
37 49 3.2720851559704539e-46
38 49 -3.2387195892742385e-30
39 49 -3.5787346122122844e-30
40 49 -9.3113018229521188e-15
41 49 -3.6156999135760893e-30
42 49 -9.5557732895452813e-15
43 49 -9.3248729387668415e-15
44 49 -3.4922157852887821e-30
45 49 1.0895020594813844e-14
46 49 1.3751127112015628e-14
47 49 28.288455523453802
48 49 1.1240770906012775e-14
49 49 29.031178759182069
50 49 28.329685623543799
51 49 1.0609621812165051e-14
52 49 7.1416854832338165e-15
53 49 14.624059348342671
54 49 6.0770430801900824e-15
55 49 15.008019110834972
56 49 14.64537374743224
57 49 5.4847723629144014e-15
58 49 6.4617613007801425e-15
59 49 1.3004973755980866
60 49 8.6659702953473779e-15
61 49 5.7302990179182452e-15
62 49 1.3855759904465736e-30
63 49 7.0779500554653003e-16
64 49 1.334642386334322
65 49 1.3023928356354242
66 49 4.8775322185296406e-16
67 49 5.7717787437809033e-15
68 49 5.1674421944784925e-15
69 49 1.1548171012680709e-30
70 49 1.6350669668019996e-15
71 49 1.0442104985367778e-31
72 49 -1.7402063868602526e-46
37 50 5.3429727820247006e-46
38 50 -1.883945918079104e-30
39 50 -2.1785913513972576e-30
40 50 -8.2924805594966593e-16
41 50 -1.5611009334175738e-30
42 50 -9.3248729387668446e-15
43 50 -1.8037827056548968e-14
44 50 -3.0337611125554767e-30
45 50 3.1628372168410342e-15
46 50 5.9721924346033056e-15
47 50 2.519319768028454
48 50 4.6852498329314318e-15
49 50 28.329685623543799
50 50 54.800314514611166
51 50 9.2168010373978216e-15
52 50 3.5209712527183487e-15
53 50 1.3023928356411925
54 50 2.5903502580188448e-15
55 50 14.645373747432236
56 50 28.329685623538388
57 50 4.7647368114890862e-15
58 50 5.7547302177170922e-16
59 50 0.11581999391578461
60 50 4.9299859730526205e-15
61 50 8.9541706787264827e-15
62 50 1.4594797177382853e-30
63 50 2.9792806296826201e-16
64 50 1.3023928356354237
65 50 2.5193197680167962
66 50 4.2372145593483231e-16
67 50 5.6323127166815972e-15
68 50 8.8601098836810714e-15
69 50 9.6714740969611267e-31
70 50 3.1628372168415666e-15
71 50 -2.5942986202342817e-31
72 50 -1.5117537944009776e-46
37 51 -5.3736867884131341e-62
38 51 3.2464400850368188e-46
39 51 3.8263493059053137e-47
40 51 -3.7901060078257974e-30
41 51 2.7885543984296125e-47
42 51 -3.4922157852887814e-30
43 51 -3.033761112555476e-30
44 51 -2.8191948051292958e-14
45 51 -8.9884313509814249e-31
46 51 -2.6351058485747194e-31
47 51 1.1514635361434621e-14
48 51 -9.7814347312105818e-32
49 51 1.0609621812165051e-14
50 51 9.2168010373978216e-15
51 51 85.649319906266911
52 51 4.7564437362050498e-32
53 51 5.9526300670792487e-15
54 51 -3.2470114171037596e-32
55 51 5.4847723629144022e-15
56 51 4.7647368114890862e-15
57 51 44.277452206654985
58 51 2.630218716232995e-30
59 51 5.2935916052748707e-16
60 51 3.3324191231125324e-30
61 51 1.9586244400189359e-30
62 51 1.383408995325108e-14
63 51 -4.4597270640659517e-33
64 51 4.8775322185296416e-16
65 51 4.2372145593483236e-16
66 51 3.937532597571844
67 51 2.109331838196538e-30
68 51 1.7287080122532277e-30
69 51 1.2040760706916067e-14
70 51 5.3195390574018109e-31
71 51 3.4954469109529935e-15
72 51 -1.4048332369254082e-30
37 52 5.5963044374978019e-31
38 52 -4.0487027574653938e-15
39 52 -4.1489558003799866e-15
40 52 -2.1214145947420106e-30
41 52 -4.042810407578656e-15
42 52 -1.3960505899008424e-30
43 52 -6.8827645881649773e-31
44 52 -9.2978556663524078e-48
45 52 14.645373747426977
46 52 21.224544170893598
47 52 1.0852383090404671e-14
48 52 20.681543067376811
49 52 7.1416854832338165e-15
50 52 3.5209712527183487e-15
51 52 4.7564437362050498e-32
52 52 15.379644215998532
53 52 1.1121107294887656e-14
54 52 21.193654661850037
55 52 7.3185262502950648e-15
56 52 3.6081567299552129e-15
57 52 4.8742216978316185e-32
58 52 4.0208676395709202e-30
59 52 1.0836588886160937e-14
60 52 3.7420568322170466e-30
61 52 1.8448970573132068e-30
62 52 2.4922523992280555e-47
63 52 14.60277596954152
64 52 7.1312917072099643e-15
65 52 3.5158469460440936e-15
66 52 4.7495213631908579e-32
67 52 1.7412895164383702e-30
68 52 1.2140812227614803e-30
69 52 1.6400897970381137e-47
70 52 4.2324759942186803e-31
71 52 8.085918990418819e-48
72 52 7.7238578563616051e-65
37 53 -1.6686165904284469e-46
38 53 -2.9088763033527847e-31
39 53 -8.8153198954025548e-31
40 53 -5.5420293148984444e-15
41 53 -1.6268258195790449e-30
42 53 -2.8586986542502022e-15
43 53 -2.5459064120760168e-16
44 53 -1.1636150508331486e-30
45 53 6.4711792439019306e-15
46 53 1.2362913668666729e-14
47 53 28.351000022626465
48 53 1.5974648537029623e-14
49 53 14.624059348342671
50 53 1.3023928356411925
51 53 5.9526300670792487e-15
52 53 1.1121107294887656e-14
53 53 29.05302094049895
54 53 1.9350538981035025e-14
55 53 14.986176929518921
56 53 1.3346423863404824
57 53 6.1000277184551645e-15
58 53 2.1008402963814364e-14
59 53 28.309738902267803
60 53 1.7438455592134801e-14
61 53 5.502068786853114e-15
62 53 3.1841309624023076e-30
63 53 1.6106328524991115e-14
64 53 14.602775969540424
65 53 1.3004973756044214
66 53 5.943966803509979e-15
67 53 7.131291707209431e-15
68 53 2.9351628855358634e-15
69 53 2.0861361319031652e-30
70 53 3.1311510468243669e-16
71 53 1.014933634296497e-30
72 53 1.9332623724593298e-47
37 54 -8.099307607429276e-31
38 54 2.6751721522578198e-15
39 54 1.4361024908099118e-16
40 54 -6.9441685539400582e-31
41 54 -2.6165304026091719e-15
42 54 -8.9924613668601631e-32
43 54 3.4978256393259597e-32
44 54 1.3660105594865361e-47
45 54 1.8418616116925079
46 54 15.958701734677854
47 54 1.2087913163004882e-14
48 54 29.65149739823249
49 54 6.0770430801900824e-15
50 54 2.5903502580188448e-15
51 54 -3.2470114171037596e-32
52 54 21.193654661850037
53 54 1.9350538981035025e-14
54 54 43.655796910048501
55 54 1.0809902368175938e-14
56 54 4.9136829167536339e-15
57 54 -2.7549534738315848e-33
58 54 8.4515960324466345e-30
59 54 2.6244078317656346e-14
60 54 6.8816810117784358e-30
61 54 3.1801904538103244e-30
62 54 7.6120715499449332e-48
63 54 40.036016702839419
64 54 1.5395598769129496e-14
65 54 7.1851456864451328e-15
66 54 2.9698686471059564e-32
67 54 2.7444240566869168e-30
68 54 1.7735948261121463e-30
69 54 6.9714110987824026e-49
70 54 5.6953038080064024e-31
71 54 -5.8806761530942216e-49
72 54 -1.1516848347562932e-64
37 55 1.0045754728847548e-46
38 55 -1.1419094627872246e-30
39 55 -1.3595400145112603e-30
40 55 -2.858698654250203e-15
41 55 -1.4630049662260653e-30
42 55 -2.9337547812924767e-15
43 55 -2.8628651748134817e-15
44 55 -1.0721586256765995e-30
45 55 5.6323127166795737e-15
46 55 9.1311981235312712e-15
47 55 14.624059348342676
48 55 9.6048097137574502e-15
49 55 15.008019110834972
50 55 14.645373747432236
51 55 5.4847723629144022e-15
52 55 7.3185262502950648e-15
53 55 14.986176929518921
54 55 1.0809902368175938e-14
55 55 15.379644216001301
56 55 15.008019110837665
57 55 5.6205850298389219e-15
58 55 1.0836588886160122e-14
59 55 14.602775969540421
60 55 1.2906395107306838e-14
61 55 1.0159872892423728e-14
62 55 2.9074617816523946e-30
63 55 7.9475530610757828e-15
64 55 14.986176929522742
65 55 14.624059348349029
66 55 5.4767900041818893e-15
67 55 7.3185262502963838e-15
68 55 7.6012863256336415e-15
69 55 1.9256938716661343e-30
70 55 3.520971252719616e-15
71 55 9.6604036031858776e-31
72 55 1.7813141269049223e-47
37 56 1.6403666632328023e-46
38 56 -8.1937641202756145e-31
39 56 -1.0947477236932926e-30
40 56 -2.545906412076035e-16
41 56 -1.0555855534918945e-30
42 56 -2.8628651748134825e-15
43 56 -5.5378627943354556e-15
44 56 -9.3140668992183068e-31
45 56 1.6350669668014121e-15
46 56 3.6744983279095347e-15
47 56 1.3023928356412018
48 56 3.5234287364870217e-15
49 56 14.64537374743224
50 56 28.329685623538388
51 56 4.7647368114890862e-15
52 56 3.6081567299552129e-15
53 56 1.3346423863404824
54 56 4.9136829167536339e-15
55 56 15.008019110837665
56 56 29.031178759181728
57 56 4.8827201243312469e-15
58 56 9.6508742148419815e-16
59 56 1.300497375604412
60 56 8.1228773436363747e-15
61 56 1.506542182249884e-14
62 56 2.4995887025649709e-30
63 56 3.3453175994022069e-15
64 56 14.624059348349025
65 56 28.288455523460684
66 56 4.7578023690038364e-15
67 56 7.1416854832363834e-15
68 56 1.2258183245450852e-14
69 56 1.6765825041536228e-30
70 56 6.8108885713177235e-15
71 56 8.7506090716895383e-31
72 56 1.5474649505379817e-47
37 57 -1.6497962886921357e-62
38 57 1.2390662606884143e-46
39 57 5.458124449902243e-47
40 57 -1.1636150508331484e-30
41 57 6.6523131017067194e-47
42 57 -1.0721586256765993e-30
43 57 -9.314066899218305e-31
44 57 -8.655318610364979e-15
45 57 -4.646678339023282e-31
46 57 -3.030726090912979e-31
47 57 5.9526300670792479e-15
48 57 -3.6355264908546379e-31
49 57 5.4847723629144014e-15
50 57 4.7647368114890862e-15
51 57 44.277452206654985
52 57 4.8742216978316185e-32
53 57 6.1000277184551645e-15
54 57 -2.7549534738315848e-33
55 57 5.6205850298389219e-15
56 57 4.8827201243312469e-15
57 57 45.373840256404101
58 57 4.410964376703243e-30
59 57 5.9439668035099798e-15
60 57 4.9264295382895132e-30
61 57 3.5085404402728123e-30
62 57 2.3200229544140013e-14
63 57 -5.0076529506183144e-32
64 57 5.4767900041818901e-15
65 57 4.7578023690038372e-15
66 57 44.213012247457229
67 57 2.6746001733106772e-30
68 57 2.5753565920681311e-30
69 57 1.526749849897703e-14
70 57 1.1455154118527981e-30
71 57 7.5271339576658747e-15
72 57 1.4380186797244291e-31
37 58 2.4876070958515901e-62
38 58 2.6670066173913901e-46
39 58 4.4726589120290983e-46
40 58 1.652433702054826e-30
41 58 6.6476743349900066e-46
42 58 8.5236106341100675e-31
43 58 7.5909767317226506e-32
44 58 3.4694813342938239e-46
45 58 1.4296719745395475e-30
46 58 3.3907290595467898e-30
47 58 1.2527123312405472e-14
48 58 5.0396113339722854e-30
49 58 6.4617613007801425e-15
50 58 5.7547302177170922e-16
51 58 2.630218716232995e-30
52 58 4.0208676395709202e-30
53 58 2.1008402963814364e-14
54 58 8.4515960324466345e-30
55 58 1.0836588886160122e-14
56 58 9.6508742148419815e-16
57 58 4.410964376703243e-30
58 58 54.882805735075614
59 58 3.1224607990131516e-14
60 58 40.036016702825343
61 58 3.5655367691926436
62 58 1.6296405198761284e-14
63 58 8.8823460380419435e-30
64 58 1.610632852498991e-14
65 58 1.4344011043559976e-15
66 58 6.5559782796543744e-30
67 58 14.60277596953933
68 58 1.8391810264102522
69 58 8.4060384678186378e-15
70 58 0.11581999391634087
71 58 7.4862690418799871e-16
72 58 2.4194537692642499e-30
37 59 1.7076077651874105e-46
38 59 9.690542294809879e-31
39 59 2.137829540099729e-30
40 59 5.6715319428694513e-15
41 59 3.4500815701920559e-30
42 59 2.9254989122905851e-15
43 59 2.6053975392784217e-16
44 59 1.1908056697323326e-30
45 59 5.7547302176895363e-16
46 59 5.2515750943568371e-15
47 59 2.5212152280540012
48 59 9.8722885907911766e-15
49 59 1.3004973755980866
50 59 0.11581999391578461
51 59 5.2935916052748707e-16
52 59 1.0836588886160937e-14
53 59 28.309738902267803
54 59 2.6244078317656346e-14
55 59 14.602775969540421
56 59 1.300497375604412
57 59 5.9439668035099798e-15
58 59 3.1224607990131516e-14
59 59 54.882805735090798
60 59 2.2283684527133966e-14
61 59 5.6001559380001854e-15
62 59 4.5671299985323504e-30
63 59 3.1224607990140149e-14
64 59 28.309738902273509
65 59 2.5212152280667892
66 59 1.1523298625010996e-14
67 59 7.9475530610751927e-15
68 59 2.8659834078741515e-15
69 59 2.2520815308544393e-30
70 59 2.9792806296969133e-16
71 59 9.5970686269425683e-31
72 59 -2.0383331884334222e-47
37 60 -2.1179845998703802e-62
38 60 5.0602845672913517e-47
39 60 1.7721704376850924e-47
40 60 -1.0074266872049378e-31
41 60 -5.1047767820319742e-47
42 60 2.5567839781181688e-31
43 60 5.7127339532636438e-31
44 60 7.834894742740015e-47
45 60 1.7597652277669666e-30
46 60 3.6646091797691833e-30
47 60 1.2278894391740913e-14
48 60 4.8600021373363696e-30
49 60 8.6659702953473779e-15
50 60 4.9299859730526205e-15
51 60 3.3324191231125324e-30
52 60 3.7420568322170466e-30
53 60 1.7438455592134801e-14
54 60 6.8816810117784358e-30
55 60 1.2906395107306838e-14
56 60 8.1228773436363747e-15
57 60 4.9264295382895132e-30
58 60 40.036016702825343
59 60 2.2283684527133966e-14
60 60 43.655796910043499
61 60 29.651497398240977
62 60 1.6561570974410705e-14
63 60 6.1983995724362324e-30
64 60 1.7307682158028124e-14
65 60 1.1905979950957254e-14
66 60 6.558910446432362e-30
67 60 21.193654661852264
68 60 15.958701734688653
69 60 1.1576817722637741e-14
70 60 1.841861611702003
71 60 6.4403832889366906e-15
72 60 3.1526955937245989e-30
37 61 -3.4584472990277828e-62
38 61 -1.3774324592060274e-46
39 61 -2.0830069987848884e-46
40 61 -1.0949887820704445e-30
41 61 -3.6447059402139396e-46
42 61 1.1082418214179538e-32
43 61 1.1148010695478959e-30
44 61 -4.4803907240990275e-47
45 61 5.1086190309117092e-31
46 61 1.3836864080809744e-30
47 61 2.6450671675423357e-15
48 61 1.6405525442089366e-30
49 61 5.7302990179182452e-15
50 61 8.9541706787264827e-15
51 61 1.9586244400189359e-30
52 61 1.8448970573132068e-30
53 61 5.502068786853114e-15
54 61 3.1801904538103244e-30
55 61 1.0159872892423728e-14
56 61 1.506542182249884e-14
57 61 3.5085404402728123e-30
58 61 3.5655367691926436
59 61 5.6001559380001854e-15
60 61 29.651497398240977
61 61 54.957364608623863
62 61 9.7530946404162291e-15
63 61 2.6090565257567796e-30
64 61 1.3770990062602756e-14
65 61 2.2273199820542201e-14
66 61 4.6735320586188924e-30
67 61 20.681543067382687
68 61 29.590848359100232
69 61 1.0710432436084865e-14
70 61 3.5628561839010797
71 61 1.1938356817373424e-14
72 61 2.738812799672334e-30
37 62 3.4783281363013256e-78
38 62 5.1043321195936112e-63
39 62 3.2655902910633786e-62
40 62 3.6085619576483545e-46
41 62 4.5014495857178871e-62
42 62 2.8563850537086954e-46
43 62 2.0167909744141372e-46
44 62 1.8248336753716023e-30
45 62 -1.4518126703823669e-46
46 62 -1.6165361926401173e-46
47 62 1.2237892244695481e-30
48 62 -2.6696236661054936e-46
49 62 1.3855759904465736e-30
50 62 1.4594797177382853e-30
51 62 1.383408995325108e-14
52 62 2.4922523992280555e-47
53 62 3.1841309624023076e-30
54 62 7.6120715499449332e-48
55 62 2.9074617816523946e-30
56 62 2.4995887025649709e-30
57 62 2.3200229544140013e-14
58 62 1.6296405198761284e-14
59 62 4.5671299985323504e-30
60 62 1.6561570974410705e-14
61 62 9.7530946404162291e-15
62 62 85.713759865493827
63 62 -3.9055333974480052e-47
64 62 4.2360100083937098e-30
65 62 3.7075181894261237e-30
66 62 3.4482300917618698e-14
67 62 7.7453507021828485e-15
68 62 5.2455555908587839e-15
69 62 44.213012247453918
70 62 5.9923262965438751e-16
71 62 3.9375325975907272
72 62 2.5451070570793578e-14
37 63 5.8609019981311097e-31
38 63 3.684588535403389e-16
39 63 4.1372802384693945e-15
40 63 3.2267184458037857e-30
41 63 8.0207573930404272e-15
42 63 1.5922012283175949e-30
43 63 6.7019606537356987e-31
44 63 -1.0032259133962239e-47
45 63 0.11581999391523
46 63 1.83918102640157
47 63 1.4344011043491186e-15
48 63 3.5655367691765307
49 63 7.0779500554653003e-16
50 63 2.9792806296826201e-16
51 63 -4.4597270640659517e-33
52 63 14.60277596954152
53 63 1.6106328524991115e-14
54 63 40.036016702839419
55 63 7.9475530610757828e-15
56 63 3.3453175994022069e-15
57 63 -5.0076529506183144e-32
58 63 8.8823460380419435e-30
59 63 3.1224607990140149e-14
60 63 6.1983995724362324e-30
61 63 2.6090565257567796e-30
62 63 -3.9055333974480052e-47
63 63 54.882805735105975
64 63 1.5407560352930694e-14
65 63 6.4854153745698803e-15
66 63 -9.7081094608936777e-32
67 63 2.1627257649628327e-30
68 63 1.2874203544044206e-30
69 63 -1.9271576299875096e-47
70 63 3.8318569921954196e-31
71 63 -8.111873285872481e-48
72 63 8.5862400841257382e-65
37 64 -1.0280497557406866e-46
38 64 7.6440107307771592e-31
39 64 6.4736783596095546e-31
40 64 2.9254989122905859e-15
41 64 4.2240332887893405e-31
42 64 3.0023089033319495e-15
43 64 2.9297627934652545e-15
44 64 1.0972121488064111e-30
45 64 5.008737814934831e-16
46 64 4.425933970311573e-15
47 64 1.3004973755980871
48 64 8.2102258056645207e-15
49 64 1.334642386334322
50 64 1.3023928356354237
51 64 4.8775322185296416e-16
52 64 7.1312917072099643e-15
53 64 14.602775969540424
54 64 1.5395598769129496e-14
55 64 14.986176929522742
56 64 14.624059348349025
57 64 5.4767900041818901e-15
58 64 1.610632852498991e-14
59 64 28.309738902273509
60 64 1.7307682158028124e-14
61 64 1.3770990062602756e-14
62 64 4.2360100083937098e-30
63 64 1.5407560352930694e-14
64 64 29.053020940512216
65 64 28.351000022644495
66 64 1.0617604170904111e-14
67 64 8.1562188297949554e-15
68 64 8.0555631114122816e-15
69 64 2.0713623606705431e-30
70 64 3.3501933615071723e-15
71 64 8.5172155512737852e-31
72 64 -1.878126712452731e-47
37 65 -1.6786977116005197e-46
38 65 1.7852014175679738e-31
39 65 -9.4448816291377422e-32
40 65 2.6053975392784404e-16
41 65 -6.7476491074887164e-31
42 65 2.9297627934652553e-15
43 65 5.6672680616950797e-15
44 65 9.5317121103874282e-31
45 65 1.4540424437578224e-16
46 65 1.3758901060918221e-15
47 65 0.11581999391578544
48 65 2.4488132450888938e-15
49 65 1.3023928356354242
50 65 2.5193197680167962
51 65 4.2372145593483236e-16
52 65 3.5158469460440936e-15
53 65 1.3004973756044214
54 65 7.1851456864451328e-15
55 65 14.624059348349029
56 65 28.288455523460684
57 65 4.7578023690038372e-15
58 65 1.4344011043559976e-15
59 65 2.5212152280667892
60 65 1.1905979950957254e-14
61 65 2.2273199820542201e-14
62 65 3.7075181894261237e-30
63 65 6.4854153745698803e-15
64 65 28.351000022644495
65 65 54.841544614722693
66 65 9.2237354798887583e-15
67 65 7.9591365286811548e-15
68 65 1.325554410280989e-14
69 65 1.7955434475948046e-30
70 65 6.4805396124632169e-15
71 65 7.0211905981383721e-31
72 65 -1.6315680745425614e-47
37 66 1.6883476825702031e-62
38 66 -6.0422301884229806e-47
39 66 6.6319440092333067e-47
40 66 1.1908056697323324e-30
41 66 1.0843293943269056e-46
42 66 1.0972121488064109e-30
43 66 9.5317121103874265e-31
44 66 8.8575706090968126e-15
45 66 -4.1322267923051757e-32
46 66 -3.2510063832579782e-31
47 66 5.2935916052748697e-16
48 66 -6.3920976903199604e-31
49 66 4.8775322185296406e-16
50 66 4.2372145593483231e-16
51 66 3.937532597571844
52 66 4.7495213631908579e-32
53 66 5.943966803509979e-15
54 66 2.9698686471059564e-32
55 66 5.4767900041818893e-15
56 66 4.7578023690038364e-15
57 66 44.213012247457229
58 66 6.5559782796543744e-30
59 66 1.1523298625010996e-14
60 66 6.558910446432362e-30
61 66 4.6735320586188924e-30
62 66 3.4482300917618698e-14
63 66 -9.7081094608936777e-32
64 66 1.0617604170904111e-14
65 66 9.2237354798887583e-15
66 66 85.713759865517531
67 66 2.9807400492477504e-30
68 66 2.7181871276529126e-30
69 66 1.7015045718552925e-14
70 66 1.089954405429792e-30
71 66 7.1620449035672801e-15
72 66 -1.5161735117933038e-31
37 67 9.0164133491354985e-63
38 67 -1.3975052133329059e-46
39 67 -1.7720150135213087e-46
40 67 -5.1315624167730728e-31
41 67 -1.9748432574627371e-46
42 67 -5.2662933720999113e-31
43 67 -5.1390416102513517e-31
44 67 -1.9245991179102314e-46
45 67 1.0830364279383377e-30
46 67 1.9421019426847232e-30
47 67 5.6241156325299136e-15
48 67 2.1643986634146474e-30
49 67 5.7717787437809033e-15
50 67 5.6323127166815972e-15
51 67 2.109331838196538e-30
52 67 1.7412895164383702e-30
53 67 7.131291707209431e-15
54 67 2.7444240566869168e-30
55 67 7.3185262502963838e-15
56 67 7.1416854832363834e-15
57 67 2.6746001733106772e-30
58 67 14.60277596953933
59 67 7.9475530610751927e-15
60 67 21.193654661852264
61 67 20.681543067382687
62 67 7.7453507021828485e-15
63 67 2.1627257649628327e-30
64 67 8.1562188297949554e-15
65 67 7.9591365286811548e-15
66 67 2.9807400492477504e-30
67 67 15.379644216004071
68 67 21.224544170905048
69 67 7.9487075776708213e-15
70 67 14.645373747437503
71 67 7.7566394621654617e-15
72 67 2.054077170838663e-30
37 68 2.0821268054009677e-62
38 68 -1.9004747908585978e-46
39 68 -2.663776185024628e-46
40 68 -6.2482164906425715e-31
41 68 -2.8680051814225438e-46
42 68 -9.7144788947404934e-31
43 68 -1.2962939820919616e-30
44 68 -3.4044424352227227e-46
45 68 4.446382776306135e-31
46 68 1.0757098359543478e-30
47 68 1.5086555396942002e-15
48 68 1.0885027055472511e-30
49 68 5.1674421944784925e-15
50 68 8.8601098836810714e-15
51 68 1.7287080122532277e-30
52 68 1.2140812227614803e-30
53 68 2.9351628855358634e-15
54 68 1.7735948261121463e-30
55 68 7.6012863256336415e-15
56 68 1.2258183245450852e-14
57 68 2.5753565920681311e-30
58 68 1.8391810264102522
59 68 2.8659834078741515e-15
60 68 15.958701734688653
61 68 29.590848359100232
62 68 5.2455555908587839e-15
63 68 1.2874203544044206e-30
64 68 8.0555631114122816e-15
65 68 1.325554410280989e-14
66 68 2.7181871276529126e-30
67 68 21.224544170905048
68 68 43.676552506624454
69 68 1.0367492487248497e-14
70 68 40.064225626588481
71 68 1.5374358623657635e-14
72 68 2.5235508643341081e-30
37 69 -2.0940958830308898e-78
38 69 2.438135723142056e-62
39 69 1.9743342496789833e-62
40 69 -8.8107092428943426e-47
41 69 2.3813108207810827e-62
42 69 -7.4933887442792378e-47
43 69 -5.8545898577021243e-47
44 69 -1.0986245509531641e-30
45 69 -1.2636124974187252e-46
46 69 -1.041493986804515e-46
47 69 1.2906599594257847e-30
48 69 -1.3590682467070774e-46
49 69 1.1548171012680709e-30
50 69 9.6714740969611267e-31
51 69 1.2040760706916067e-14
52 69 1.6400897970381137e-47
53 69 2.0861361319031652e-30
54 69 6.9714110987824026e-49
55 69 1.9256938716661343e-30
56 69 1.6765825041536228e-30
57 69 1.526749849897703e-14
58 69 8.4060384678186378e-15
59 69 2.2520815308544393e-30
60 69 1.1576817722637741e-14
61 69 1.0710432436084865e-14
62 69 44.213012247453918
63 69 -1.9271576299875096e-47
64 69 2.0713623606705431e-30
65 69 1.7955434475948046e-30
66 69 1.7015045718552925e-14
67 69 7.9487075776708213e-15
68 69 1.0367492487248497e-14
69 69 45.373840256412272
70 69 6.7383554199486256e-15
71 69 44.277452206670901
72 69 2.3450697742043018e-14
37 70 2.4040890018562131e-62
38 70 -6.6246141175680934e-47
39 70 -1.4265517157342436e-46
40 70 -7.4624603659829067e-32
41 70 -1.3573595877012723e-46
42 70 -8.3915173781966539e-31
43 70 -1.6232364795091087e-30
44 70 -2.7301025187666674e-46
45 70 9.1272644591772969e-32
46 70 2.7796016878809544e-31
47 70 1.4540424437647954e-16
48 70 2.6447824915298906e-31
49 70 1.6350669668019996e-15
50 70 3.1628372168415666e-15
51 70 5.3195390574018109e-31
52 70 4.2324759942186803e-31
53 70 3.1311510468243669e-16
54 70 5.6953038080064024e-31
55 70 3.520971252719616e-15
56 70 6.8108885713177235e-15
57 70 1.1455154118527981e-30
58 70 0.11581999391634087
59 70 2.9792806296969133e-16
60 70 1.841861611702003
61 70 3.5628561839010797
62 70 5.9923262965438751e-16
63 70 3.8318569921954196e-31
64 70 3.3501933615071723e-15
65 70 6.4805396124632169e-15
66 70 1.089954405429792e-30
67 70 14.645373747437503
68 70 40.064225626588481
69 70 6.7383554199486256e-15
70 70 54.800314514620396
71 70 1.3034525028784605e-14
72 70 1.5501630258324945e-30
37 71 -3.4194395233169346e-78
38 71 1.8023523682647555e-62
39 71 8.7825549305069125e-63
40 71 -2.3586882530014071e-46
41 71 1.1089890931117034e-62
42 71 -1.6254217235159291e-46
43 71 -7.7607436078094268e-47
44 71 -1.7939389696800022e-30
45 71 -3.6682818538257902e-47
46 71 -5.320147753762851e-47
47 71 4.4070621055557597e-31
48 71 -5.5946844951176355e-47
49 71 1.0442104985367778e-31
50 71 -2.5942986202342817e-31
51 71 3.4954469109529935e-15
52 71 8.085918990418819e-48
53 71 1.014933634296497e-30
54 71 -5.8806761530942216e-49
55 71 9.6604036031858776e-31
56 71 8.7506090716895383e-31
57 71 7.5271339576658747e-15
58 71 7.4862690418799871e-16
59 71 9.5970686269425683e-31
60 71 6.4403832889366906e-15
61 71 1.1938356817373424e-14
62 71 3.9375325975907272
63 71 -8.111873285872481e-48
64 71 8.5172155512737852e-31
65 71 7.0211905981383721e-31
66 71 7.1620449035672801e-15
67 71 7.7566394621654617e-15
68 71 1.5374358623657635e-14
69 71 44.277452206670901
70 71 1.3034525028784605e-14
71 71 85.649319906281335
72 71 2.0372113078407473e-14
37 72 2.4318081910848635e-94
38 72 -1.8934639408465577e-78
39 72 1.9381919823317465e-79
40 72 3.4303491058631195e-62
41 72 -2.0435307175179997e-79
42 72 3.1607346263695988e-62
43 72 2.7457964759742691e-62
44 72 2.5515968046964786e-46
45 72 7.3714812468140547e-63
46 72 -1.0671108034428944e-63
47 72 -1.8886480925606549e-46
48 72 1.1251071749906851e-63
49 72 -1.7402063868602526e-46
50 72 -1.5117537944009776e-46
51 72 -1.4048332369254082e-30
52 72 7.7238578563616051e-65
53 72 1.9332623724593298e-47
54 72 -1.1516848347562932e-64
55 72 1.7813141269049223e-47
56 72 1.5474649505379817e-47
57 72 1.4380186797244291e-31
58 72 2.4194537692642499e-30
59 72 -2.0383331884334222e-47
60 72 3.1526955937245989e-30
61 72 2.738812799672334e-30
62 72 2.5451070570793578e-14
63 72 8.5862400841257382e-65
64 72 -1.878126712452731e-47
65 72 -1.6315680745425614e-47
66 72 -1.5161735117933038e-31
67 72 2.054077170838663e-30
68 72 2.5235508643341081e-30
69 72 2.3450697742043018e-14
70 72 1.5501630258324945e-30
71 72 2.0372113078407473e-14
72 72 133.86430471067342
73 73 127.36554637900561
74 73 1.4351112573046149e-14
75 73 1.4816780518345796e-14
76 73 5.0244523657558223e-30
77 73 6.4637403469914008e-15
78 73 2.7862600234115419e-31
79 73 -1.0272821860325207e-30
80 73 -4.5236625609937045e-46
81 73 8.0851705167186786e-31
82 73 1.1805175776808986e-30
83 73 4.003200512183422e-46
84 73 5.1499440703333608e-31
85 73 2.2199349781514745e-47
86 73 -8.1848055746542352e-47
87 73 -3.6041994157488307e-62
88 73 8.6183819396994605e-31
89 73 4.133097211665256e-46
90 73 5.3170505480669683e-31
91 73 2.2919678992725991e-47
92 73 -8.4503878823134195e-47
93 73 -3.7211492430071153e-62
94 73 9.9104986763158074e-62
95 73 1.8030412998289438e-46
96 73 7.7721901323151222e-63
97 73 -2.8655733500454283e-62
98 73 -1.2618623252337254e-77
99 73 1.6401586010288325e-31
100 73 9.9985859722995965e-48
101 73 -3.6864359997103197e-47
102 73 -1.6233312270111781e-62
103 73 3.0476236073376182e-64
104 73 -1.5890751644500872e-63
105 73 -6.9975318620001931e-79
106 73 4.1428342269569715e-63
107 73 2.5799601500315583e-78
108 73 8.0333824757453809e-94
73 74 1.4351112573046149e-14
74 74 82.35740708671058
75 74 42.169505200126217
76 74 9.0022263678518207e-15
77 74 2.8386340922263416
78 74 7.6932876643392494e-16
79 74 -2.5442212709556797e-15
80 74 1.9132223415644867e-30
81 74 9.279749931770589e-15
82 74 1.0134520487686991e-14
83 74 3.0145822413175196e-30
84 74 3.1815890795138564e-15
85 74 1.8869223725132763e-31
86 74 -6.7241451461707607e-31
87 74 -5.4401118050138568e-47
88 74 4.9056932654544766e-15
89 74 1.91682594691258e-30
90 74 1.7467716624972939e-15
91 74 1.2851559197617945e-31
92 74 -4.497902104412749e-31
93 74 5.1474722982035877e-47
94 74 3.5512945892589826e-46
95 74 4.0223072225937097e-31
96 74 3.5385500639766838e-47
97 74 -1.2231229503387005e-46
98 74 3.0760198790564519e-62
99 74 1.4405931772014299e-16
100 74 3.1998623149321422e-32
101 74 -1.0748967359640525e-31
102 74 6.1527548296713179e-47
103 74 1.6829904536455737e-48
104 74 -8.3232656053692818e-48
105 74 1.0273871792275915e-63
106 74 2.0520723722417366e-47
107 74 -4.5219295963604765e-63
108 74 -6.7952225099444518e-78
73 75 1.4816780518345796e-14
74 75 42.169505200126217
75 75 43.166732594155519
76 75 6.1030605191612651e-15
77 75 42.029308584801321
78 75 1.6145941915440271e-15
79 75 -7.8091915295360718e-16
80 75 -5.7526958151689106e-31
81 75 4.751515095617516e-15
82 75 6.9081309786472017e-15
83 75 1.6625633771124336e-30
84 75 4.861925068441228e-15
85 75 1.9387263939365492e-31
86 75 -3.0272268248279145e-31
87 75 -1.5174052646837593e-46
88 75 5.0217034411227444e-15
89 75 1.7061589265997564e-30
90 75 5.0063688826782865e-15
91 75 1.9958941894717481e-31
92 75 -3.1042902770182076e-31
93 75 -1.5573224482983847e-46
94 75 2.4076006216659355e-46
95 75 1.3914055023160316e-30
96 75 5.4479288673881867e-47
97 75 -5.6590820312422735e-47
98 75 -3.1374460873316996e-62
99 75 2.1329672378545671e-15
100 75 1.229542512220969e-31
101 75 -2.6772740918847309e-31
102 75 -1.2619793080543519e-46
103 75 3.5321006173679511e-48
104 75 -1.0416425351286221e-47
105 75 -4.9448295186803597e-63
106 75 6.2985976771138777e-48
107 75 5.2421427218684873e-63
108 75 2.0431942094160122e-78
73 76 5.0244523657558223e-30
74 76 9.0022263678518207e-15
75 76 6.1030605191612651e-15
76 76 82.49760370206161
77 76 6.1631599158143914e-15
78 76 42.029308584810394
79 76 2.8386340922373745
80 76 -2.3220703183498148e-15
81 76 1.0143332145234854e-30
82 76 1.2267734087291437e-30
83 76 6.5729441807597866e-15
84 76 8.1409156352393651e-31
85 76 3.3486584687347943e-15
86 76 2.2616636848614175e-16
87 76 -1.8500947787064066e-31
88 76 7.0998684067406239e-31
89 76 6.7862244679601249e-15
90 76 7.2599012350932766e-31
91 76 3.4573164491324074e-15
92 76 2.3350506279104394e-16
93 76 -1.9101270465758619e-31
94 76 3.2544537504262226e-30
95 76 2.9604537128009851e-15
96 76 1.3000084858284571e-30
97 76 -3.9132201722350682e-31
98 76 -2.7196145521882715e-46
99 76 3.1277740759324347e-31
100 76 1.5082355979360295e-15
101 76 1.0186532045341639e-16
102 76 -8.3328259088029879e-32
103 76 9.1943689366300371e-32
104 76 -2.3531286119694094e-31
105 76 -1.0914614025209718e-46
106 76 -2.2895345865085691e-32
107 76 6.1142930242791167e-48
108 76 8.2473344337081577e-63
73 77 6.4637403469914008e-15
74 77 2.8386340922263416
75 77 42.029308584801321
76 77 6.1631599158143914e-15
77 77 82.497603702049261
78 77 2.1120432400971779e-15
79 77 -9.1386412309878652e-16
80 77 -3.328705919523437e-30
81 77 3.1984754566453008e-16
82 77 3.5821635315242078e-15
83 77 5.7022890400847134e-31
84 77 6.6748095012118238e-15
85 77 1.7266671047470567e-31
86 77 -8.9000997932713961e-32
87 77 -2.7234159640592473e-46
88 77 4.8893838117775859e-15
89 77 1.6793747727519967e-30
90 77 8.2944600658948139e-15
91 77 2.3874995577285709e-31
92 77 -3.1487801590064049e-31
93 77 -3.7937239469573289e-46
94 77 2.4313102225000156e-46
95 77 2.5224134281062553e-30
96 77 6.8448452976280612e-47
97 77 -6.0642056922935525e-47
98 77 -1.0833169738904372e-61
99 77 4.1867137914203108e-15
100 77 2.0340469088379454e-31
101 77 -5.0329919315313497e-31
102 77 -3.2663969834767576e-46
103 77 4.6203245814486321e-48
104 77 -1.3459153162717499e-47
105 77 -1.0453360767931186e-62
106 77 7.3708813789200065e-48
107 77 2.1279576164988836e-62
108 77 1.1822618261312314e-77
73 78 2.7862600234115419e-31
74 78 7.6932876643392494e-16
75 78 1.6145941915440271e-15
76 78 42.029308584810394
77 78 2.1120432400971779e-15
78 78 43.166732594145543
79 78 42.169505200110535
80 78 -3.4169312077013085e-15
81 78 8.6683501188604001e-32
82 78 1.9192492896069847e-31
83 78 3.348658468734795e-15
84 78 1.9588262554483862e-31
85 78 3.4392820042223687e-15
86 78 3.3598285450201423e-15
87 78 -2.7224182388497441e-31
88 78 1.8782980495940999e-31
89 78 3.4573164491324082e-15
90 78 2.3167597503086043e-31
91 78 3.5508805563248928e-15
92 78 3.468848974422748e-15
93 78 -2.8107558434137608e-31
94 78 1.6580171400772105e-30
95 78 1.5082355979360299e-15
96 78 1.2691372764488009e-30
97 78 9.3660203842085634e-31
98 78 -2.0086848011684669e-46
99 78 1.0718510810281572e-31
100 78 1.5490524335462674e-15
101 78 1.5132665997065949e-15
102 78 -1.2261770313814243e-31
103 78 9.4431928245822071e-32
104 78 -1.8096001452227295e-31
105 78 -1.1369632609834727e-46
106 78 -3.4012323362010958e-31
107 78 -8.6418657631174556e-47
108 78 1.2135969433911717e-62
73 79 -1.0272821860325207e-30
74 79 -2.5442212709556797e-15
75 79 -7.8091915295360718e-16
76 79 2.8386340922373745
77 79 -9.1386412309878652e-16
78 79 42.169505200110535
79 79 82.357407086662846
80 79 -6.7734637698323301e-16
81 79 -2.8667437662370828e-31
82 79 -2.7150612076834949e-31
83 79 2.2616636848614318e-16
84 79 -1.6411185974074408e-31
85 79 3.3598285450201426e-15
86 79 6.5617741044665819e-15
87 79 -5.3967142404323853e-32
88 79 -9.0846347465733127e-32
89 79 2.3350506279104542e-16
90 79 -1.031976732983046e-31
91 79 3.4688489744227488e-15
92 79 6.7746919426616728e-15
93 79 -5.5718279689966411e-32
94 79 1.1198147525648478e-31
95 79 1.0186532045341702e-16
96 79 1.1806969129696633e-30
97 79 2.2811461184412004e-30
98 79 -2.6023443673320881e-47
99 79 -4.6378175160794617e-32
100 79 1.5132665997065951e-15
101 79 2.9554227110268809e-15
102 79 -2.4306798096324629e-32
103 79 9.22503847291649e-32
104 79 -1.1310698854653219e-31
105 79 -1.069540567938456e-46
106 79 -6.6426360654736693e-31
107 79 -2.029728138608015e-46
108 79 2.4057420028568315e-63
73 80 -4.5236625609937045e-46
74 80 1.9132223415644867e-30
75 80 -5.7526958151689106e-31
76 80 -2.3220703183498148e-15
77 80 -3.328705919523437e-30
78 80 -3.4169312077013085e-15
79 80 -6.7734637698323301e-16
80 80 127.36554637892196
81 80 2.1557809386500443e-46
82 80 1.1154777760617674e-46
83 80 -1.8500947787063971e-31
84 80 -1.9655470176928722e-46
85 80 -2.7224182388497449e-31
86 80 -5.3967142404325342e-32
87 80 1.014776901796579e-14
88 80 -6.6924157936903418e-47
89 80 -1.9101270465758522e-31
90 80 -2.9446205543866721e-46
91 80 -2.8107558434137617e-31
92 80 -5.5718279689967944e-32
93 80 1.0477045979868159e-14
94 80 -9.1603514735903564e-47
95 80 -8.3328259088029463e-32
96 80 -9.8906236019412494e-47
97 80 -5.6510179994772308e-48
98 80 3.5528243395724003e-30
99 80 -1.6893001611959628e-46
100 80 -1.2261770313814248e-31
101 80 -2.4306798096325297e-32
102 80 4.5705546311837056e-15
103 80 -7.4749091080800635e-48
104 80 1.8439861402883104e-47
105 80 1.9701833567019957e-31
106 80 5.4632189523486613e-48
107 80 -7.2639819993525869e-31
108 80 -4.5236625609907337e-46
73 81 8.0851705167186786e-31
74 81 9.279749931770589e-15
75 81 4.751515095617516e-15
76 81 1.0143332145234854e-30
77 81 3.1984754566453008e-16
78 81 8.6683501188604001e-32
79 81 -2.8667437662370828e-31
80 81 2.1557809386500443e-46
81 81 53.254138932348738
82 81 38.562413305881279
83 81 8.232194620798284e-15
84 81 2.5958232274508561
85 81 7.0352198154888518e-16
86 81 -2.3265938674545753e-15
87 81 1.7495692759808543e-30
88 81 13.961916855801721
89 81 4.2151348148797676e-15
90 81 1.32914069252661
91 81 3.6022471941660019e-16
92 81 -1.1912870458646371e-15
93 81 8.9583284967523734e-31
94 81 6.3627944827033033e-31
95 81 2.8374118529643227e-16
96 81 7.689975142213515e-32
97 81 -2.5431257979120984e-31
98 81 1.9123985596373846e-46
99 81 0.063265488499024358
100 81 2.4248474449625958e-17
101 81 -8.0191313746048953e-17
102 81 6.0302857620838133e-32
103 81 4.6469925948902646e-33
104 81 -2.1733510723313221e-32
105 81 1.6343326247270629e-47
106 81 5.082270723647717e-32
107 81 -5.4048464181594409e-47
108 81 2.8739481220437846e-62
73 82 1.1805175776808986e-30
74 82 1.0134520487686991e-14
75 82 6.9081309786472017e-15
76 82 1.2267734087291437e-30
77 82 3.5821635315242078e-15
78 82 1.9192492896069847e-31
79 82 -2.7150612076834949e-31
80 82 1.1154777760617674e-46
81 82 38.562413305881279
82 82 41.874490310405974
83 82 6.9269256589903558e-15
84 82 28.116934081485965
85 82 1.2987500091824088e-15
86 82 -1.3473269151405252e-15
87 82 2.6146732236167075e-31
88 82 20.212066433676473
89 82 5.0716992077782049e-15
90 82 14.877569009829658
91 82 7.9531749498918978e-16
92 82 -1.1208423125578462e-15
93 82 4.5796312471507374e-31
94 82 6.1004327059445417e-31
95 82 3.1066620202527569e-15
96 82 1.5098433581168831e-31
97 82 -1.7710870814082871e-31
98 82 5.1016973793998802e-47
99 82 1.3247218352149464
100 82 2.8985545380755078e-16
101 82 -8.5697119621281554e-16
102 82 6.1852231297175488e-31
103 82 1.3792353902669903e-32
104 82 -3.6969718959470136e-32
105 82 2.0778823768026096e-47
106 82 2.206093873680151e-32
107 82 -2.391452431492799e-49
108 82 -1.2220807099728912e-62
73 83 4.003200512183422e-46
74 83 3.0145822413175196e-30
75 83 1.6625633771124336e-30
76 83 6.5729441807597866e-15
77 83 5.7022890400847134e-31
78 83 3.348658468734795e-15
79 83 2.2616636848614318e-16
80 83 -1.8500947787063971e-31
81 83 8.232194620798284e-15
82 83 6.9269256589903558e-15
83 83 53.344793195223211
84 83 4.1858708407541212e-15
85 83 27.177089684655286
86 83 1.8355242068991842
87 83 -1.5015025328938242e-15
88 83 2.857656044207143e-15
89 83 27.314161696012853
90 83 2.1765838337125897e-15
91 83 13.91549910730752
92 83 0.93984439684020271
93 83 -7.688151085545131e-16
94 83 8.2462082458453385e-15
95 83 1.8386488108628054
96 83 3.4689532783266973e-15
97 83 -1.4473155159103794e-15
98 83 1.0751137946847129e-30
99 83 1.9425664588147136e-16
100 83 0.93671979286657892
101 83 0.063265488499270259
102 83 -5.1752676902526348e-17
103 83 3.5902711735379135e-16
104 83 -8.2242035636244206e-16
105 83 6.1731746871346964e-31
106 83 -8.0191313746360627e-17
107 83 8.9025636711386672e-32
108 83 -4.9329174259018196e-47
73 84 5.1499440703333608e-31
74 84 3.1815890795138564e-15
75 84 4.861925068441228e-15
76 84 8.1409156352393651e-31
77 84 6.6748095012118238e-15
78 84 1.9588262554483862e-31
79 84 -1.6411185974074408e-31
80 84 -1.9655470176928722e-46
81 84 2.5958232274508561
82 84 28.116934081485965
83 84 4.1858708407541212e-15
84 84 53.408058683714252
85 84 1.3828405937121703e-15
86 84 -6.4762877552589941e-16
87 84 -2.1097750369674183e-30
88 84 19.679487564740743
89 84 5.0112049415450998e-15
90 84 28.250881488875141
91 84 9.5314767593027225e-16
92 84 -1.1421382228793656e-15
93 84 -4.7075893837203842e-31
94 84 6.1605086267893484e-31
95 84 5.9683100148492528e-15
96 84 1.8650718412617654e-31
97 84 -1.8770586749579876e-31
98 84 -1.4269372585042436e-46
99 84 2.6002420847629542
100 84 5.4538373689004517e-16
101 84 -1.6683183956510388e-15
102 84 1.165050397380074e-30
103 84 1.8041714740287156e-32
104 84 -4.7709662997171021e-32
105 84 1.1619618778406662e-47
106 84 2.5816629489993918e-32
107 84 5.276575446702853e-47
108 84 -7.0713756195758887e-62
73 85 2.2199349781514745e-47
74 85 1.8869223725132763e-31
75 85 1.9387263939365492e-31
76 85 3.3486584687347943e-15
77 85 1.7266671047470567e-31
78 85 3.4392820042223687e-15
79 85 3.3598285450201426e-15
80 85 -2.7224182388497449e-31
81 85 7.0352198154888518e-16
82 85 1.2987500091824088e-15
83 85 27.177089684655286
84 85 1.3828405937121703e-15
85 85 27.912573454597805
86 85 27.267743947496861
87 85 -2.2094640384247681e-15
88 85 7.5600412102696566e-16
89 85 13.915499107307523
90 85 7.3526157416526531e-16
91 85 14.292089237042328
92 85 13.961916855796529
93 85 -1.1313129997023783e-15
94 85 4.2011211898362322e-15
95 85 0.93671979286657914
96 85 3.3049051840312744e-15
97 85 2.1409837941366095e-15
98 85 3.8983402797569308e-31
99 85 6.6569448697437437e-17
100 85 0.96206990252491953
101 85 0.93984439683620036
102 85 -7.6154169575705804e-17
103 85 3.6874333864488231e-16
104 85 -6.0757016355696209e-16
105 85 6.2778997941270096e-31
106 85 -1.191287045864194e-15
107 85 7.0170521842970566e-31
108 85 -7.2587980494733236e-47
73 86 -8.1848055746542352e-47
74 86 -6.7241451461707607e-31
75 86 -3.0272268248279145e-31
76 86 2.2616636848614175e-16
77 86 -8.9000997932713961e-32
78 86 3.3598285450201423e-15
79 86 6.5617741044665819e-15
80 86 -5.3967142404325342e-32
81 86 -2.3265938674545753e-15
82 86 -1.3473269151405252e-15
83 86 1.8355242068991842
84 86 -6.4762877552589941e-16
85 86 27.267743947496861
86 86 53.254138932317872
87 86 -4.3798729635782081e-16
88 86 -3.6565130373842248e-16
89 86 0.93984439684020848
90 86 -3.1997622761103253e-16
91 86 13.961916855796531
92 86 27.267743947491198
93 86 -2.2426285898156854e-16
94 86 2.8374118529753682e-16
95 86 0.063265488499270647
96 86 2.9976966719327037e-15
97 86 5.7643368186682015e-15
98 86 -5.2344395263182676e-33
99 86 -2.8804090481354664e-17
100 86 0.93984439683620047
101 86 1.8355242068909863
102 86 -1.5096221644149705e-17
103 86 3.6022471941646628e-16
104 86 -3.4490198460353575e-16
105 86 6.2935809336551194e-31
106 86 -2.3265938674532268e-15
107 86 1.2506627955489587e-30
108 86 -1.4389287524964156e-47
73 87 -3.6041994157488307e-62
74 87 -5.4401118050138568e-47
75 87 -1.5174052646837593e-46
76 87 -1.8500947787064066e-31
77 87 -2.7234159640592473e-46
78 87 -2.7224182388497441e-31
79 87 -5.3967142404323853e-32
80 87 1.014776901796579e-14
81 87 1.7495692759808543e-30
82 87 2.6146732236167075e-31
83 87 -1.5015025328938242e-15
84 87 -2.1097750369674183e-30
85 87 -2.2094640384247681e-15
86 87 -4.3798729635782081e-16
87 87 82.357407086656508
88 87 -2.6936587197911453e-31
89 87 -7.6881510855450925e-16
90 87 -1.1149225658118054e-30
91 87 -1.1313129997023786e-15
92 87 -2.242628589815747e-16
93 87 42.169505200098527
94 87 -2.3210704975134266e-31
95 87 -5.1752676902526089e-17
96 87 -2.5553554029517142e-31
97 87 -1.4899219125078958e-33
98 87 9.002226367845909e-15
99 87 -1.0491735503726499e-31
100 87 -7.6154169575705828e-17
101 87 -1.5096221644150121e-17
102 87 2.8386340922244777
103 87 -2.9188464026757063e-32
104 87 6.416434616562988e-32
105 87 7.6932876643341967e-16
106 87 1.9135011440947082e-32
107 87 -2.5442212709540089e-15
108 87 2.7057049832739308e-30
73 88 8.6183819396994605e-31
74 88 4.9056932654544766e-15
75 88 5.0217034411227444e-15
76 88 7.0998684067406239e-31
77 88 4.8893838117775859e-15
78 88 1.8782980495940999e-31
79 88 -9.0846347465733127e-32
80 88 -6.6924157936903418e-47
81 88 13.961916855801721
82 88 20.212066433676473
83 88 2.857656044207143e-15
84 88 19.679487564740743
85 88 7.5600412102696566e-16
86 88 -3.6565130373842248e-16
87 88 -2.6936587197911453e-31
88 88 14.630069558733826
89 88 2.9252291217698778e-15
90 88 20.144869455925001
91 88 7.7388351862422019e-16
92 88 -3.7429867208357525e-16
93 88 -2.7572974697502168e-31
94 88 2.924444542482418e-31
95 88 2.8481506487615801e-15
96 88 1.0941430275623789e-31
97 88 -5.2919628397586062e-32
98 88 -3.8983616123597982e-47
99 88 13.869235679120044
100 88 7.5349203562621383e-16
101 88 -3.6443607025231083e-16
102 88 -2.684643920318369e-31
103 88 2.0467971735705531e-32
104 88 -1.400014375757054e-32
105 88 -1.0313304277571462e-47
106 88 4.7880666380518894e-33
107 88 4.9881616586840703e-48
108 88 2.5983093609667678e-63
73 89 4.133097211665256e-46
74 89 1.91682594691258e-30
75 89 1.7061589265997564e-30
76 89 6.7862244679601249e-15
77 89 1.6793747727519967e-30
78 89 3.4573164491324082e-15
79 89 2.3350506279104542e-16
80 89 -1.9101270465758522e-31
81 89 4.2151348148797676e-15
82 89 5.0716992077782049e-15
83 89 27.314161696012853
84 89 5.0112049415450998e-15
85 89 13.915499107307523
86 89 0.93984439684020848
87 89 -7.6881510855450925e-16
88 89 2.9252291217698778e-15
89 89 27.960088893256415
90 89 4.1027682970672799e-15
91 89 14.244573798405398
92 89 0.96206990252888103
93 89 -7.8699610173398883e-16
94 89 5.5905179365102107e-15
95 89 27.223353112842506
96 89 3.0597565566674674e-15
97 89 -3.6979861890177385e-16
98 89 -4.8388358855684813e-31
99 89 2.8761975827597547e-15
100 89 13.869235679123038
101 89 0.93671979287001728
102 89 -7.6625910806272497e-16
103 89 7.5349203562637653e-16
104 89 -2.2171027208742043e-16
105 89 -2.1926953405835075e-31
106 89 -2.461379185841096e-17
107 89 1.4161548779303421e-33
108 89 1.4832344791329473e-47
73 90 5.3170505480669683e-31
74 90 1.7467716624972939e-15
75 90 5.0063688826782865e-15
76 90 7.2599012350932766e-31
77 90 8.2944600658948139e-15
78 90 2.3167597503086043e-31
79 90 -1.031976732983046e-31
80 90 -2.9446205543866721e-46
81 90 1.32914069252661
82 90 14.877569009829658
83 90 2.1765838337125897e-15
84 90 28.250881488875141
85 90 7.3526157416526531e-16
86 90 -3.1997622761103253e-16
87 90 -1.1149225658118054e-30
88 90 20.144869455925001
89 90 4.1027682970672799e-15
90 90 41.829324572372272
91 90 1.2486130496712637e-15
92 90 -5.6742205677086315e-16
93 90 -1.3179980445585683e-30
94 90 4.1765176126183516e-31
95 90 5.9868727508212954e-15
96 90 1.7933369300791448e-31
97 90 -8.1578573186381522e-32
98 90 -1.8734087956682349e-46
99 90 38.499635185447929
100 90 1.7427622708556456e-15
101 90 -8.0738503434851567e-16
102 90 -1.4710537940997617e-30
103 90 3.7864238406407985e-32
104 90 -2.4534537101577409e-32
105 90 -5.1736938766314327e-47
106 90 7.9241144092275631e-33
107 90 2.4537000214242527e-47
108 90 2.1262281989116395e-62
73 91 2.2919678992725991e-47
74 91 1.2851559197617945e-31
75 91 1.9958941894717481e-31
76 91 3.4573164491324074e-15
77 91 2.3874995577285709e-31
78 91 3.5508805563248928e-15
79 91 3.4688489744227488e-15
80 91 -2.8107558434137617e-31
81 91 3.6022471941660019e-16
82 91 7.9531749498918978e-16
83 91 13.91549910730752
84 91 9.5314767593027225e-16
85 91 14.292089237042328
86 91 13.961916855796531
87 91 -1.1313129997023786e-15
88 91 7.7388351862422019e-16
89 91 14.244573798405398
90 91 1.2486130496712637e-15
91 91 14.630069558730446
92 91 14.292089237040315
93 91 -1.1580663682334842e-15
94 91 2.8481506487621958e-15
95 91 13.869235679123042
96 91 2.6012486764888381e-15
97 91 1.7629693164717569e-15
98 91 -3.5356438214295978e-31
99 91 9.856388004662939e-16
100 91 14.244573798399031
101 91 13.91549910729934
102 91 -1.1275518397675243e-15
103 91 7.7388351862404142e-16
104 91 2.6990745049641217e-16
105 91 -2.3828630534899031e-31
106 91 -3.656517148885503e-16
107 91 -1.695159106902045e-31
108 91 2.1825825600706306e-47
73 92 -8.4503878823134195e-47
74 92 -4.497902104412749e-31
75 92 -3.1042902770182076e-31
76 92 2.3350506279104394e-16
77 92 -3.1487801590064049e-31
78 92 3.468848974422748e-15
79 92 6.7746919426616728e-15
80 92 -5.5718279689967944e-32
81 92 -1.1912870458646371e-15
82 92 -1.1208423125578462e-15
83 92 0.93984439684020271
84 92 -1.1421382228793656e-15
85 92 13.961916855796529
86 92 27.267743947491198
87 92 -2.242628589815747e-16
88 92 -3.7429867208357525e-16
89 92 0.96206990252888103
90 92 -5.6742205677086315e-16
91 92 14.292089237040315
92 92 27.912573454588077
93 92 -2.2956624267445613e-16
94 92 1.9236237291627305e-16
95 92 0.93671979287002316
96 92 2.0566494775532206e-15
97 92 3.9289706686372865e-15
98 92 -4.5278067275500974e-32
99 92 -4.2647835825712462e-16
100 92 13.915499107299341
101 92 27.177089684633664
102 92 -2.2351727532762027e-16
103 92 7.560054491610597e-16
104 92 7.8547786018112028e-16
105 92 -1.9905283537150138e-31
106 92 -7.1412095047698414e-16
107 92 -3.6782913183581138e-31
108 92 4.3265851715088509e-48
73 93 -3.7211492430071153e-62
74 93 5.1474722982035877e-47
75 93 -1.5573224482983847e-46
76 93 -1.9101270465758619e-31
77 93 -3.7937239469573289e-46
78 93 -2.8107558434137608e-31
79 93 -5.5718279689966411e-32
80 93 1.0477045979868159e-14
81 93 8.9583284967523734e-31
82 93 4.5796312471507374e-31
83 93 -7.688151085545131e-16
84 93 -4.7075893837203842e-31
85 93 -1.1313129997023783e-15
86 93 -2.2426285898156854e-16
87 93 42.169505200098527
88 93 -2.7572974697502168e-31
89 93 -7.8699610173398883e-16
90 93 -1.3179980445585683e-30
91 93 -1.1580663682334842e-15
92 93 -2.2956624267445613e-16
93 93 43.166732594127176
94 93 -1.5735700410902356e-31
95 93 -7.6625910806272112e-16
96 93 -1.9316793197555724e-31
97 93 -1.8219501356920274e-32
98 93 6.1030605191572576e-15
99 93 -1.5534245512086821e-30
100 93 -1.1275518397675245e-15
101 93 -2.2351727532762644e-16
102 93 42.029308584773716
103 93 -6.125797777736076e-32
104 93 1.2363685025185392e-32
105 93 1.6145941915429669e-15
106 93 5.8732693955541892e-33
107 93 -7.8091915295309432e-16
108 93 -8.1355404420134805e-31
73 94 9.9104986763158074e-62
74 94 3.5512945892589826e-46
75 94 2.4076006216659355e-46
76 94 3.2544537504262226e-30
77 94 2.4313102225000156e-46
78 94 1.6580171400772105e-30
79 94 1.1198147525648478e-31
80 94 -9.1603514735903564e-47
81 94 6.3627944827033033e-31
82 94 6.1004327059445417e-31
83 94 8.2462082458453385e-15
84 94 6.1605086267893484e-31
85 94 4.2011211898362322e-15
86 94 2.8374118529753682e-16
87 94 -2.3210704975134266e-31
88 94 2.924444542482418e-31
89 94 5.5905179365102107e-15
90 94 4.1765176126183516e-31
91 94 2.8481506487621958e-15
92 94 1.9236237291627305e-16
93 94 -1.5735700410902356e-31
94 94 53.435601778410479
95 94 5.6455701113834356e-15
96 94 38.499635185462004
97 94 2.6002420847734498
98 94 -2.1270599765175936e-15
99 94 2.9823245946880889e-31
100 94 2.8761975827603755e-15
101 94 1.942566458822264e-16
102 94 -1.5890656452652379e-31
103 94 13.869235679126033
104 94 1.3247218352203811
105 94 -1.0836540229144508e-15
106 94 0.063265488499516145
107 94 -7.3189337564950057e-17
108 94 4.2334922722023835e-32
73 95 1.8030412998289438e-46
74 95 4.0223072225937097e-31
75 95 1.3914055023160316e-30
76 95 2.9604537128009851e-15
77 95 2.5224134281062553e-30
78 95 1.5082355979360299e-15
79 95 1.0186532045341702e-16
80 95 -8.3328259088029463e-32
81 95 2.8374118529643227e-16
82 95 3.1066620202527569e-15
83 95 1.8386488108628054
84 95 5.9683100148492528e-15
85 95 0.93671979286657914
86 95 0.063265488499270647
87 95 -5.1752676902526089e-17
88 95 2.8481506487615801e-15
89 95 27.223353112842506
90 95 5.9868727508212954e-15
91 95 13.869235679123042
92 95 0.93671979287002316
93 95 -7.6625910806272112e-16
94 95 5.6455701113834356e-15
95 95 53.435601778402479
96 95 3.4017987554174317e-15
97 95 -4.5457063733469468e-16
98 95 -2.2684435963164422e-30
99 95 5.6455701113825907e-15
100 95 27.223353112844311
101 95 1.8386488108696766
102 95 -1.5040585333858635e-15
103 95 9.8563946819968223e-16
104 95 -2.5449393662935019e-16
105 95 -1.1369442154227905e-30
106 95 -2.8804084555676257e-17
107 95 -5.7526713929320367e-32
108 95 8.582500360461238e-47
73 96 7.7721901323151222e-63
74 96 3.5385500639766838e-47
75 96 5.4479288673881867e-47
76 96 1.3000084858284571e-30
77 96 6.8448452976280612e-47
78 96 1.2691372764488009e-30
79 96 1.1806969129696633e-30
80 96 -9.8906236019412494e-47
81 96 7.689975142213515e-32
82 96 1.5098433581168831e-31
83 96 3.4689532783266973e-15
84 96 1.8650718412617654e-31
85 96 3.3049051840312744e-15
86 96 2.9976966719327037e-15
87 96 -2.5553554029517142e-31
88 96 1.0941430275623789e-31
89 96 3.0597565566674674e-15
90 96 1.7933369300791448e-31
91 96 2.6012486764888381e-15
92 96 2.0566494775532206e-15
93 96 -1.9316793197555724e-31
94 96 38.499635185462004
95 96 3.4017987554174317e-15
96 96 41.829324572375988
97 96 28.250881488872917
98 96 -2.9794843064232136e-15
99 96 1.4453365403926635e-31
100 96 2.785770116413417e-15
101 96 2.0876345728061352e-15
102 96 -2.0384950081994426e-31
103 96 20.144869455924695
104 96 14.877569009831005
105 96 -1.9145479415015745e-15
106 96 1.3291406925312816
107 96 -8.44969278130229e-16
108 96 8.8099742154351206e-32
73 97 -2.8655733500454283e-62
74 97 -1.2231229503387005e-46
75 97 -5.6590820312422735e-47
76 97 -3.9132201722350682e-31
77 97 -6.0642056922935525e-47
78 97 9.3660203842085634e-31
79 97 2.2811461184412004e-30
80 97 -5.6510179994772308e-48
81 97 -2.5431257979120984e-31
82 97 -1.7710870814082871e-31
83 97 -1.4473155159103794e-15
84 97 -1.8770586749579876e-31
85 97 2.1409837941366095e-15
86 97 5.7643368186682015e-15
87 97 -1.4899219125078958e-33
88 97 -5.2919628397586062e-32
89 97 -3.6979861890177385e-16
90 97 -8.1578573186381522e-32
91 97 1.7629693164717569e-15
92 97 3.9289706686372865e-15
93 97 -1.8219501356920274e-32
94 97 2.6002420847734498
95 97 -4.5457063733469468e-16
96 97 28.250881488872917
97 97 53.408058683691813
98 97 -4.9048555691463584e-16
99 97 -6.2538604870676946e-32
100 97 1.7389971250591608e-15
101 97 3.964869292303265e-15
102 97 -1.6115322442348126e-32
103 97 19.679487564737677
104 97 28.116934081479386
105 97 -9.9233238388189583e-16
106 97 2.5958232274594408
107 97 -1.5165987545371625e-15
108 97 1.7464220826837088e-32
73 98 -1.2618623252337254e-77
74 98 3.0760198790564519e-62
75 98 -3.1374460873316996e-62
76 98 -2.7196145521882715e-46
77 98 -1.0833169738904372e-61
78 98 -2.0086848011684669e-46
79 98 -2.6023443673320881e-47
80 98 3.5528243395724003e-30
81 98 1.9123985596373846e-46
82 98 5.1016973793998802e-47
83 98 1.0751137946847129e-30
84 98 -1.4269372585042436e-46
85 98 3.8983402797569308e-31
86 98 -5.2344395263182676e-33
87 98 9.002226367845909e-15
88 98 -3.8983616123597982e-47
89 98 -4.8388358855684813e-31
90 98 -1.8734087956682349e-46
91 98 -3.5356438214295978e-31
92 98 -4.5278067275500974e-32
93 98 6.1030605191572576e-15
94 98 -2.1270599765175936e-15
95 98 -2.2684435963164422e-30
96 98 -2.9794843064232136e-15
97 98 -4.9048555691463584e-16
98 98 82.497603702007439
99 98 -2.2779351477871967e-46
100 98 -1.2637807559208318e-30
101 98 -1.0696425129709999e-31
102 98 6.1631599158103445e-15
103 98 -1.5945991040783127e-15
104 98 -2.9967144490367652e-16
105 98 42.029308584782797
106 98 -2.1349281389830342e-17
107 98 2.8386340922355107
108 98 -3.2839033369921623e-15
73 99 1.6401586010288325e-31
74 99 1.4405931772014299e-16
75 99 2.1329672378545671e-15
76 99 3.1277740759324347e-31
77 99 4.1867137914203108e-15
78 99 1.0718510810281572e-31
79 99 -4.6378175160794617e-32
80 99 -1.6893001611959628e-46
81 99 0.063265488499024358
82 99 1.3247218352149464
83 99 1.9425664588147136e-16
84 99 2.6002420847629542
85 99 6.6569448697437437e-17
86 99 -2.8804090481354664e-17
87 99 -1.0491735503726499e-31
88 99 13.869235679120044
89 99 2.8761975827597547e-15
90 99 38.499635185447929
91 99 9.856388004662939e-16
92 99 -4.2647835825712462e-16
93 99 -1.5534245512086821e-30
94 99 2.9823245946880889e-31
95 99 5.6455701113825907e-15
96 99 1.4453365403926635e-31
97 99 -6.2538604870676946e-32
98 99 -2.2779351477871967e-46
99 99 53.435601778394478
100 99 1.9346712324703149e-15
101 99 -8.3711668197881389e-16
102 99 -3.0491570729202167e-30
103 99 3.5023024474776612e-32
104 99 -2.1431248303318246e-32
105 99 -7.8062286599164987e-47
106 99 6.5570922375545454e-33
107 99 3.3776923566559978e-47
108 99 8.6995921689727826e-62
73 100 9.9985859722995965e-48
74 100 3.1998623149321422e-32
75 100 1.229542512220969e-31
76 100 1.5082355979360295e-15
77 100 2.0340469088379454e-31
78 100 1.5490524335462674e-15
79 100 1.5132665997065951e-15
80 100 -1.2261770313814248e-31
81 100 2.4248474449625958e-17
82 100 2.8985545380755078e-16
83 100 0.93671979286657892
84 100 5.4538373689004517e-16
85 100 0.96206990252491953
86 100 0.93984439683620047
87 100 -7.6154169575705828e-17
88 100 7.5349203562621383e-16
89 100 13.869235679123038
90 100 1.7427622708556456e-15
91 100 14.244573798399031
92 100 13.915499107299341
93 100 -1.1275518397675245e-15
94 100 2.8761975827603755e-15
95 100 27.223353112844311
96 100 2.785770116413417e-15
97 100 1.7389971250591608e-15
98 100 -1.2637807559208318e-30
99 100 1.9346712324703149e-15
100 100 27.960088893245771
101 100 27.314161695998607
102 100 -2.2132251983599917e-15
103 100 1.0123134733746847e-15
104 100 3.8955032643293727e-16
105 100 -1.1848264233132602e-30
106 100 -4.2790086851160131e-16
107 100 -1.0775855374092623e-30
108 100 1.2629166778466985e-46
73 101 -3.6864359997103197e-47
74 101 -1.0748967359640525e-31
75 101 -2.6772740918847309e-31
76 101 1.0186532045341639e-16
77 101 -5.0329919315313497e-31
78 101 1.5132665997065949e-15
79 101 2.9554227110268809e-15
80 101 -2.4306798096325297e-32
81 101 -8.0191313746048953e-17
82 101 -8.5697119621281554e-16
83 101 0.063265488499270259
84 101 -1.6683183956510388e-15
85 101 0.93984439683620036
86 101 1.8355242068909863
87 101 -1.5096221644150121e-17
88 101 -3.6443607025231083e-16
89 101 0.93671979287001728
90 101 -8.0738503434851567e-16
91 101 13.91549910729934
92 101 27.177089684633664
93 101 -2.2351727532762644e-16
94 101 1.942566458822264e-16
95 101 1.8386488108696766
96 101 2.0876345728061352e-15
97 101 3.964869292303265e-15
98 101 -1.0696425129709999e-31
99 101 -8.3711668197881389e-16
100 101 27.314161695998607
101 101 53.344793195184309
102 101 -4.3873288001184229e-16
103 101 9.8892725289090521e-16
104 101 1.0631227271944532e-15
105 101 -1.1133345747903234e-30
106 101 -8.3569408398527434e-16
107 101 -2.1475555494264004e-30
108 101 2.5035096821473376e-47
73 102 -1.6233312270111781e-62
74 102 6.1527548296713179e-47
75 102 -1.2619793080543519e-46
76 102 -8.3328259088029879e-32
77 102 -3.2663969834767576e-46
78 102 -1.2261770313814243e-31
79 102 -2.4306798096324629e-32
80 102 4.5705546311837056e-15
81 102 6.0302857620838133e-32
82 102 6.1852231297175488e-31
83 102 -5.1752676902526348e-17
84 102 1.165050397380074e-30
85 102 -7.6154169575705804e-17
86 102 -1.5096221644149705e-17
87 102 2.8386340922244777
88 102 -2.684643920318369e-31
89 102 -7.6625910806272497e-16
90 102 -1.4710537940997617e-30
91 102 -1.1275518397675243e-15
92 102 -2.2351727532762027e-16
93 102 42.029308584773716
94 102 -1.5890656452652379e-31
95 102 -1.5040585333858635e-15
96 102 -2.0384950081994426e-31
97 102 -1.6115322442348126e-32
98 102 6.1631599158103445e-15
99 102 -3.0491570729202167e-30
100 102 -2.2132251983599917e-15
101 102 -4.3873288001184229e-16
102 102 82.497603701995089
103 102 -8.0131279143877681e-32
104 102 1.3284801527732737e-32
105 102 2.1120432400957911e-15
106 102 6.873144506176472e-33
107 102 -9.1386412309818639e-16
108 102 -4.7075010565385585e-30
73 103 3.0476236073376182e-64
74 103 1.6829904536455737e-48
75 103 3.5321006173679511e-48
76 103 9.1943689366300371e-32
77 103 4.6203245814486321e-48
78 103 9.4431928245822071e-32
79 103 9.22503847291649e-32
80 103 -7.4749091080800635e-48
81 103 4.6469925948902646e-33
82 103 1.3792353902669903e-32
83 103 3.5902711735379135e-16
84 103 1.8041714740287156e-32
85 103 3.6874333864488231e-16
86 103 3.6022471941646628e-16
87 103 -2.9188464026757063e-32
88 103 2.0467971735705531e-32
89 103 7.5349203562637653e-16
90 103 3.7864238406407985e-32
91 103 7.7388351862404142e-16
92 103 7.560054491610597e-16
93 103 -6.125797777736076e-32
94 103 13.869235679126033
95 103 9.8563946819968223e-16
96 103 20.144869455924695
97 103 19.679487564737677
98 103 -1.5945991040783127e-15
99 103 3.5023024474776612e-32
100 103 1.0123134733746847e-15
101 103 9.8892725289090521e-16
102 103 -8.0131279143877681e-32
103 103 14.630069558727065
104 103 20.212066433664283
105 103 -1.6377531640835699e-15
106 103 13.961916855791337
107 103 -1.5999181874674977e-15
108 103 9.1668580791165342e-32
73 104 -1.5890751644500872e-63
74 104 -8.3232656053692818e-48
75 104 -1.0416425351286221e-47
76 104 -2.3531286119694094e-31
77 104 -1.3459153162717499e-47
78 104 -1.8096001452227295e-31
79 104 -1.1310698854653219e-31
80 104 1.8439861402883104e-47
81 104 -2.1733510723313221e-32
82 104 -3.6969718959470136e-32
83 104 -8.2242035636244206e-16
84 104 -4.7709662997171021e-32
85 104 -6.0757016355696209e-16
86 104 -3.4490198460353575e-16
87 104 6.416434616562988e-32
88 104 -1.400014375757054e-32
89 104 -2.2171027208742043e-16
90 104 -2.4534537101577409e-32
91 104 2.6990745049641217e-16
92 104 7.8547786018112028e-16
93 104 1.2363685025185392e-32
94 104 1.3247218352203811
95 104 -2.5449393662935019e-16
96 104 14.877569009831005
97 104 28.116934081479386
98 104 -2.9967144490367652e-16
99 104 -2.1431248303318246e-32
100 104 3.8955032643293727e-16
101 104 1.0631227271944532e-15
102 104 1.3284801527732737e-32
103 104 20.212066433664283
104 104 41.874490310372963
105 104 -1.3608792423763607e-15
106 104 38.562413305844586
107 104 -2.433726897404973e-15
108 104 2.5698636552838892e-32
73 105 -6.9975318620001931e-79
74 105 1.0273871792275915e-63
75 105 -4.9448295186803597e-63
76 105 -1.0914614025209718e-46
77 105 -1.0453360767931186e-62
78 105 -1.1369632609834727e-46
79 105 -1.069540567938456e-46
80 105 1.9701833567019957e-31
81 105 1.6343326247270629e-47
82 105 2.0778823768026096e-47
83 105 6.1731746871346964e-31
84 105 1.1619618778406662e-47
85 105 6.2778997941270096e-31
86 105 6.2935809336551194e-31
87 105 7.6932876643341967e-16
88 105 -1.0313304277571462e-47
89 105 -2.1926953405835075e-31
90 105 -5.1736938766314327e-47
91 105 -2.3828630534899031e-31
92 105 -1.9905283537150138e-31
93 105 1.6145941915429669e-15
94 105 -1.0836540229144508e-15
95 105 -1.1369442154227905e-30
96 105 -1.9145479415015745e-15
97 105 -9.9233238388189583e-16
98 105 42.029308584782797
99 105 -7.8062286599164987e-47
100 105 -1.1848264233132602e-30
101 105 -1.1133345747903234e-30
102 105 2.1120432400957911e-15
103 105 -1.6377531640835699e-15
104 105 -1.3608792423763607e-15
105 105 43.1667325941172
106 105 -3.1715557670818991e-16
107 105 42.169505200082845
108 105 -4.8322704556238965e-15
73 106 4.1428342269569715e-63
74 106 2.0520723722417366e-47
75 106 6.2985976771138777e-48
76 106 -2.2895345865085691e-32
77 106 7.3708813789200065e-48
78 106 -3.4012323362010958e-31
79 106 -6.6426360654736693e-31
80 106 5.4632189523486613e-48
81 106 5.082270723647717e-32
82 106 2.206093873680151e-32
83 106 -8.0191313746360627e-17
84 106 2.5816629489993918e-32
85 106 -1.191287045864194e-15
86 106 -2.3265938674532268e-15
87 106 1.9135011440947082e-32
88 106 4.7880666380518894e-33
89 106 -2.461379185841096e-17
90 106 7.9241144092275631e-33
91 106 -3.656517148885503e-16
92 106 -7.1412095047698414e-16
93 106 5.8732693955541892e-33
94 106 0.063265488499516145
95 106 -2.8804084555676257e-17
96 106 1.3291406925312816
97 106 2.5958232274594408
98 106 -2.1349281389830342e-17
99 106 6.5570922375545454e-33
100 106 -4.2790086851160131e-16
101 106 -8.3569408398527434e-16
102 106 6.873144506176472e-33
103 106 13.961916855791337
104 106 38.562413305844586
105 106 -3.1715557670818991e-16
106 106 53.254138932287006
107 106 -6.194075746559953e-16
108 106 3.6022152572616027e-33
73 107 2.5799601500315583e-78
74 107 -4.5219295963604765e-63
75 107 5.2421427218684873e-63
76 107 6.1142930242791167e-48
77 107 2.1279576164988836e-62
78 107 -8.6418657631174556e-47
79 107 -2.029728138608015e-46
80 107 -7.2639819993525869e-31
81 107 -5.4048464181594409e-47
82 107 -2.391452431492799e-49
83 107 8.9025636711386672e-32
84 107 5.276575446702853e-47
85 107 7.0170521842970566e-31
86 107 1.2506627955489587e-30
87 107 -2.5442212709540089e-15
88 107 4.9881616586840703e-48
89 107 1.4161548779303421e-33
90 107 2.4537000214242527e-47
91 107 -1.695159106902045e-31
92 107 -3.6782913183581138e-31
93 107 -7.8091915295309432e-16
94 107 -7.3189337564950057e-17
95 107 -5.7526713929320367e-32
96 107 -8.44969278130229e-16
97 107 -1.5165987545371625e-15
98 107 2.8386340922355107
99 107 3.3776923566559978e-47
100 107 -1.0775855374092623e-30
101 107 -2.1475555494264004e-30
102 107 -9.1386412309818639e-16
103 107 -1.5999181874674977e-15
104 107 -2.433726897404973e-15
105 107 42.169505200082845
106 107 -6.194075746559953e-16
107 107 82.357407086608774
108 107 -9.5791243275333851e-16
73 108 8.0333824757453809e-94
74 108 -6.7952225099444518e-78
75 108 2.0431942094160122e-78
76 108 8.2473344337081577e-63
77 108 1.1822618261312314e-77
78 108 1.2135969433911717e-62
79 108 2.4057420028568315e-63
80 108 -4.5236625609907337e-46
81 108 2.8739481220437846e-62
82 108 -1.2220807099728912e-62
83 108 -4.9329174259018196e-47
84 108 -7.0713756195758887e-62
85 108 -7.2587980494733236e-47
86 108 -1.4389287524964156e-47
87 108 2.7057049832739308e-30
88 108 2.5983093609667678e-63
89 108 1.4832344791329473e-47
90 108 2.1262281989116395e-62
91 108 2.1825825600706306e-47
92 108 4.3265851715088509e-48
93 108 -8.1355404420134805e-31
94 108 4.2334922722023835e-32
95 108 8.582500360461238e-47
96 108 8.8099742154351206e-32
97 108 1.7464220826837088e-32
98 108 -3.2839033369921623e-15
99 108 8.6995921689727826e-62
100 108 1.2629166778466985e-46
101 108 2.5035096821473376e-47
102 108 -4.7075010565385585e-30
103 108 9.1668580791165342e-32
104 108 2.5698636552838892e-32
105 108 -4.8322704556238965e-15
106 108 3.6022152572616027e-33
107 108 -9.5791243275333851e-16
108 108 127.36554637883833
109 109 140.25929349239024
110 109 -1.9020053429156397e-14
111 109 -1.7668982957661727e-14
112 109 5.6469084417222131e-30
113 109 -7.7584279772775342e-15
114 109 1.3119269803148343e-30
115 109 -1.65889834012049e-30
116 109 -2.9247534345333776e-46
117 109 1.289620186451925e-30
118 109 1.6942466657925503e-30
119 109 -5.4147178829413356e-46
120 109 7.4394155927317956e-31
121 109 -1.2579829396450147e-46
122 109 1.5906874710177899e-46
123 109 2.804492916540371e-62
124 109 1.1129136294177338e-30
125 109 -5.030088813924013e-46
126 109 6.9109641470008804e-31
127 109 -1.1686233797610746e-46
128 109 1.4776945775186475e-46
129 109 2.605278567265974e-62
130 109 1.1367366167130662e-61
131 109 -2.208705610031523e-46
132 109 3.7348551663553516e-62
133 109 -4.7226294824506805e-62
134 109 -8.3263250464298955e-78
135 109 2.1457831128422759e-31
136 109 -5.1314104191307756e-47
137 109 6.4885381233109615e-47
138 109 1.143974510208752e-62
139 109 6.1356091237677998e-63
140 109 -1.0971924018246931e-62
141 109 -1.9344267023304258e-78
142 109 9.8102009298351543e-63
143 109 2.4460334254354626e-78
144 109 3.0494174182261514e-94
109 110 -1.9020053429156397e-14
110 110 88.923297334628458
111 110 46.359697970449815
112 110 -1.3186870230658926e-14
113 110 4.9762981870696166
114 110 -2.5512292134309178e-15
115 110 1.8269207509991783e-15
116 110 1.5397160151912901e-30
117 110 -1.2058565420381181e-14
118 110 -1.2366355432717132e-14
119 110 3.7959750939123262e-30
120 110 -3.9552728501392611e-15
121 110 8.3276983461573897e-31
122 110 -9.1886453557903319e-31
123 110 -2.787573197363173e-46
124 110 -5.8401029477059545e-15
125 110 2.4944346061951419e-30
126 110 -2.2565647760594091e-15
127 110 5.3387770648183785e-31
128 110 -5.5045236871809789e-31
129 110 -2.0551010465218125e-46
130 110 -5.3090990958095939e-46
131 110 6.5745272095807907e-31
132 110 -1.5984731239672903e-46
133 110 1.6229423242144706e-46
134 110 6.3277299941650409e-62
135 110 -2.7526340762729088e-16
136 110 1.3270074506867621e-31
137 110 -1.130751707927387e-31
138 110 -6.7561254132532902e-47
139 110 -2.3863134875072427e-47
140 110 3.3419693094003502e-47
141 110 1.3945422996008264e-62
142 110 -2.1607664817948429e-47
143 110 -1.5570753341187428e-62
144 110 -3.210688997170233e-78
109 111 -1.7668982957661727e-14
110 111 46.359697970449815
111 111 47.539063407226458
112 111 -8.1656658918152391e-15
113 111 46.360532114466992
114 111 -3.1772438109373893e-15
115 111 -1.5017093595823161e-15
116 111 -6.4107965898752778e-30
117 111 -6.286670283360837e-15
118 111 -8.6880107939629678e-15
119 111 2.1027804553333693e-30
120 111 -6.2587189244703172e-15
121 111 6.1128235007438161e-31
122 111 -2.4371982051770991e-31
123 111 5.4636260024298634e-46
124 111 -5.9886719820057885e-15
125 111 2.0807362100736686e-30
126 111 -5.9890716048935517e-15
127 111 5.9744142405220584e-31
128 111 -2.6381172890223686e-31
129 111 5.0095764016346371e-46
130 111 -3.2875374250765855e-46
131 111 1.6392014124710972e-30
132 111 -1.4445883323425966e-46
133 111 2.5539833105150833e-47
134 111 -1.7046534514015786e-61
135 111 -2.564427928053362e-15
136 111 4.3090097473768025e-31
137 111 -3.2898581379825238e-31
138 111 1.8239066388301999e-46
139 111 -2.9718614537745085e-47
140 111 1.6639686000648099e-47
141 111 -3.7716071566924865e-62
142 111 1.7761269873410766e-47
143 111 5.5829113101467513e-62
144 111 1.3368097669395108e-77
109 112 5.6469084417222131e-30
110 112 -1.3186870230658926e-14
111 112 -8.1656658918152391e-15
112 112 88.922463190577801
113 112 -5.1709694728292368e-15
114 112 46.360532114463993
115 112 4.9762981870837253
116 112 1.6921220035273146e-15
117 112 1.7882235829590922e-30
118 112 1.9576358765031873e-30
119 112 -8.526613395576024e-15
120 112 1.0116199992161375e-30
121 112 -4.4454271730020219e-15
122 112 -4.7716818968350314e-16
123 112 -1.6225450380816701e-31
124 112 1.0286591917654255e-30
125 112 -7.9209339413346264e-15
126 112 7.8000180491474331e-31
127 112 -4.1296507000812805e-15
128 112 -4.4327302459265811e-16
129 112 -1.5072891741700634e-31
130 112 3.5800622942306707e-30
131 112 -3.4780720341331095e-15
132 112 1.9079449240151817e-30
133 112 -6.020098614850726e-31
134 112 -8.2943397608169195e-47
135 112 2.8603162919902393e-31
136 112 -1.8133243777905825e-15
137 112 -1.9464062214632605e-16
138 112 -6.61848762135891e-32
139 112 4.3363709732682457e-31
140 112 -3.5480983065383124e-31
141 112 -5.7166599560139199e-47
142 112 -5.8856512085629003e-32
143 112 -2.1489090907630549e-47
144 112 -3.5284932058850042e-63
109 113 -7.7584279772775342e-15
110 113 4.9762981870696166
111 113 46.360532114466992
112 113 -5.1709694728292368e-15
113 113 88.922463190598705
114 113 -3.7393835908179223e-15
115 113 -2.7120971018205223e-15
116 113 -1.3669675780870048e-29
117 113 -6.748177253815172e-16
118 113 -4.8887001975937138e-15
119 113 6.3750245273311342e-31
120 113 -8.7212540177238045e-15
121 113 3.9147584431114534e-31
122 113 2.1844022356004147e-31
123 113 1.3034228534419869e-45
124 113 -5.8402080279188728e-15
125 113 1.7804270710740077e-30
126 113 -9.7342583191271901e-15
127 113 6.3972028645814068e-31
128 113 -1.4613788003845158e-31
129 113 1.1492935525341031e-45
130 113 -2.0818578534904515e-46
131 113 2.7337412299618375e-30
132 113 -1.4065522306900335e-46
133 113 -3.3963334267786697e-47
134 113 -3.8153017523929275e-61
135 113 -4.9187366415827789e-15
136 113 7.3439210229736258e-31
137 113 -6.375977389924072e-31
138 113 4.0355384712261593e-46
139 113 -3.4976635775238234e-47
140 113 1.333549746292788e-47
141 113 -8.4897298021216685e-62
142 113 3.2076971646316117e-47
143 113 1.1832136956097924e-61
144 113 2.8504657476769327e-77
109 114 1.3119269803148343e-30
110 114 -2.5512292134309178e-15
111 114 -3.1772438109373893e-15
112 114 46.360532114463993
113 114 -3.7393835908179223e-15
114 114 47.539063407231552
115 114 46.359697970457297
116 114 1.1030340603546714e-15
117 114 3.4596292867010071e-31
118 114 5.3191562639576975e-31
119 114 -4.4454271730020219e-15
120 114 4.5835029456696081e-31
121 114 -4.5584343968130305e-15
122 114 -4.4453471884491177e-15
123 114 -1.0576793149269272e-31
124 114 4.0024917672378605e-31
125 114 -4.1296507000812805e-15
126 114 4.5736579700808379e-31
127 114 -4.2346305687786278e-15
128 114 -4.1295763971510914e-15
129 114 -9.8254812268127721e-32
130 114 1.8664979242603314e-30
131 114 -1.8133243777905825e-15
132 114 1.6599920521404565e-30
133 114 9.3206661445252025e-31
134 114 -3.6956574103701663e-47
135 114 2.0684360762558061e-31
136 114 -1.8594209048122042e-15
137 114 -1.8132917514683005e-15
138 114 -4.3143563284305492e-32
139 114 4.4466058789438585e-31
140 114 -9.0957070518856386e-32
141 114 -6.2800552442665963e-47
142 114 -5.4831322828814696e-31
143 114 -7.7581942511275014e-47
144 114 -2.3000990352397968e-63
109 115 -1.65889834012049e-30
110 115 1.8269207509991783e-15
111 115 -1.5017093595823161e-15
112 115 4.9762981870837253
113 115 -2.7120971018205223e-15
114 115 46.359697970457297
115 115 88.923297334631997
116 115 -3.3629587596209748e-15
117 115 -2.477420884554227e-31
118 115 -1.874018536226204e-32
119 115 -4.7716818968350205e-16
120 115 1.88600730392539e-31
121 115 -4.4453471884491177e-15
122 115 -8.5266933801334815e-15
123 115 3.2246800392181176e-31
124 115 1.8917589288619713e-31
125 115 -4.4327302459265718e-16
126 115 3.0032226228405509e-31
127 115 -4.1295763971510914e-15
128 115 -7.9210082442690462e-15
129 115 2.9956181179552019e-31
130 115 2.0034822322055203e-31
131 115 -1.9464062214632563e-16
132 115 1.3527027399193981e-30
133 115 2.4898922333116125e-30
134 115 -1.0307580002318823e-46
135 115 1.5001936419385486e-31
136 115 -1.8132917514683005e-15
137 115 -3.4781046604572492e-15
138 115 1.3153721111890645e-31
139 115 4.3362929509140318e-31
140 115 2.0042109977713941e-31
141 115 -9.0599583579650848e-47
142 115 -1.0517285997441447e-30
143 115 -1.029916107083651e-46
144 115 7.0126014024156768e-63
109 116 -2.9247534345333776e-46
110 116 1.5397160151912901e-30
111 116 -6.4107965898752778e-30
112 116 1.6921220035273146e-15
113 116 -1.3669675780870048e-29
114 116 1.1030340603546714e-15
115 116 -3.3629587596209748e-15
116 116 140.25929349238584
117 116 -2.0879529723613965e-46
118 116 4.7756656430291015e-46
119 116 -1.6225450380816754e-31
120 116 1.2505366296065156e-45
121 116 -1.0576793149269331e-31
122 116 3.2246800392181097e-31
123 116 -1.3449208758286511e-14
124 116 8.0759180280981174e-46
125 116 -1.5072891741700682e-31
126 116 1.4684007450076865e-45
127 116 -9.825481226812828e-32
128 116 2.9956181179551945e-31
129 116 -1.2493857666031754e-14
130 116 6.8125667742144104e-47
131 116 -6.6184876213589319e-32
132 116 4.259335492671376e-47
133 116 -1.0988986063371604e-46
134 116 3.9929672518812112e-30
135 116 7.5613666929760638e-46
136 116 -4.3143563284305738e-32
137 116 1.3153721111890615e-31
138 116 -5.4860370340802001e-15
139 116 1.0317320927289232e-47
140 116 -3.1467457378801188e-47
141 116 9.276724642021803e-31
142 116 3.9774952271318379e-47
143 116 -1.1730182655982693e-30
144 116 -2.9247534345332855e-46
109 117 1.289620186451925e-30
110 117 -1.2058565420381181e-14
111 117 -6.286670283360837e-15
112 117 1.7882235829590922e-30
113 117 -6.748177253815172e-16
114 117 3.4596292867010071e-31
115 117 -2.477420884554227e-31
116 117 -2.0879529723613965e-46
117 117 56.376676453960179
118 117 41.566121910430311
119 117 -1.1823352601951277e-14
120 117 4.4617507482088117
121 117 -2.2874330323401768e-15
122 117 1.6380178038504578e-15
123 117 1.3805099342035716e-30
124 117 15.323202779737782
125 117 -6.1640433054128993e-15
126 117 2.3261105166886957
127 117 -1.1925412989247919e-15
128 117 8.5397205157403643e-16
129 117 7.1972166478221681e-31
130 117 1.2398005305146712e-30
131 117 -6.6165481805547654e-16
132 117 3.3921462050176687e-31
133 117 -2.4290966330053349e-31
134 117 -2.0472256315661261e-46
135 117 0.17655545689849386
136 117 -1.2800862308524455e-16
137 117 9.1666248014919197e-17
138 117 7.7255671897029858e-32
139 117 4.6405270819811145e-32
140 117 -4.6995095757913047e-32
141 117 -3.9607137602620362e-47
142 117 2.3796208774117924e-32
143 117 2.8362446303520397e-47
144 117 1.6902447947822229e-62
109 118 1.6942466657925503e-30
110 118 -1.2366355432717132e-14
111 118 -8.6880107939629678e-15
112 118 1.9576358765031873e-30
113 118 -4.8887001975937138e-15
114 118 5.3191562639576975e-31
115 118 -1.874018536226204e-32
116 118 4.7756656430291015e-46
117 118 41.566121910430311
118 118 45.462597932429347
119 118 -9.5356052622346761e-15
120 118 31.037024031428224
121 118 -2.8576018166957695e-15
122 118 -3.4822258434917801e-16
123 118 -3.5554749312420407e-30
124 118 22.221561326467015
125 118 -7.1685037010317754e-15
126 118 17.010130040088033
127 118 -1.9148756856609618e-15
128 118 1.2285324302824012e-16
129 118 -1.5970844484297715e-30
130 118 1.0857171288468125e-30
131 118 -4.6484271591703836e-15
132 118 4.4724585184197945e-31
133 118 3.48270824977049e-32
134 118 5.1308925324028127e-46
135 118 2.3261523700927458
136 118 -9.5599552200159351e-16
137 118 5.5058073273717836e-16
138 118 2.8147880499619075e-31
139 118 8.1730352594427527e-32
140 118 -1.4069426786734248e-32
141 118 8.1729759763042593e-47
142 118 -2.766234205166458e-32
143 118 -9.9987836260207116e-47
144 118 -9.9525868291596739e-62
109 119 -5.4147178829413356e-46
110 119 3.7959750939123262e-30
111 119 2.1027804553333693e-30
112 119 -8.526613395576024e-15
113 119 6.3750245273311342e-31
114 119 -4.4454271730020219e-15
115 119 -4.7716818968350205e-16
116 119 -1.6225450380816754e-31
117 119 -1.1823352601951277e-14
118 119 -9.5356052622346761e-15
119 119 56.376147613142656
120 119 -3.7462148944142121e-15
121 119 29.392215511286402
122 119 3.1549342100315481
123 119 1.0727921430295166e-15
124 119 -3.8169419501572733e-15
125 119 29.391410962085878
126 119 -1.9988648478800844e-15
127 119 15.323478488131848
128 119 1.6448085201445839
129 119 5.5929459688526172e-16
130 119 -1.1823241693117175e-14
131 119 3.154904615195596
132 119 -5.9761594812872196e-15
133 119 6.9038202316916637e-16
134 119 8.1706919060823847e-31
135 119 -2.594548066273259e-16
136 119 1.6448381149656337
137 119 0.17655545689899443
138 119 6.003526360961223e-17
139 119 -1.1925627561652336e-15
140 119 5.1334452816181145e-16
141 119 4.7815058105550023e-31
142 119 9.166624801517909e-17
143 119 7.666842281040469e-32
144 119 2.626973252003441e-47
109 120 7.4394155927317956e-31
110 120 -3.9552728501392611e-15
111 120 -6.2587189244703172e-15
112 120 1.0116199992161375e-30
113 120 -8.7212540177238045e-15
114 120 4.5835029456696081e-31
115 120 1.88600730392539e-31
116 120 1.2505366296065156e-45
117 120 4.4617507482088117
118 120 31.037024031428224
119 120 -3.7462148944142121e-15
120 120 56.552703070054406
121 120 -2.4612557756936052e-15
122 120 -1.6546305687472121e-15
123 120 -8.6118397421968636e-30
124 120 21.670671100649837
125 120 -6.0678681790507842e-15
126 120 31.036249077058532
127 120 -2.0792421698923444e-15
128 120 -2.9256517224769144e-16
129 120 -4.0092886024710524e-30
130 120 6.8753855518654229e-31
131 120 -8.5437566299902651e-15
132 120 4.4562533419184443e-31
133 120 1.8763192403770262e-31
134 120 1.2284278055108738e-45
135 120 4.4617088948041319
136 120 -1.7501148586517926e-15
137 120 1.0620193901749259e-15
138 120 4.9116857900998085e-31
139 120 9.6190647476057965e-32
140 120 6.2472778547211148e-34
141 120 2.0759328429346619e-46
142 120 -4.9958373921804857e-32
143 120 -2.0782418733428631e-46
144 120 -2.1221798762174897e-61
109 121 -1.2579829396450147e-46
110 121 8.3276983461573897e-31
111 121 6.1128235007438161e-31
112 121 -4.4454271730020219e-15
113 121 3.9147584431114534e-31
114 121 -4.5584343968130305e-15
115 121 -4.4453471884491177e-15
116 121 -1.0576793149269331e-31
117 121 -2.2874330323401768e-15
118 121 -2.8576018166957695e-15
119 121 29.392215511286402
120 121 -2.4612557756936052e-15
121 121 30.139395152694792
122 121 29.391686670496746
123 121 6.9931498495719178e-16
124 121 -1.4851642656602173e-15
125 121 15.323478488131848
126 121 -1.3486992681439159e-15
127 121 15.713016702499239
128 121 15.323202779740257
129 121 3.6458422551729493e-16
130 121 -6.1641542142421514e-15
131 121 1.6448381149656337
132 121 -5.3127873765555972e-15
133 121 -3.754776527189708e-15
134 121 4.0522439077468584e-31
135 121 -1.8762459371670294e-16
136 121 1.6866515519553738
137 121 1.6448085201401861
138 121 3.9134849878278691e-17
139 121 -1.2228788992601227e-15
140 121 -2.2404301052666813e-16
141 121 5.0180321605500716e-31
142 121 8.5397205157417438e-16
143 121 5.2328743009795961e-31
144 121 1.7124302896364395e-47
109 122 1.5906874710177899e-46
110 122 -9.1886453557903319e-31
111 122 -2.4371982051770991e-31
112 122 -4.7716818968350314e-16
113 122 2.1844022356004147e-31
114 122 -4.4453471884491177e-15
115 122 -8.5266933801334815e-15
116 122 3.2246800392181097e-31
117 122 1.6380178038504578e-15
118 122 -3.4822258434917801e-16
119 122 3.1549342100315481
120 122 -1.6546305687472121e-15
121 122 29.391686670496746
122 122 56.376676453962425
123 122 -2.1320896053199e-15
124 122 -7.0195591241112014e-16
125 122 1.6448085201445806
126 122 -9.4970502670258559e-16
127 122 15.323202779740257
128 122 29.391686670493169
129 122 -1.1115538122447276e-15
130 122 -6.6165481805735107e-16
131 122 0.17655545689899407
132 122 -4.449152586219891e-15
133 122 -8.295554975622231e-15
134 122 3.7080599420238932e-31
135 122 -1.3608021335356507e-16
136 122 1.6448085201401861
137 122 3.1549342100227284
138 122 -1.1931534205053598e-16
139 122 -1.1925412989249843e-15
140 122 -1.0136099800660236e-15
141 122 5.7009019556027504e-31
142 122 1.6380178038505229e-15
143 122 9.3236435625944117e-31
144 122 -5.2209017379947831e-47
109 123 2.804492916540371e-62
110 123 -2.787573197363173e-46
111 123 5.4636260024298634e-46
112 123 -1.6225450380816701e-31
113 123 1.3034228534419869e-45
114 123 -1.0576793149269272e-31
115 123 3.2246800392181176e-31
116 123 -1.3449208758286511e-14
117 123 1.3805099342035716e-30
118 123 -3.5554749312420407e-30
119 123 1.0727921430295166e-15
120 123 -8.6118397421968636e-30
121 123 6.9931498495719178e-16
122 123 -2.1320896053199e-15
123 123 88.923297334625659
124 123 -2.9966494786845286e-30
125 123 5.592945968852635e-16
126 123 -4.7456682508088888e-30
127 123 3.64584225517297e-16
128 123 -1.1115538122447248e-15
129 123 46.359697970448352
130 123 -2.2498665358934901e-31
131 123 6.0035263609612428e-17
132 123 -1.3448348150377616e-31
133 123 3.382183980454581e-31
134 123 -1.3186870230658512e-14
135 123 -6.8587971849761507e-31
136 123 3.9134849878278919e-17
137 123 -1.1931534205053569e-16
138 123 4.9762981870694603
139 123 -2.8374077672639579e-32
140 123 7.5537486189317023e-32
141 123 -2.5512292134308373e-15
142 123 -6.1947616508264512e-32
143 123 1.8269207509991207e-15
144 123 2.1774872708865126e-30
109 124 1.1129136294177338e-30
110 124 -5.8401029477059545e-15
111 124 -5.9886719820057885e-15
112 124 1.0286591917654255e-30
113 124 -5.8402080279188728e-15
114 124 4.0024917672378605e-31
115 124 1.8917589288619713e-31
116 124 8.0759180280981174e-46
117 124 15.323202779737782
118 124 22.221561326467015
119 124 -3.8169419501572733e-15
120 124 21.670671100649837
121 124 -1.4851642656602173e-15
122 124 -7.0195591241112014e-16
123 124 -2.9966494786845286e-30
124 124 16.112747279881358
125 124 -3.9140428719374529e-15
126 124 22.221961156130373
127 124 -1.5229460346977735e-15
128 124 -7.198132880364872e-16
129 124 -3.0728826073073935e-30
130 124 4.7539166779595793e-31
131 124 -3.817010627897445e-15
132 124 2.6159262719042291e-31
133 124 1.2364052619987204e-31
134 124 5.2782135149839326e-46
135 124 15.323754201488681
136 124 -1.485190988027728e-15
137 124 -7.0196854261257618e-16
138 124 -2.9967033970089241e-30
139 124 7.1972972220622314e-32
140 124 4.8108274555212979e-32
141 124 2.0537420273462536e-46
142 124 1.6078300015075721e-32
143 124 9.7069152012086672e-47
144 124 2.9301668284304662e-61
109 125 -5.030088813924013e-46
110 125 2.4944346061951419e-30
111 125 2.0807362100736686e-30
112 125 -7.9209339413346264e-15
113 125 1.7804270710740077e-30
114 125 -4.1296507000812805e-15
115 125 -4.4327302459265718e-16
116 125 -1.5072891741700682e-31
117 125 -6.1640433054128993e-15
118 125 -7.1685037010317754e-15
119 125 29.391410962085878
120 125 -6.0678681790507842e-15
121 125 15.323478488131848
122 125 1.6448085201445806
123 125 5.592945968852635e-16
124 125 -3.9140428719374529e-15
125 125 30.139112430413938
126 125 -4.451666951340564e-15
127 125 15.71329942476282
128 125 1.6866515519599752
129 125 5.7352274643885793e-16
130 125 -7.3212703041327041e-15
131 125 29.391939797921395
132 125 -4.7133629806602324e-15
133 125 -1.2417749960601783e-15
134 125 -4.1628694411175654e-30
135 125 -2.4171507499598096e-15
136 125 15.32375420148769
137 125 1.6448381149704034
138 125 5.5930466020021535e-16
139 125 -1.485190988027632e-15
140 125 -6.0909302678786119e-16
141 125 -2.1573203301914619e-30
142 125 -7.5348677564093344e-17
143 125 -2.455674062006116e-31
144 125 -1.0937725528265648e-46
109 126 6.9109641470008804e-31
110 126 -2.2565647760594091e-15
111 126 -5.9890716048935517e-15
112 126 7.8000180491474331e-31
113 126 -9.7342583191271901e-15
114 126 4.5736579700808379e-31
115 126 3.0032226228405509e-31
116 126 1.4684007450076865e-45
117 126 2.3261105166886957
118 126 17.010130040088033
119 126 -1.9988648478800844e-15
120 126 31.036249077058532
121 126 -1.3486992681439159e-15
122 126 -9.4970502670258559e-16
123 126 -4.7456682508088888e-30
124 126 22.221961156130373
125 126 -4.451666951340564e-15
126 126 45.462866631909705
127 126 -2.317604055067512e-15
128 126 -1.4155967575224411e-15
129 126 -6.7521481200937464e-30
130 126 4.2574242645854454e-31
131 126 -6.8861035653998805e-15
132 126 3.3483690548413632e-31
133 126 2.1325768375501619e-31
134 126 1.032174304711388e-45
135 126 41.566479886683744
136 126 -3.2503240785315232e-15
137 126 -1.8485046771703057e-15
138 126 -8.5826559998069678e-30
139 126 1.1979368131817646e-31
140 126 1.0147249935843959e-31
141 126 4.8056937024767472e-46
142 126 4.1065250184966123e-32
143 126 2.7031779478254145e-46
144 126 8.8359563577487327e-61
109 127 -1.1686233797610746e-46
110 127 5.3387770648183785e-31
111 127 5.9744142405220584e-31
112 127 -4.1296507000812805e-15
113 127 6.3972028645814068e-31
114 127 -4.2346305687786278e-15
115 127 -4.1295763971510914e-15
116 127 -9.825481226812828e-32
117 127 -1.1925412989247919e-15
118 127 -1.9148756856609618e-15
119 127 15.323478488131848
120 127 -2.0792421698923444e-15
121 127 15.713016702499239
122 127 15.323202779740257
123 127 3.64584225517297e-16
124 127 -1.5229460346977735e-15
125 127 15.71329942476282
126 127 -2.317604055067512e-15
127 127 16.112747279883081
128 127 15.713016702500093
129 127 3.738590494015784e-16
130 127 -3.8170106278971981e-15
131 127 15.32375420148769
132 127 -3.8178348755936256e-15
133 127 -3.195352253013007e-15
134 127 -2.1832061260678925e-30
135 127 -1.7479611702266629e-15
136 127 15.713299424765518
137 127 15.323478488135313
138 127 3.6459078543385578e-16
139 127 -1.5229460346979364e-15
140 127 -1.5591545805832903e-15
141 127 -2.1978427670532346e-30
142 127 -7.019559124112367e-16
143 127 -2.1307609841010177e-30
144 127 -7.1299136677723905e-47
109 128 1.4776945775186475e-46
110 128 -5.5045236871809789e-31
111 128 -2.6381172890223686e-31
112 128 -4.4327302459265811e-16
113 128 -1.4613788003845158e-31
114 128 -4.1295763971510914e-15
115 128 -7.9210082442690462e-15
116 128 2.9956181179551945e-31
117 128 8.5397205157403643e-16
118 128 1.2285324302824012e-16
119 128 1.6448085201445839
120 128 -2.9256517224769144e-16
121 128 15.323202779740257
122 128 29.391686670493169
123 128 -1.1115538122447248e-15
124 128 -7.198132880364872e-16
125 128 1.6866515519599752
126 128 -1.4155967575224411e-15
127 128 15.713016702500093
128 128 30.13939515269276
129 128 -1.1398311350823956e-15
130 128 -4.0971451796080632e-16
131 128 1.6448381149704001
132 128 -2.8117118464789511e-15
133 128 -5.2302480023088867e-15
134 128 -3.1664481535500941e-32
135 128 -1.2677598616807357e-15
136 128 15.323478488135313
137 128 29.392215511289468
138 128 -1.1115738122879299e-15
139 128 -1.4851642656604597e-15
140 128 -2.5107055631410908e-15
141 128 -2.0427712604213267e-30
142 128 -1.3464331530853071e-15
143 128 -4.0283889259458197e-30
144 128 2.1737865117842934e-46
109 129 2.605278567265974e-62
110 129 -2.0551010465218125e-46
111 129 5.0095764016346371e-46
112 129 -1.5072891741700634e-31
113 129 1.1492935525341031e-45
114 129 -9.8254812268127721e-32
115 129 2.9956181179552019e-31
116 129 -1.2493857666031754e-14
117 129 7.1972166478221681e-31
118 129 -1.5970844484297715e-30
119 129 5.5929459688526172e-16
120 129 -4.0092886024710524e-30
121 129 3.6458422551729493e-16
122 129 -1.1115538122447276e-15
123 129 46.359697970448352
124 129 -3.0728826073073935e-30
125 129 5.7352274643885793e-16
126 129 -6.7521481200937464e-30
127 129 3.738590494015784e-16
128 129 -1.1398311350823956e-15
129 129 47.539063407224965
130 129 -1.3931780712127305e-31
131 129 5.5930466020021712e-16
132 129 -1.0254786980008371e-31
133 129 1.7766895560682213e-31
134 129 -8.165665891814982e-15
135 129 -6.3898399012127822e-30
136 129 3.6459078543385785e-16
137 129 -1.1115738122879271e-15
138 129 46.360532114465535
139 129 -3.5336441822573217e-32
140 129 6.4370089912258827e-32
141 129 -3.1772438109372891e-15
142 129 5.0920279636321592e-32
143 129 -1.5017093595822688e-15
144 129 -9.0662354830165215e-30
109 130 1.1367366167130662e-61
110 130 -5.3090990958095939e-46
111 130 -3.2875374250765855e-46
112 130 3.5800622942306707e-30
113 130 -2.0818578534904515e-46
114 130 1.8664979242603314e-30
115 130 2.0034822322055203e-31
116 130 6.8125667742144104e-47
117 130 1.2398005305146712e-30
118 130 1.0857171288468125e-30
119 130 -1.1823241693117175e-14
120 130 6.8753855518654229e-31
121 130 -6.1641542142421514e-15
122 130 -6.6165481805735107e-16
123 130 -2.2498665358934901e-31
124 130 4.7539166779595793e-31
125 130 -7.3212703041327041e-15
126 130 4.2574242645854454e-31
127 130 -3.8170106278971981e-15
128 130 -4.0971451796080632e-16
129 130 -1.3931780712127305e-31
130 130 56.375618777285915
131 130 -4.6362496024908429e-15
132 130 41.566479886671281
133 130 4.4617088948157324
134 130 1.5171429666025787e-15
135 130 1.9063924124623676e-31
136 130 -2.4171507499596534e-15
137 130 -2.5945480662806147e-16
138 130 -8.8224051435622051e-32
139 130 15.323754201486699
140 130 2.3261523700991904
141 130 7.9097623595356882e-16
142 130 0.17655545689949501
143 130 8.4902684017598266e-17
144 130 2.0414168669665045e-32
109 131 -2.208705610031523e-46
110 131 6.5745272095807907e-31
111 131 1.6392014124710972e-30
112 131 -3.4780720341331095e-15
113 131 2.7337412299618375e-30
114 131 -1.8133243777905825e-15
115 131 -1.9464062214632563e-16
116 131 -6.6184876213589319e-32
117 131 -6.6165481805547654e-16
118 131 -4.6484271591703836e-15
119 131 3.154904615195596
120 131 -8.5437566299902651e-15
121 131 1.6448381149656337
122 131 0.17655545689899407
123 131 6.0035263609612428e-17
124 131 -3.817010627897445e-15
125 131 29.391939797921395
126 131 -6.8861035653998805e-15
127 131 15.32375420148769
128 131 1.6448381149704001
129 131 5.5930466020021712e-16
130 131 -4.6362496024908429e-15
131 131 56.375618777299174
132 131 -4.0799014580046904e-15
133 131 -1.902894518235149e-15
134 131 -8.7287702810051224e-30
135 131 -4.6362496024919331e-15
136 131 29.391939797926405
137 131 3.1549046152052824
138 131 1.0727820797144113e-15
139 131 -1.7479611702265511e-15
140 131 -1.0291122176453376e-15
141 131 -4.5634119519237304e-30
142 131 -1.360802133539509e-16
143 131 -5.1770959471228509e-31
144 131 -2.3322399900765811e-46
109 132 3.7348551663553516e-62
110 132 -1.5984731239672903e-46
111 132 -1.4445883323425966e-46
112 132 1.9079449240151817e-30
113 132 -1.4065522306900335e-46
114 132 1.6599920521404565e-30
115 132 1.3527027399193981e-30
116 132 4.259335492671376e-47
117 132 3.3921462050176687e-31
118 132 4.4724585184197945e-31
119 132 -5.9761594812872196e-15
120 132 4.4562533419184443e-31
121 132 -5.3127873765555972e-15
122 132 -4.449152586219891e-15
123 132 -1.3448348150377616e-31
124 132 2.6159262719042291e-31
125 132 -4.7133629806602324e-15
126 132 3.3483690548413632e-31
127 132 -3.8178348755936256e-15
128 132 -2.8117118464789511e-15
129 132 -1.0254786980008371e-31
130 132 41.566479886671281
131 132 -4.0799014580046904e-15
132 132 45.462866631903857
133 132 31.036249077060923
134 132 1.2586130852405468e-15
135 132 1.9496441129312219e-31
136 132 -2.9886280492113132e-15
137 132 -1.8418235564153452e-15
138 132 -8.5778620494587073e-32
139 132 22.221961156131314
140 132 17.010130040094477
141 132 9.3811353187275158e-16
142 132 2.3261105166956666
143 132 5.9842944676374157e-16
144 132 1.8819320861843972e-32
109 133 -4.7226294824506805e-62
110 133 1.6229423242144706e-46
111 133 2.5539833105150833e-47
112 133 -6.020098614850726e-31
113 133 -3.3963334267786697e-47
114 133 9.3206661445252025e-31
115 133 2.4898922333116125e-30
116 133 -1.0988986063371604e-46
117 133 -2.4290966330053349e-31
118 133 3.48270824977049e-32
119 133 6.9038202316916637e-16
120 133 1.8763192403770262e-31
121 133 -3.754776527189708e-15
122 133 -8.295554975622231e-15
123 133 3.382183980454581e-31
124 133 1.2364052619987204e-31
125 133 -1.2417749960601783e-15
126 133 2.1325768375501619e-31
127 133 -3.195352253013007e-15
128 133 -5.2302480023088867e-15
129 133 1.7766895560682213e-31
130 133 4.4617088948157324
131 133 -1.902894518235149e-15
132 133 31.036249077060923
133 133 56.552703070044394
134 133 -2.0720343416661128e-15
135 133 1.4140363030008483e-31
136 133 -2.605594528991027e-15
137 133 -3.3745775274104546e-15
138 133 9.1263527599875787e-32
139 133 21.67067110065193
140 133 31.03702403143242
141 133 -5.5227921540250594e-16
142 133 4.4617507482216396
143 133 9.5347680097868495e-16
144 133 -5.7376831973897542e-32
109 134 -8.3263250464298955e-78
110 134 6.3277299941650409e-62
111 134 -1.7046534514015786e-61
112 134 -8.2943397608169195e-47
113 134 -3.8153017523929275e-61
114 134 -3.6956574103701663e-47
115 134 -1.0307580002318823e-46
116 134 3.9929672518812112e-30
117 134 -2.0472256315661261e-46
118 134 5.1308925324028127e-46
119 134 8.1706919060823847e-31
120 134 1.2284278055108738e-45
121 134 4.0522439077468584e-31
122 134 3.7080599420238932e-31
123 134 -1.3186870230658512e-14
124 134 5.2782135149839326e-46
125 134 -4.1628694411175654e-30
126 134 1.032174304711388e-45
127 134 -2.1832061260678925e-30
128 134 -3.1664481535500941e-32
129 134 -8.165665891814982e-15
130 134 1.5171429666025787e-15
131 134 -8.7287702810051224e-30
132 134 1.2586130852405468e-15
133 134 -2.0720343416661128e-15
134 134 88.922463190575002
135 134 7.127111264352095e-46
136 134 -4.5589649182581475e-30
137 134 -3.6100727774655737e-31
138 134 -5.1709694728290735e-15
139 134 5.1560923347678754e-16
140 134 -1.0724389624094655e-15
141 134 46.360532114462536
142 134 -1.6873737492753086e-16
143 134 4.976298187083569
144 134 2.3930218865781873e-15
109 135 2.1457831128422759e-31
110 135 -2.7526340762729088e-16
111 135 -2.564427928053362e-15
112 135 2.8603162919902393e-31
113 135 -4.9187366415827789e-15
114 135 2.0684360762558061e-31
115 135 1.5001936419385486e-31
116 135 7.5613666929760638e-46
117 135 0.17655545689849386
118 135 2.3261523700927458
119 135 -2.594548066273259e-16
120 135 4.4617088948041319
121 135 -1.8762459371670294e-16
122 135 -1.3608021335356507e-16
123 135 -6.8587971849761507e-31
124 135 15.323754201488681
125 135 -2.4171507499598096e-15
126 135 41.566479886683744
127 135 -1.7479611702266629e-15
128 135 -1.2677598616807357e-15
129 135 -6.3898399012127822e-30
130 135 1.9063924124623676e-31
131 135 -4.6362496024919331e-15
132 135 1.9496441129312219e-31
133 135 1.4140363030008483e-31
134 135 7.127111264352095e-46
135 135 56.375618777312432
136 135 -3.3527012250971321e-15
137 135 -2.431644428826075e-15
138 135 -1.2256121262803917e-29
139 135 9.9693854797127437e-32
140 135 1.0225595366683048e-31
141 135 5.1539663987360612e-46
142 135 5.244194881214619e-32
143 135 3.738064574925029e-46
144 135 1.3322470925292054e-60
109 136 -5.1314104191307756e-47
110 136 1.3270074506867621e-31
111 136 4.3090097473768025e-31
112 136 -1.8133243777905825e-15
113 136 7.3439210229736258e-31
114 136 -1.8594209048122042e-15
115 136 -1.8132917514683005e-15
116 136 -4.3143563284305738e-32
117 136 -1.2800862308524455e-16
118 136 -9.5599552200159351e-16
119 136 1.6448381149656337
120 136 -1.7501148586517926e-15
121 136 1.6866515519553738
122 136 1.6448085201401861
123 136 3.9134849878278919e-17
124 136 -1.485190988027728e-15
125 136 15.32375420148769
126 136 -3.2503240785315232e-15
127 136 15.713299424765518
128 136 15.323478488135313
129 136 3.6459078543385785e-16
130 136 -2.4171507499596534e-15
131 136 29.391939797926405
132 136 -2.9886280492113132e-15
133 136 -2.605594528991027e-15
134 136 -4.5589649182581475e-30
135 136 -3.3527012250971321e-15
136 136 30.139112430424252
137 136 29.391410962097535
138 136 6.9930842504053207e-16
139 136 -1.7923960988598207e-15
140 136 -2.1552029988790821e-15
141 136 -4.6625662719095056e-30
142 136 -1.2677370514530247e-15
143 136 -4.5395464370608142e-30
144 136 -1.520304174647643e-46
109 137 6.4885381233109615e-47
110 137 -1.130751707927387e-31
111 137 -3.2898581379825238e-31
112 137 -1.9464062214632605e-16
113 137 -6.375977389924072e-31
114 137 -1.8132917514683005e-15
115 137 -3.4781046604572492e-15
116 137 1.3153721111890615e-31
117 137 9.1666248014919197e-17
118 137 5.5058073273717836e-16
119 137 0.17655545689899443
120 137 1.0620193901749259e-15
121 137 1.6448085201401861
122 137 3.1549342100227284
123 137 -1.1931534205053569e-16
124 137 -7.0196854261257618e-16
125 137 1.6448381149704034
126 137 -1.8485046771703057e-15
127 137 15.323478488135313
128 137 29.392215511289468
129 137 -1.1115738122879271e-15
130 137 -2.5945480662806147e-16
131 137 3.1549046152052824
132 137 -1.8418235564153452e-15
133 137 -3.3745775274104546e-15
134 137 -3.6100727774655737e-31
135 137 -2.431644428826075e-15
136 137 29.391410962097535
137 137 56.376147613158153
138 137 -2.1320696052763964e-15
139 137 -1.7479297199547879e-15
140 137 -3.2671654761036427e-15
141 137 -4.4285596504235577e-30
142 137 -2.4316672390544311e-15
143 137 -8.6014405404459103e-30
144 137 4.6351426716376048e-46
109 138 1.143974510208752e-62
110 138 -6.7561254132532902e-47
111 138 1.8239066388301999e-46
112 138 -6.61848762135891e-32
113 138 4.0355384712261593e-46
114 138 -4.3143563284305492e-32
115 138 1.3153721111890645e-31
116 138 -5.4860370340802001e-15
117 138 7.7255671897029858e-32
118 138 2.8147880499619075e-31
119 138 6.003526360961223e-17
120 138 4.9116857900998085e-31
121 138 3.9134849878278691e-17
122 138 -1.1931534205053598e-16
123 138 4.9762981870694603
124 138 -2.9967033970089241e-30
125 138 5.5930466020021535e-16
126 138 -8.5826559998069678e-30
127 138 3.6459078543385578e-16
128 138 -1.1115738122879299e-15
129 138 46.360532114465535
130 138 -8.8224051435622051e-32
131 138 1.0727820797144113e-15
132 138 -8.5778620494587073e-32
133 138 9.1263527599875787e-32
134 138 -5.1709694728290735e-15
135 138 -1.2256121262803917e-29
136 138 6.9930842504053207e-16
137 138 -2.1320696052763964e-15
138 138 88.922463190595906
139 138 -4.1588407617430512e-32
140 138 6.8329570793218724e-32
141 138 -3.7393835908178048e-15
142 138 9.1962364051569577e-32
143 138 -2.7120971018204367e-15
144 138 -1.9331840882548843e-29
109 139 6.1356091237677998e-63
110 139 -2.3863134875072427e-47
111 139 -2.9718614537745085e-47
112 139 4.3363709732682457e-31
113 139 -3.4976635775238234e-47
114 139 4.4466058789438585e-31
115 139 4.3362929509140318e-31
116 139 1.0317320927289232e-47
117 139 4.6405270819811145e-32
118 139 8.1730352594427527e-32
119 139 -1.1925627561652336e-15
120 139 9.6190647476057965e-32
121 139 -1.2228788992601227e-15
122 139 -1.1925412989249843e-15
123 139 -2.8374077672639579e-32
124 139 7.1972972220622314e-32
125 139 -1.485190988027632e-15
126 139 1.1979368131817646e-31
127 139 -1.5229460346979364e-15
128 139 -1.4851642656604597e-15
129 139 -3.5336441822573217e-32
130 139 15.323754201486699
131 139 -1.7479611702265511e-15
132 139 22.221961156131314
133 139 21.67067110065193
134 139 5.1560923347678754e-16
135 139 9.9693854797127437e-32
136 139 -1.7923960988598207e-15
137 139 -1.7479297199547879e-15
138 139 -4.1588407617430512e-32
139 139 16.112747279884807
140 139 22.221561326472983
141 139 5.2871653807968179e-16
142 139 15.323202779742729
143 139 5.1559995635393276e-16
144 139 8.6745349132761629e-33
109 140 -1.0971924018246931e-62
110 140 3.3419693094003502e-47
111 140 1.6639686000648099e-47
112 140 -3.5480983065383124e-31
113 140 1.333549746292788e-47
114 140 -9.0957070518856386e-32
115 140 2.0042109977713941e-31
116 140 -3.1467457378801188e-47
117 140 -4.6995095757913047e-32
118 140 -1.4069426786734248e-32
119 140 5.1334452816181145e-16
120 140 6.2472778547211148e-34
121 140 -2.2404301052666813e-16
122 140 -1.0136099800660236e-15
123 140 7.5537486189317023e-32
124 140 4.8108274555212979e-32
125 140 -6.0909302678786119e-16
126 140 1.0147249935843959e-31
127 140 -1.5591545805832903e-15
128 140 -2.5107055631410908e-15
129 140 6.4370089912258827e-32
130 140 2.3261523700991904
131 140 -1.0291122176453376e-15
132 140 17.010130040094477
133 140 31.03702403143242
134 140 -1.0724389624094655e-15
135 140 1.0225595366683048e-31
136 140 -2.1552029988790821e-15
137 140 -3.2671654761036427e-15
138 140 6.8329570793218724e-32
139 140 22.221561326472983
140 140 45.462597932438719
141 140 -7.7524690956516388e-16
142 140 41.566121910438667
143 140 -4.1223882728768734e-16
144 140 -3.7401912988855189e-32
109 141 -1.9344267023304258e-78
110 141 1.3945422996008264e-62
111 141 -3.7716071566924865e-62
112 141 -5.7166599560139199e-47
113 141 -8.4897298021216685e-62
114 141 -6.2800552442665963e-47
115 141 -9.0599583579650848e-47
116 141 9.276724642021803e-31
117 141 -3.9607137602620362e-47
118 141 8.1729759763042593e-47
119 141 4.7815058105550023e-31
120 141 2.0759328429346619e-46
121 141 5.0180321605500716e-31
122 141 5.7009019556027504e-31
123 141 -2.5512292134308373e-15
124 141 2.0537420273462536e-46
125 141 -2.1573203301914619e-30
126 141 4.8056937024767472e-46
127 141 -2.1978427670532346e-30
128 141 -2.0427712604213267e-30
129 141 -3.1772438109372891e-15
130 141 7.9097623595356882e-16
131 141 -4.5634119519237304e-30
132 141 9.3811353187275158e-16
133 141 -5.5227921540250594e-16
134 141 46.360532114462536
135 141 5.1539663987360612e-46
136 141 -4.6625662719095056e-30
137 141 -4.4285596504235577e-30
138 141 -3.7393835908178048e-15
139 141 5.2871653807968179e-16
140 141 -7.7524690956516388e-16
141 141 47.539063407230053
142 141 -1.5719744765842604e-15
143 141 46.359697970455841
144 141 1.5599257279129904e-15
109 142 9.8102009298351543e-63
110 142 -2.1607664817948429e-47
111 142 1.7761269873410766e-47
112 142 -5.8856512085629003e-32
113 142 3.2076971646316117e-47
114 142 -5.4831322828814696e-31
115 142 -1.0517285997441447e-30
116 142 3.9774952271318379e-47
117 142 2.3796208774117924e-32
118 142 -2.766234205166458e-32
119 142 9.166624801517909e-17
120 142 -4.9958373921804857e-32
121 142 8.5397205157417438e-16
122 142 1.6380178038505229e-15
123 142 -6.1947616508264512e-32
124 142 1.6078300015075721e-32
125 142 -7.5348677564093344e-17
126 142 4.1065250184966123e-32
127 142 -7.019559124112367e-16
128 142 -1.3464331530853071e-15
129 142 5.0920279636321592e-32
130 142 0.17655545689949501
131 142 -1.360802133539509e-16
132 142 2.3261105166956666
133 142 4.4617507482216396
134 142 -1.6873737492753086e-16
135 142 5.244194881214619e-32
136 142 -1.2677370514530247e-15
137 142 -2.4316672390544311e-15
138 142 9.1962364051569577e-32
139 142 15.323202779742729
140 142 41.566121910438667
141 142 -1.5719744765842604e-15
142 142 56.376676453964663
143 142 -3.0152300360382221e-15
144 142 8.0632743381141251e-32
109 143 2.4460334254354626e-78
110 143 -1.5570753341187428e-62
111 143 5.5829113101467513e-62
112 143 -2.1489090907630549e-47
113 143 1.1832136956097924e-61
114 143 -7.7581942511275014e-47
115 143 -1.029916107083651e-46
116 143 -1.1730182655982693e-30
117 143 2.8362446303520397e-47
118 143 -9.9987836260207116e-47
119 143 7.666842281040469e-32
120 143 -2.0782418733428631e-46
121 143 5.2328743009795961e-31
122 143 9.3236435625944117e-31
123 143 1.8269207509991207e-15
124 143 9.7069152012086672e-47
125 143 -2.455674062006116e-31
126 143 2.7031779478254145e-46
127 143 -2.1307609841010177e-30
128 143 -4.0283889259458197e-30
129 143 -1.5017093595822688e-15
130 143 8.4902684017598266e-17
131 143 -5.1770959471228509e-31
132 143 5.9842944676374157e-16
133 143 9.5347680097868495e-16
134 143 4.976298187083569
135 143 3.738064574925029e-46
136 143 -4.5395464370608142e-30
137 143 -8.6014405404459103e-30
138 143 -2.7120971018204367e-15
139 143 5.1559995635393276e-16
140 143 -4.1223882728768734e-16
141 143 46.359697970455841
142 143 -3.0152300360382221e-15
143 143 88.923297334629183
144 143 -4.7559418875572348e-15
109 144 3.0494174182261514e-94
110 144 -3.210688997170233e-78
111 144 1.3368097669395108e-77
112 144 -3.5284932058850042e-63
113 144 2.8504657476769327e-77
114 144 -2.3000990352397968e-63
115 144 7.0126014024156768e-63
116 144 -2.9247534345332855e-46
117 144 1.6902447947822229e-62
118 144 -9.9525868291596739e-62
119 144 2.626973252003441e-47
120 144 -2.1221798762174897e-61
121 144 1.7124302896364395e-47
122 144 -5.2209017379947831e-47
123 144 2.1774872708865126e-30
124 144 2.9301668284304662e-61
125 144 -1.0937725528265648e-46
126 144 8.8359563577487327e-61
127 144 -7.1299136677723905e-47
128 144 2.1737865117842934e-46
129 144 -9.0662354830165215e-30
130 144 2.0414168669665045e-32
131 144 -2.3322399900765811e-46
132 144 1.8819320861843972e-32
133 144 -5.7376831973897542e-32
134 144 2.3930218865781873e-15
135 144 1.3322470925292054e-60
136 144 -1.520304174647643e-46
137 144 4.6351426716376048e-46
138 144 -1.9331840882548843e-29
139 144 8.6745349132761629e-33
140 144 -3.7401912988855189e-32
141 144 1.5599257279129904e-15
142 144 8.0632743381141251e-32
143 144 -4.7559418875572348e-15
144 144 140.2592934923814
145 145 138.7164454520094
146 145 5.1785059861967428e-15
147 145 -5.1475923244541541e-15
148 145 -8.8005998943645407e-31
149 145 -1.346165276297917e-14
150 145 -1.2032443317077137e-31
151 145 4.8339972669014075e-32
152 145 -1.6735679220746784e-46
153 145 9.6660940820266527e-32
154 145 -1.3588317245167462e-31
155 145 -2.3231315880302035e-47
156 145 -3.5535294339192428e-31
157 145 -3.1762549697304696e-48
158 145 1.2760507104045784e-48
159 145 -4.4177880498525808e-63
160 145 9.5510329192141587e-32
161 145 2.3092633981917989e-47
162 145 3.5323162486481771e-31
163 145 3.1572939659189094e-48
164 145 -1.2684331851698902e-48
165 145 4.3914155776013908e-63
166 145 2.7916862434325577e-63
167 145 6.0390372907030246e-47
168 145 5.3978790843523457e-64
169 145 -2.1685813972454247e-64
170 145 7.5077995754933255e-79
171 145 6.5318893705009539e-31
172 145 8.2567523535105635e-48
173 145 -3.317124981067214e-48
174 145 1.1484147911786335e-62
175 145 5.2185482300945429e-65
176 145 -2.9649493277762081e-65
177 145 1.0264888065863168e-79
178 145 8.4227682955814358e-66
179 145 -4.1238873558628978e-80
180 145 1.0095521049040029e-94
145 146 5.1785059861967428e-15
146 146 88.132782066635244
147 146 45.869794354980556
148 146 -9.6199165825247889e-15
149 146 4.7138690304477731
150 146 -1.9782964416419381e-14
151 146 9.6824315862796156e-15
152 146 -1.3721099037785704e-29
153 146 3.2901372149724727e-15
154 146 -1.1017457987673054e-15
155 146 -6.4931382505280782e-31
156 146 -5.9233032479423226e-15
157 146 -5.7627583527250127e-31
158 146 2.7730829803324406e-31
159 146 -4.3738781102426704e-46
160 146 -1.702170211890116e-15
161 146 4.6648416082320307e-32
162 146 -3.2713106753875151e-15
163 146 4.9096743537577932e-31
164 146 -2.4276255365313927e-31
165 146 3.2090789155344948e-46
166 146 6.1031723084241776e-47
167 146 6.3897894511278942e-31
168 146 9.4648843617582516e-47
169 146 -4.5806865665835497e-47
170 146 6.9761035220099031e-62
171 146 -4.5745454226233173e-16
172 146 1.3546305060100391e-30
173 146 -6.6325411935515961e-31
174 146 9.3753064461428525e-46
175 146 1.7159998384502152e-47
176 146 -1.0813531430056913e-47
177 146 2.529274913412662e-62
178 146 3.3741383491235457e-48
179 146 -1.1641146865672266e-62
180 146 1.655405105759996e-77
145 147 -5.1475923244541541e-15
146 147 45.869794354980556
147 147 47.016049613486231
148 147 -6.0317959242252793e-15
149 147 45.83060148357103
150 147 -1.4277474869489593e-14
151 147 8.0616566823204303e-15
152 147 -1.2488423927922533e-29
153 147 1.7123925276529052e-15
154 147 3.7486453789736887e-17
155 147 -3.650005321331385e-31
156 147 -1.9378097251177539e-15
157 147 -4.0502294536724152e-31
158 147 2.2410987153864162e-31
159 147 -3.687937723235797e-46
160 147 -1.7447062986981168e-15
161 147 -5.2645518795090256e-32
162 147 -4.4288640782778922e-15
163 147 3.4580120664140088e-31
164 147 -1.9995122617633161e-31
165 147 2.875848215851844e-46
166 147 3.8267576999234002e-47
167 147 2.0830549553077311e-31
168 147 6.7749859009929896e-47
169 147 -3.7651741814989378e-47
170 147 6.1170097691154386e-62
171 147 -4.4476027415812206e-15
172 147 9.5162061345200569e-31
173 147 -5.4190364297664145e-31
174 147 8.178668382060307e-46
175 147 1.2384465772574824e-47
176 147 -8.4627997280086229e-48
177 147 1.9839945478391331e-62
178 147 2.809329942266831e-48
179 147 -9.9547153012154426e-63
180 147 1.5066869407652432e-77
145 148 -8.8005998943645407e-31
146 148 -9.6199165825247889e-15
147 148 -6.0317959242252793e-15
148 148 88.171974937942068
149 148 -6.8122886021605671e-17
150 148 45.830601483556386
151 148 4.7138690304484241
152 148 -5.7862378437139346e-15
153 148 -3.5912681764118483e-31
154 148 9.3201210281308361e-32
155 148 2.3275129265470135e-15
156 148 6.5832758269166289e-31
157 148 1.2098097775476883e-15
158 148 1.2443399515849446e-16
159 148 -1.5274176842416517e-31
160 148 2.2383233870551819e-31
161 148 -2.3136185818258594e-15
162 148 4.1569386908501657e-31
163 148 -1.2025876848561525e-15
164 148 -1.2369117272170246e-16
165 148 1.518299596176068e-31
166 148 -5.5939025166991743e-31
167 148 -6.0504266871636212e-15
168 148 -2.596814326791549e-31
169 148 5.7980637646116326e-34
170 148 -4.9261925887972864e-47
171 148 6.6109438852276341e-33
172 148 -3.1449300585949563e-15
173 148 -3.2346920891832749e-16
174 148 3.9705595675860054e-31
175 148 -3.9754054592842139e-32
176 148 8.4019834606188779e-33
177 148 -3.5549117319776412e-47
178 148 1.642691314330608e-33
179 148 -5.4472095344710379e-48
180 148 6.9809041121618012e-63
145 149 -1.346165276297917e-14
146 149 4.7138690304477731
147 149 45.83060148357103
148 149 -6.8122886021605671e-17
149 149 88.171974937973459
150 149 -7.6184779678613928e-15
151 149 6.1275839956349077e-15
152 149 -9.3623376680702071e-30
153 149 1.7597624357338581e-16
154 149 1.0861186048263899e-15
155 149 -2.2945174866880048e-32
156 149 2.0040437176295608e-15
157 149 -2.0399945442134647e-31
158 149 1.6291398538221851e-31
159 149 -2.5116299432849329e-46
160 149 -1.7007158138669756e-15
161 149 -2.0381330619162808e-31
162 149 -5.4585486404226438e-15
163 149 1.7179728712675552e-31
164 149 -1.4949357657847611e-31
165 149 2.0656812277533908e-46
166 149 4.3219263698435103e-49
167 149 -3.9087399703429965e-31
168 149 3.4219067106637059e-47
169 149 -2.7505764794411682e-47
170 149 4.2058535183182535e-62
171 149 -8.5565954791339548e-15
172 149 4.6870504792911616e-31
173 149 -3.9875267171228511e-31
174 149 5.6723100407704568e-46
175 149 6.6083660097149782e-48
176 149 -5.635666622662594e-48
177 149 1.224175324697163e-62
178 149 2.1353433755674721e-48
179 149 -7.5344481761288452e-63
180 149 1.129534998245569e-77
145 150 -1.2032443317077137e-31
146 150 -1.9782964416419381e-14
147 150 -1.4277474869489593e-14
148 150 45.830601483556386
149 150 -7.6184779678613928e-15
150 150 47.0160496134677
151 150 45.869794354950486
152 150 -1.3811631475932791e-14
153 150 -7.3852959050429217e-31
154 150 1.4221329134578388e-31
155 150 1.2098097775476885e-15
156 150 1.1564135880864888e-30
157 150 1.241102553350491e-15
158 150 1.2108443683557484e-15
159 150 -3.6459147954809408e-31
160 150 5.2981908390038632e-31
161 150 -1.2025876848561527e-15
162 150 1.1796386237432968e-30
163 150 -1.2336936549878343e-15
164 150 -1.2036160995604543e-15
165 150 3.6241501056205407e-31
166 150 -2.907634961835124e-31
167 150 -3.1449300585949567e-15
168 150 -2.3902924492478213e-31
169 150 -1.94483411456411e-31
170 150 2.2862287000088331e-47
171 150 7.3933054334193866e-31
172 150 -3.2262763934200835e-15
173 150 -3.1476195026637661e-15
174 150 9.477644538983832e-31
175 150 -4.078232758311986e-32
176 150 -1.6549039240362076e-32
177 150 -3.1638020589418318e-47
178 150 1.5984727681295034e-32
179 150 -4.253492650087234e-47
180 150 1.666327544256568e-62
145 151 4.8339972669014075e-32
146 151 9.6824315862796156e-15
147 151 8.0616566823204303e-15
148 151 4.7138690304484241
149 151 6.1275839956349077e-15
150 151 45.869794354950486
151 151 88.132782066564403
152 151 -2.0598791750285804e-14
153 151 3.6146060236381644e-31
154 151 -4.1258500792240441e-32
155 151 1.2443399515849485e-16
156 151 -5.0266325030845866e-31
157 151 1.2108443683557484e-15
158 151 2.3264783357393877e-15
159 151 -5.4375502084793108e-31
160 151 -2.9915791112851902e-31
161 151 -1.2369117272170283e-16
162 151 -7.1398372297415809e-31
163 151 -1.2036160995604545e-15
164 151 -2.3125901671219888e-15
165 151 5.4050901537258113e-31
166 151 -2.9906241582627669e-32
167 151 -3.2346920891832847e-16
168 151 -2.0866793141482647e-31
169 151 -3.9421125882470461e-31
170 151 8.8386914073709902e-47
171 151 -5.9464764799179992e-31
172 151 -3.1476195026637665e-15
173 151 -6.0477372430959395e-15
174 151 1.4135044544299675e-30
175 151 -3.9788050994779185e-32
176 151 -4.2753644381084887e-32
177 151 -2.6497220443300694e-47
178 151 3.0712553673372378e-32
179 151 -8.0261962690362234e-47
180 151 2.4851759281093944e-62
145 152 -1.6735679220746784e-46
146 152 -1.3721099037785704e-29
147 152 -1.2488423927922533e-29
148 152 -5.7862378437139346e-15
149 152 -9.3623376680702071e-30
150 152 -1.3811631475932791e-14
151 152 -2.0598791750285804e-14
152 152 138.71644545180186
153 152 -5.1223049490167395e-46
154 152 3.037724372591988e-47
155 152 -1.5274176842416502e-31
156 152 6.944104619873868e-46
157 152 -3.6459147954809399e-31
158 152 -5.4375502084793108e-31
159 152 3.6617566992493684e-15
160 152 4.6342966002980019e-46
161 152 1.5182995961760665e-31
162 152 1.1026312145306974e-45
163 152 3.6241501056205394e-31
164 152 5.4050901537258105e-31
165 152 -3.6398974393999091e-15
166 152 3.6709680665902878e-47
167 152 3.970559567586001e-31
168 152 6.5509423229614683e-47
169 152 9.0982516240835314e-47
170 152 -6.2229638638054702e-31
171 152 9.0856234332959693e-46
172 152 9.4776445389838285e-31
173 152 1.4135044544299673e-30
174 152 -9.5188259546669548e-15
175 152 1.1980387207168766e-47
176 152 9.2309775518258673e-48
177 152 -8.5082222637352705e-32
178 152 -7.1782767139545565e-48
179 152 3.4181522476581083e-32
180 152 -1.6735679220721748e-46
145 153 9.6660940820266527e-32
146 153 3.2901372149724727e-15
147 153 1.7123925276529052e-15
148 153 -3.5912681764118483e-31
149 153 1.7597624357338581e-16
150 153 -7.3852959050429217e-31
151 153 3.6146060236381644e-31
152 153 -5.1223049490167395e-46
153 153 55.994711005701816
154 153 41.214621791001839
155 153 -8.6436233077791444e-15
156 153 4.2354741719291473
157 153 -1.7775257286259049e-14
158 153 8.6997938721396205e-15
159 153 -1.232859042320546e-29
160 153 15.167906208433598
161 153 -4.4986804491712763e-15
162 153 2.2044048163319627
163 153 -9.2513520760113721e-15
164 153 4.5279151127735148e-15
165 153 -6.416567072375682e-30
166 153 6.6713643615831291e-31
167 153 -4.623127429592844e-16
168 153 1.9402143937698643e-30
169 153 -9.4960455546286918e-31
170 153 1.3456968981533498e-45
171 153 0.16018692782942079
172 153 -9.5072721938513704e-16
173 153 4.653170811584851e-16
174 153 -6.5940685432740445e-31
175 153 2.8213358540789195e-30
176 153 -1.9528228721356772e-30
177 153 2.7673705507814939e-45
178 153 6.7583537855354566e-31
179 153 -1.3544419060668006e-45
180 153 1.3572187363409248e-60
145 154 -1.3588317245167462e-31
146 154 -1.1017457987673054e-15
147 154 3.7486453789736887e-17
148 154 9.3201210281308361e-32
149 154 1.0861186048263899e-15
150 154 1.4221329134578388e-31
151 154 -4.1258500792240441e-32
152 154 3.037724372591988e-47
153 154 41.214621791001839
154 154 45.039312159982991
155 154 -7.0133180521137233e-15
156 154 30.676987156756258
157 154 -1.5612814209532539e-14
158 154 8.3236517013947944e-15
159 154 -1.2471654171540941e-29
160 154 21.986696181251794
161 154 -5.255092224842498e-15
162 154 16.752647877208524
163 154 -1.1426342907669858e-14
164 154 5.947501143978569e-15
165 154 -8.7801652250391641e-30
166 154 5.9156843363429891e-31
167 154 -3.3833022297981735e-15
168 154 1.8503568236275644e-30
169 154 -9.8009227195489865e-31
170 154 1.4626994299496167e-45
171 154 2.2025212902399898
172 154 -7.0212821687162054e-15
173 154 3.4729354232318145e-15
174 154 -4.9577035691358198e-30
175 154 2.879584454899803e-30
176 154 -2.146278618691549e-30
177 154 3.193281744185522e-45
178 154 7.9578506158937735e-31
179 154 -1.6691106760739741e-45
180 154 1.7469624812711956e-60
145 155 -2.3231315880302035e-47
146 155 -6.4931382505280782e-31
147 155 -3.650005321331385e-31
148 155 2.3275129265470135e-15
149 155 -2.2945174866880048e-32
150 155 1.2098097775476885e-15
151 155 1.2443399515849485e-16
152 155 -1.5274176842416502e-31
153 155 -8.6436233077791444e-15
154 155 -7.0133180521137233e-15
155 155 56.019611995445182
156 155 -3.701860017701691e-16
157 155 29.118237562638338
158 155 2.9949325085119902
159 155 -3.6762565332606754e-15
160 155 -2.8207232531512765e-15
161 155 29.156098579951049
162 155 -2.2749918854438044e-16
163 155 15.154946180900001
164 155 1.5587495941088316
165 155 -1.9133530931911069e-15
166 155 -8.6474671489468295e-15
167 155 2.9962643625802623
168 155 -1.5752923878614239e-14
169 155 5.8275144354512394e-15
170 155 -8.3202339227426228e-30
171 155 -3.2738411008846242e-18
172 155 1.5574177400359428
173 155 0.16018692782944291
174 155 -1.9662821726441189e-16
175 155 -9.2434473740715979e-15
176 155 2.5267181478734098e-15
177 155 -3.7081204242051938e-30
178 155 4.653170811585494e-16
179 155 -8.7015144807949389e-31
180 155 8.0941682305313316e-46
145 156 -3.5535294339192428e-31
146 156 -5.9233032479423226e-15
147 156 -1.9378097251177539e-15
148 156 6.5832758269166289e-31
149 156 2.0040437176295608e-15
150 156 1.1564135880864888e-30
151 156 -5.0266325030845866e-31
152 156 6.944104619873868e-46
153 156 4.2354741719291473
154 156 30.676987156756258
155 156 -3.701860017701691e-16
156 156 56.179798923294548
157 156 -5.5126265614731871e-15
158 156 4.2221579234237545e-15
159 156 -6.414584271171351e-30
160 156 21.432330426069967
161 156 -3.2008558504217251e-15
162 156 30.713516319997872
163 156 -9.0553298992941773e-15
164 156 5.2252108885773818e-15
165 156 -7.6291943755680628e-30
166 156 6.681152592813165e-33
167 156 -6.116997616353344e-15
168 156 5.3805296786600991e-31
169 156 -4.2969989520699816e-31
170 156 6.560118229258253e-46
171 156 4.2373576980176928
172 156 -1.2833485923513936e-14
173 156 6.3626467699145829e-15
174 156 -9.0396580591184547e-30
175 156 1.5365497699548443e-30
176 156 -1.4056528569896678e-30
177 156 2.0887839413278582e-45
178 156 6.0486820507430172e-31
179 156 -1.2596010534807443e-45
180 156 1.3096650736320329e-60
145 157 -3.1762549697304696e-48
146 157 -5.7627583527250127e-31
147 157 -4.0502294536724152e-31
148 157 1.2098097775476883e-15
149 157 -2.0399945442134647e-31
150 157 1.241102553350491e-15
151 157 1.2108443683557484e-15
152 157 -3.6459147954809399e-31
153 157 -1.7775257286259049e-14
154 157 -1.5612814209532539e-14
155 157 29.118237562638338
156 157 -5.5126265614731871e-15
157 157 29.871405951537628
158 157 29.143138552437147
159 157 -8.7751492109070251e-15
160 157 -6.6767519767878971e-15
161 157 15.154946180900005
162 157 -3.004403428512179e-15
163 157 15.546941965645384
164 157 15.167906208423656
165 157 -4.5671347290365828e-15
166 157 -4.4948366079920848e-15
167 157 1.5574177400359432
168 157 -9.7966440044343779e-15
169 157 1.7936359761096153e-17
170 157 -3.5754915550030011e-30
171 157 -3.6612785737612669e-16
172 157 1.5977016963030521
173 157 1.5587495941075944
174 157 -4.6934753599457579e-16
175 157 -9.4825371315607047e-15
176 157 -3.259965494446878e-15
177 157 -2.6808418992279853e-30
178 157 4.5279151127705471e-15
179 157 -5.5012523249615299e-30
180 157 1.9320614140628943e-45
145 158 1.2760507104045784e-48
146 158 2.7730829803324406e-31
147 158 2.2410987153864162e-31
148 158 1.2443399515849446e-16
149 158 1.6291398538221851e-31
150 158 1.2108443683557484e-15
151 158 2.3264783357393877e-15
152 158 -5.4375502084793108e-31
153 158 8.6997938721396205e-15
154 158 8.3236517013947944e-15
155 158 2.9949325085119902
156 158 4.2221579234237545e-15
157 158 29.143138552437147
158 158 55.994711005656818
159 158 -1.3087336676201815e-14
160 158 3.7699721191519379e-15
161 158 1.5587495941088363
162 158 2.3001786882884251e-15
163 158 15.167906208423657
164 158 29.143138552432831
165 158 -6.8114659258651321e-15
166 158 -4.6231274295934958e-16
167 158 0.16018692782944338
168 158 -3.8533131158842237e-15
169 158 -5.7829357914586756e-15
170 158 9.6224491686356179e-31
171 158 2.9447866209998747e-16
172 158 1.5587495941075946
173 158 2.9949325085091694
174 158 -6.9998914822690014e-16
175 158 -9.2513520760053073e-15
176 158 -9.3672854835621535e-15
177 158 -1.5995134985517143e-30
178 158 8.6997938721326296e-15
179 158 -1.0155429073309674e-29
180 158 2.8814938181918469e-45
145 159 -4.4177880498525808e-63
146 159 -4.3738781102426704e-46
147 159 -3.687937723235797e-46
148 159 -1.5274176842416517e-31
149 159 -2.5116299432849329e-46
150 159 -3.6459147954809408e-31
151 159 -5.4375502084793108e-31
152 159 3.6617566992493684e-15
153 159 -1.232859042320546e-29
154 159 -1.2471654171540941e-29
155 159 -3.6762565332606754e-15
156 159 -6.414584271171351e-30
157 159 -8.7751492109070251e-15
158 159 -1.3087336676201815e-14
159 159 88.132782066503395
160 159 -5.8401159805860582e-30
161 159 -1.9133530931911049e-15
162 159 -3.5202552712588433e-30
163 159 -4.5671347290365812e-15
164 159 -6.8114659258651313e-15
165 159 45.869794354911932
166 159 5.6748532291914288e-31
167 159 -1.966282172644117e-16
168 159 1.783030694233949e-30
169 159 1.0246355852957935e-30
170 159 -9.6199165825103969e-15
171 159 -4.4993404783771836e-31
172 159 -4.6934753599457569e-16
173 159 -6.9998914822690004e-16
174 159 4.7138690304407209
175 159 2.785629788072089e-30
176 159 1.9736303541111217e-30
177 159 -1.9782964416389786e-14
178 159 -2.0333551039970218e-30
179 159 9.6824315862651305e-15
180 159 -1.9404564349871941e-29
145 160 9.5510329192141587e-32
146 160 -1.702170211890116e-15
147 160 -1.7447062986981168e-15
148 160 2.2383233870551819e-31
149 160 -1.7007158138669756e-15
150 160 5.2981908390038632e-31
151 160 -2.9915791112851902e-31
152 160 4.6342966002980019e-46
153 160 15.167906208433598
154 160 21.986696181251794
155 160 -2.8207232531512765e-15
156 160 21.432330426069967
157 160 -6.6767519767878971e-15
158 160 3.7699721191519379e-15
159 160 -5.8401159805860582e-30
160 160 15.935449572078106
161 160 -2.8912112268681722e-15
162 160 21.96790992401499
163 160 -6.8435995104224921e-15
164 160 3.8641811825016793e-15
165 160 -5.9860565443344751e-30
166 160 2.6228009197618856e-31
167 160 -2.8183131214884449e-15
168 160 8.7798094425682731e-31
169 160 -4.957445914573747e-31
170 160 7.6796480699454075e-46
171 160 15.141997226909327
172 160 -6.6710471096669681e-15
173 160 3.7667509136819568e-15
174 160 -5.8351259666158116e-30
175 160 1.4695178209486305e-30
176 160 -1.1734450294962766e-30
177 160 1.8177999339268543e-45
178 160 4.6851192194478716e-31
179 160 -1.0264055176716936e-45
180 160 1.1243132109998369e-60
145 161 2.3092633981917989e-47
146 161 4.6648416082320307e-32
147 161 -5.2645518795090256e-32
148 161 -2.3136185818258594e-15
149 161 -2.0381330619162808e-31
150 161 -1.2025876848561527e-15
151 161 -1.2369117272170283e-16
152 161 1.5182995961760665e-31
153 161 -4.4986804491712763e-15
154 161 -5.255092224842498e-15
155 161 29.156098579951049
156 161 -3.2008558504217251e-15
157 161 15.154946180900005
158 161 1.5587495941088363
159 161 -1.9133530931911049e-15
160 161 -2.8912112268681722e-15
161 161 29.884689841399855
162 161 -2.0159376439695187e-15
163 161 15.533658075761288
164 161 1.5977016963039026
165 161 -1.9611664979245627e-15
166 161 -5.4220591890205272e-15
167 161 29.13118651660923
168 161 -1.1068002691367934e-14
169 161 4.9192371727806009e-15
170 161 -7.6863820455155899e-30
171 161 -3.182992693391104e-17
172 161 15.141997226904488
173 161 1.5574177400366558
174 161 -1.9117182525994507e-15
175 161 -6.6710471096648358e-15
176 161 2.1783172651371131e-15
177 161 -3.5305050760457513e-30
178 161 3.8742608437691336e-16
179 161 -7.6065572058276156e-31
180 161 7.3670049263860277e-46
145 162 3.5323162486481771e-31
146 162 -3.2713106753875151e-15
147 162 -4.4288640782778922e-15
148 162 4.1569386908501657e-31
149 162 -5.4585486404226438e-15
150 162 1.1796386237432968e-30
151 162 -7.1398372297415809e-31
152 162 1.1026312145306974e-45
153 162 2.2044048163319627
154 162 16.752647877208524
155 162 -2.2749918854438044e-16
156 162 30.713516319997872
157 162 -3.004403428512179e-15
158 162 2.3001786882884251e-15
159 162 -3.5202552712588433e-30
160 162 21.96790992401499
161 162 -2.0159376439695187e-15
162 162 45.026687068319816
163 162 -7.2993219783841731e-15
164 162 4.7403562404608709e-15
165 162 -7.299293960404606e-30
166 162 4.1891578406889745e-33
167 162 -3.8564819777322579e-15
168 162 3.3828524798186247e-31
169 162 -2.704042723094509e-31
170 162 4.1323476449346324e-46
171 162 41.197719059823683
172 162 -1.1592227430454427e-14
173 162 7.1487057492062996e-15
174 162 -1.1031212364329667e-29
175 162 1.108936470008623e-30
176 162 -1.0734414354617625e-30
177 162 1.6495039400685136e-45
178 162 5.0361727463896884e-31
179 162 -1.0957591806882228e-45
180 162 1.1920074768114322e-60
145 163 3.1572939659189094e-48
146 163 4.9096743537577932e-31
147 163 3.4580120664140088e-31
148 163 -1.2025876848561525e-15
149 163 1.7179728712675552e-31
150 163 -1.2336936549878343e-15
151 163 -1.2036160995604545e-15
152 163 3.6241501056205394e-31
153 163 -9.2513520760113721e-15
154 163 -1.1426342907669858e-14
155 163 15.154946180900001
156 163 -9.0553298992941773e-15
157 163 15.546941965645384
158 163 15.167906208423657
159 163 -4.5671347290365812e-15
160 163 -6.8435995104224921e-15
161 163 15.533658075761288
162 163 -7.2993219783841731e-15
163 163 15.935449572071825
164 163 15.54694196564132
165 163 -4.6812643489424656e-15
166 163 -2.8183131214875452e-15
167 163 15.141997226904492
168 163 -6.7615377132192801e-15
169 163 6.6894257395174438e-16
170 163 -3.5254870910573499e-30
171 163 -3.5596788572305899e-15
172 163 15.53365807576013
173 163 15.154946180894909
174 163 -4.5632323979565727e-15
175 163 -6.843599510419795e-15
176 163 -1.9887878812050005e-15
177 163 -2.8112105699116668e-30
178 163 3.7699721191494711e-15
179 163 -4.9322635564114486e-30
180 163 1.7584890195131708e-45
145 164 -1.2684331851698902e-48
146 164 -2.4276255365313927e-31
147 164 -1.9995122617633161e-31
148 164 -1.2369117272170246e-16
149 164 -1.4949357657847611e-31
150 164 -1.2036160995604543e-15
151 164 -2.3125901671219888e-15
152 164 5.4050901537258105e-31
153 164 4.5279151127735148e-15
154 164 5.947501143978569e-15
155 164 1.5587495941088316
156 164 5.2252108885773818e-15
157 164 15.167906208423656
158 164 29.143138552432831
159 164 -6.8114659258651313e-15
160 164 3.8641811825016793e-15
161 164 1.5977016963039026
162 164 4.7403562404608709e-15
163 164 15.54694196564132
164 164 29.871405951525393
165 164 -6.9816798703276048e-15
166 164 -2.8987529099423231e-16
167 164 1.5574177400366604
168 164 -2.479730389119713e-15
169 164 -3.5583189886388229e-15
170 164 4.7131335522494958e-31
171 164 2.8630694066690466e-15
172 164 15.15494618089491
173 164 29.118237562624241
174 164 -6.8056459540972887e-15
175 164 -6.6767519767835213e-15
176 164 -6.4053475710985561e-15
177 164 -2.0094423911196483e-30
178 164 7.2435060118030702e-15
179 164 -9.1315772071939121e-30
180 164 2.6226263835112726e-45
145 165 4.3914155776013908e-63
146 165 3.2090789155344948e-46
147 165 2.875848215851844e-46
148 165 1.518299596176068e-31
149 165 2.0656812277533908e-46
150 165 3.6241501056205407e-31
151 165 5.4050901537258113e-31
152 165 -3.6398974393999091e-15
153 165 -6.416567072375682e-30
154 165 -8.7801652250391641e-30
155 165 -1.9133530931911069e-15
156 165 -7.6291943755680628e-30
157 165 -4.5671347290365828e-15
158 165 -6.8114659258651321e-15
159 165 45.869794354911932
160 165 -5.9860565443344751e-30
161 165 -1.9611664979245627e-15
162 165 -7.299293960404606e-30
163 165 -4.6812643489424656e-15
164 165 -6.9816798703276048e-15
165 165 47.016049613415895
166 165 3.5581968185247844e-31
167 165 -1.9117182525994487e-15
168 165 1.1961221130377579e-30
169 165 5.5942209946890455e-31
170 165 -6.0317959242162555e-15
171 165 -4.3744847188471161e-30
172 165 -4.5632323979565712e-15
173 165 -6.8056459540972879e-15
174 165 45.83060148350247
175 165 2.0104044296764378e-30
176 165 1.3174652780401425e-30
177 165 -1.4277474869468234e-14
178 165 -1.6929849300351729e-30
179 165 8.0616566823083702e-15
180 165 -1.7661298491506308e-29
145 166 2.7916862434325577e-63
146 166 6.1031723084241776e-47
147 166 3.8267576999234002e-47
148 166 -5.5939025166991743e-31
149 166 4.3219263698435103e-49
150 166 -2.907634961835124e-31
151 166 -2.9906241582627669e-32
152 166 3.6709680665902878e-47
153 166 6.6713643615831291e-31
154 166 5.9156843363429891e-31
155 166 -8.6474671489468295e-15
156 166 6.681152592813165e-33
157 166 -4.4948366079920848e-15
158 166 -4.6231274295934958e-16
159 166 5.6748532291914288e-31
160 166 2.6228009197618856e-31
161 166 -5.4220591890205272e-15
162 166 4.1891578406889745e-33
163 166 -2.8183131214875452e-15
164 166 -2.8987529099423231e-16
165 166 3.5581968185247844e-31
166 166 56.04452405872172
167 166 -6.1236541284921915e-17
168 166 41.197719059795851
169 166 4.23735769801677
170 166 -5.2013238618309248e-15
171 166 3.3454775926706157e-35
172 166 -3.1829926933900865e-17
173 166 -3.2738411008850764e-18
174 166 4.0186146772188266e-33
175 166 15.141997226899649
176 166 2.2025212902395901
177 166 -2.7035778802614735e-15
178 166 0.16018692782946503
179 166 -2.7807429160061329e-16
180 166 2.4135961871839944e-31
145 167 6.0390372907030246e-47
146 167 6.3897894511278942e-31
147 167 2.0830549553077311e-31
148 167 -6.0504266871636212e-15
149 167 -3.9087399703429965e-31
150 167 -3.1449300585949567e-15
151 167 -3.2346920891832847e-16
152 167 3.970559567586001e-31
153 167 -4.623127429592844e-16
154 167 -3.3833022297981735e-15
155 167 2.9962643625802623
156 167 -6.116997616353344e-15
157 167 1.5574177400359432
158 167 0.16018692782944338
159 167 -1.966282172644117e-16
160 167 -2.8183131214884449e-15
161 167 29.13118651660923
162 167 -3.8564819777322579e-15
163 167 15.141997226904492
164 167 1.5574177400366604
165 167 -1.9117182525994487e-15
166 167 -6.1236541284921915e-17
167 167 56.044524058741679
168 167 -4.8650205755122739e-15
169 167 3.8925453890407283e-15
170 167 -5.9481168531712084e-30
171 167 -6.123654128494372e-17
172 167 29.131186516610295
173 167 2.9962643625817433
174 167 -3.6778913738493573e-15
175 167 -3.5596788572294547e-15
176 167 1.7656043017307862e-15
177 167 -2.7754405026666022e-30
178 167 2.9447866210002839e-16
179 167 -5.7374950557180871e-31
180 167 5.5229057022118839e-46
145 168 5.3978790843523457e-64
146 168 9.4648843617582516e-47
147 168 6.7749859009929896e-47
148 168 -2.596814326791549e-31
149 168 3.4219067106637059e-47
150 168 -2.3902924492478213e-31
151 168 -2.0866793141482647e-31
152 168 6.5509423229614683e-47
153 168 1.9402143937698643e-30
154 168 1.8503568236275644e-30
155 168 -1.5752923878614239e-14
156 168 5.3805296786600991e-31
157 168 -9.7966440044343779e-15
158 168 -3.8533131158842237e-15
159 168 1.783030694233949e-30
160 168 8.7798094425682731e-31
161 168 -1.1068002691367934e-14
162 168 3.3828524798186247e-31
163 168 -6.7615377132192801e-15
164 168 -2.479730389119713e-15
165 168 1.1961221130377579e-30
166 168 41.197719059795851
167 168 -4.8650205755122739e-15
168 168 45.026687068287721
169 168 30.713516319968093
170 168 -1.069076979457565e-14
171 168 5.2911283992545191e-33
172 168 -2.5401623830513311e-15
173 168 -2.8141789531594543e-16
174 168 3.2457012273897017e-31
175 168 21.967909923999311
176 168 16.75264787719334
177 168 -6.5243988958789041e-15
178 168 2.2044048163308219
179 168 -2.3827006291844935e-15
180 168 8.1475739222084128e-31
145 169 -2.1685813972454247e-64
146 169 -4.5806865665835497e-47
147 169 -3.7651741814989378e-47
148 169 5.7980637646116326e-34
149 169 -2.7505764794411682e-47
150 169 -1.94483411456411e-31
151 169 -3.9421125882470461e-31
152 169 9.0982516240835314e-47
153 169 -9.4960455546286918e-31
154 169 -9.8009227195489865e-31
155 169 5.8275144354512394e-15
156 169 -4.2969989520699816e-31
157 169 1.7936359761096153e-17
158 169 -5.7829357914586756e-15
159 169 1.0246355852957935e-30
160 169 -4.957445914573747e-31
161 169 4.9192371727806009e-15
162 169 -2.704042723094509e-31
163 169 6.6894257395174438e-16
164 169 -3.5583189886388229e-15
165 169 5.5942209946890455e-31
166 169 4.23735769801677
167 169 3.8925453890407283e-15
168 169 30.713516319968093
169 169 56.179798923229626
170 169 -1.328978486521885e-14
171 169 -4.2556838563940321e-33
172 169 2.0019693878788313e-15
173 169 1.6494633269100129e-16
174 169 -2.4548213553754394e-31
175 169 21.432330426049077
176 169 30.676987156722745
177 169 -8.7189990472849664e-15
178 169 4.2354741719263282
179 169 -4.3762456814847175e-15
180 169 1.2151365230536296e-30
145 170 7.5077995754933255e-79
146 170 6.9761035220099031e-62
147 170 6.1170097691154386e-62
148 170 -4.9261925887972864e-47
149 170 4.2058535183182535e-62
150 170 2.2862287000088331e-47
151 170 8.8386914073709902e-47
152 170 -6.2229638638054702e-31
153 170 1.3456968981533498e-45
154 170 1.4626994299496167e-45
155 170 -8.3202339227426228e-30
156 170 6.560118229258253e-46
157 170 -3.5754915550030011e-30
158 170 9.6224491686356179e-31
159 170 -9.6199165825103969e-15
160 170 7.6796480699454075e-46
161 170 -7.6863820455155899e-30
162 170 4.1323476449346324e-46
163 170 -3.5254870910573499e-30
164 170 4.7131335522494958e-31
165 170 -6.0317959242162555e-15
166 170 -5.2013238618309248e-15
167 170 -5.9481168531712084e-30
168 170 -1.069076979457565e-14
169 170 -1.328978486521885e-14
170 170 88.171974937810162
171 170 6.5022608095619966e-48
172 170 -3.086444992379896e-30
173 170 -3.0803546259134944e-31
174 170 -6.812288602150376e-17
175 170 -6.4533851454484215e-15
176 170 -7.2749934900897539e-15
177 170 45.830601483487825
178 170 -9.8993414693660968e-16
179 170 4.713869030441372
180 170 -8.1829760336844587e-15
145 171 6.5318893705009539e-31
146 171 -4.5745454226233173e-16
147 171 -4.4476027415812206e-15
148 171 6.6109438852276341e-33
149 171 -8.5565954791339548e-15
150 171 7.3933054334193866e-31
151 171 -5.9464764799179992e-31
152 171 9.0856234332959693e-46
153 171 0.16018692782942079
154 171 2.2025212902399898
155 171 -3.2738411008846242e-18
156 171 4.2373576980176928
157 171 -3.6612785737612669e-16
158 171 2.9447866209998747e-16
159 171 -4.4993404783771836e-31
160 171 15.141997226909327
161 171 -3.182992693391104e-17
162 171 41.197719059823683
163 171 -3.5596788572305899e-15
164 171 2.8630694066690466e-15
165 171 -4.3744847188471161e-30
166 171 3.3454775926706157e-35
167 171 -6.123654128494372e-17
168 171 5.2911283992545191e-33
169 171 -4.2556838563940321e-33
170 171 6.5022608095619966e-48
171 171 56.044524058761631
172 171 -6.8483481521821491e-15
173 171 5.5081643224371013e-15
174 171 -8.4159261390149144e-30
175 171 4.1841618964557385e-31
176 171 -4.7593159350058281e-31
177 171 7.2717604335238389e-46
178 171 2.7067652650328093e-31
179 171 -5.8487171637853997e-46
180 171 6.3188878813884328e-61
145 172 8.2567523535105635e-48
146 172 1.3546305060100391e-30
147 172 9.5162061345200569e-31
148 172 -3.1449300585949563e-15
149 172 4.6870504792911616e-31
150 172 -3.2262763934200835e-15
151 172 -3.1476195026637665e-15
152 172 9.4776445389838285e-31
153 172 -9.5072721938513704e-16
154 172 -7.0212821687162054e-15
155 172 1.5574177400359428
156 172 -1.2833485923513936e-14
157 172 1.5977016963030521
158 172 1.5587495941075946
159 172 -4.6934753599457569e-16
160 172 -6.6710471096669681e-15
161 172 15.141997226904488
162 172 -1.1592227430454427e-14
163 172 15.53365807576013
164 172 15.15494618089491
165 172 -4.5632323979565712e-15
166 172 -3.1829926933900865e-17
167 172 29.131186516610295
168 172 -2.5401623830513311e-15
169 172 2.0019693878788313e-15
170 172 -3.086444992379896e-30
171 172 -6.8483481521821491e-15
172 172 29.884689841398714
173 172 29.156098579942316
174 172 -8.779051541979937e-15
175 172 -3.6517530282905058e-15
176 172 -4.4236445318850748e-16
177 172 -2.4146850151905457e-30
178 172 2.8655178124803109e-15
179 172 -3.7059804540845041e-30
180 172 1.3183063036053374e-45
145 173 -3.317124981067214e-48
146 173 -6.6325411935515961e-31
147 173 -5.4190364297664145e-31
148 173 -3.2346920891832749e-16
149 173 -3.9875267171228511e-31
150 173 -3.1476195026637661e-15
151 173 -6.0477372430959395e-15
152 173 1.4135044544299673e-30
153 173 4.653170811584851e-16
154 173 3.4729354232318145e-15
155 173 0.16018692782944291
156 173 6.3626467699145829e-15
157 173 1.5587495941075944
158 173 2.9949325085091694
159 173 -6.9998914822690004e-16
160 173 3.7667509136819568e-15
161 173 1.5574177400366558
162 173 7.1487057492062996e-15
163 173 15.154946180894909
164 173 29.118237562624241
165 173 -6.8056459540972879e-15
166 173 -3.2738411008850764e-18
167 173 2.9962643625817433
168 173 -2.8141789531594543e-16
169 173 1.6494633269100129e-16
170 173 -3.0803546259134944e-31
171 173 5.5081643224371013e-15
172 173 29.156098579942316
173 173 56.019611995420107
174 173 -1.3093156647959071e-14
175 173 -3.5627229812675337e-15
176 173 -2.8141338207677695e-15
177 173 -1.9645620352787574e-30
178 173 5.5057159166239899e-15
179 173 -6.8582329145588772e-30
180 173 1.9661339109992003e-45
145 174 1.1484147911786335e-62
146 174 9.3753064461428525e-46
147 174 8.178668382060307e-46
148 174 3.9705595675860054e-31
149 174 5.6723100407704568e-46
150 174 9.477644538983832e-31
151 174 1.4135044544299675e-30
152 174 -9.5188259546669548e-15
153 174 -6.5940685432740445e-31
154 174 -4.9577035691358198e-30
155 174 -1.9662821726441189e-16
156 174 -9.0396580591184547e-30
157 174 -4.6934753599457579e-16
158 174 -6.9998914822690014e-16
159 174 4.7138690304407209
160 174 -5.8351259666158116e-30
161 174 -1.9117182525994507e-15
162 174 -1.1031212364329667e-29
163 174 -4.5632323979565727e-15
164 174 -6.8056459540972887e-15
165 174 45.83060148350247
166 174 4.0186146772188266e-33
167 174 -3.6778913738493573e-15
168 174 3.2457012273897017e-31
169 174 -2.4548213553754394e-31
170 174 -6.812288602150376e-17
171 174 -8.4159261390149144e-30
172 174 -8.779051541979937e-15
173 174 -1.3093156647959071e-14
174 174 88.171974937841554
175 174 1.0727542505930833e-30
176 174 5.2120358832376793e-31
177 174 -7.6184779678499954e-15
178 174 -1.2868207827412259e-30
179 174 6.1275839956257412e-15
180 174 -1.3240344905681576e-29
145 175 5.2185482300945429e-65
146 175 1.7159998384502152e-47
147 175 1.2384465772574824e-47
148 175 -3.9754054592842139e-32
149 175 6.6083660097149782e-48
150 175 -4.078232758311986e-32
151 175 -3.9788050994779185e-32
152 175 1.1980387207168766e-47
153 175 2.8213358540789195e-30
154 175 2.879584454899803e-30
155 175 -9.2434473740715979e-15
156 175 1.5365497699548443e-30
157 175 -9.4825371315607047e-15
158 175 -9.2513520760053073e-15
159 175 2.785629788072089e-30
160 175 1.4695178209486305e-30
161 175 -6.6710471096648358e-15
162 175 1.108936470008623e-30
163 175 -6.843599510419795e-15
164 175 -6.6767519767835213e-15
165 175 2.0104044296764378e-30
166 175 15.141997226899649
167 175 -3.5596788572294547e-15
168 175 21.967909923999311
169 175 21.432330426049077
170 175 -6.4533851454484215e-15
171 175 4.1841618964557385e-31
172 175 -3.6517530282905058e-15
173 175 -3.5627229812675337e-15
174 175 1.0727542505930833e-30
175 175 15.935449572065544
176 175 21.986696181228716
177 175 -6.6203075313254829e-15
178 175 15.167906208413712
179 175 -6.4589038749844715e-15
180 175 1.3751878042055848e-30
145 176 -2.9649493277762081e-65
146 176 -1.0813531430056913e-47
147 176 -8.4627997280086229e-48
148 176 8.4019834606188779e-33
149 176 -5.635666622662594e-48
150 176 -1.6549039240362076e-32
151 176 -4.2753644381084887e-32
152 176 9.2309775518258673e-48
153 176 -1.9528228721356772e-30
154 176 -2.146278618691549e-30
155 176 2.5267181478734098e-15
156 176 -1.4056528569896678e-30
157 176 -3.259965494446878e-15
158 176 -9.3672854835621535e-15
159 176 1.9736303541111217e-30
160 176 -1.1734450294962766e-30
161 176 2.1783172651371131e-15
162 176 -1.0734414354617625e-30
163 176 -1.9887878812050005e-15
164 176 -6.4053475710985561e-15
165 176 1.3174652780401425e-30
166 176 2.2025212902395901
167 176 1.7656043017307862e-15
168 176 16.75264787719334
169 176 30.676987156722745
170 176 -7.2749934900897539e-15
171 176 -4.7593159350058281e-31
172 176 -4.4236445318850748e-16
173 176 -2.8141338207677695e-15
174 176 5.2120358832376793e-31
175 176 21.986696181228716
176 176 45.039312159927327
177 176 -1.1548814599358442e-14
178 176 41.214621790941706
179 176 -1.5586615136760641e-14
180 176 2.900506046013268e-30
145 177 1.0264888065863168e-79
146 177 2.529274913412662e-62
147 177 1.9839945478391331e-62
148 177 -3.5549117319776412e-47
149 177 1.224175324697163e-62
150 177 -3.1638020589418318e-47
151 177 -2.6497220443300694e-47
152 177 -8.5082222637352705e-32
153 177 2.7673705507814939e-45
154 177 3.193281744185522e-45
155 177 -3.7081204242051938e-30
156 177 2.0887839413278582e-45
157 177 -2.6808418992279853e-30
158 177 -1.5995134985517143e-30
159 177 -1.9782964416389786e-14
160 177 1.8177999339268543e-45
161 177 -3.5305050760457513e-30
162 177 1.6495039400685136e-45
163 177 -2.8112105699116668e-30
164 177 -2.0094423911196483e-30
165 177 -1.4277474869468234e-14
166 177 -2.7035778802614735e-15
167 177 -2.7754405026666022e-30
168 177 -6.5243988958789041e-15
169 177 -8.7189990472849664e-15
170 177 45.830601483487825
171 177 7.2717604335238389e-46
172 177 -2.4146850151905457e-30
173 177 -1.9645620352787574e-30
174 177 -7.6184779678499954e-15
175 177 -6.6203075313254829e-15
176 177 -1.1548814599358442e-14
177 177 47.016049613397364
178 177 -9.6328674919943653e-15
179 177 45.869794354881861
180 177 -1.9532596551734062e-14
145 178 8.4227682955814358e-66
146 178 3.3741383491235457e-48
147 178 2.809329942266831e-48
148 178 1.642691314330608e-33
149 178 2.1353433755674721e-48
150 178 1.5984727681295034e-32
151 178 3.0712553673372378e-32
152 178 -7.1782767139545565e-48
153 178 6.7583537855354566e-31
154 178 7.9578506158937735e-31
155 178 4.653170811585494e-16
156 178 6.0486820507430172e-31
157 178 4.5279151127705471e-15
158 178 8.6997938721326296e-15
159 178 -2.0333551039970218e-30
160 178 4.6851192194478716e-31
161 178 3.8742608437691336e-16
162 178 5.0361727463896884e-31
163 178 3.7699721191494711e-15
164 178 7.2435060118030702e-15
165 178 -1.6929849300351729e-30
166 178 0.16018692782946503
167 178 2.9447866210002839e-16
168 178 2.2044048163308219
169 178 4.2354741719263282
170 178 -9.8993414693660968e-16
171 178 2.7067652650328093e-31
172 178 2.8655178124803109e-15
173 178 5.5057159166239899e-15
174 178 -1.2868207827412259e-30
175 178 15.167906208413712
176 178 41.214621790941706
177 178 -9.6328674919943653e-15
178 178 55.994711005611819
179 178 -1.8508289022812558e-14
180 178 3.0588314182365385e-30
145 179 -4.1238873558628978e-80
146 179 -1.1641146865672266e-62
147 179 -9.9547153012154426e-63
148 179 -5.4472095344710379e-48
149 179 -7.5344481761288452e-63
150 179 -4.253492650087234e-47
151 179 -8.0261962690362234e-47
152 179 3.4181522476581083e-32
153 179 -1.3544419060668006e-45
154 179 -1.6691106760739741e-45
155 179 -8.7015144807949389e-31
156 179 -1.2596010534807443e-45
157 179 -5.5012523249615299e-30
158 179 -1.0155429073309674e-29
159 179 9.6824315862651305e-15
160 179 -1.0264055176716936e-45
161 179 -7.6065572058276156e-31
162 179 -1.0957591806882228e-45
163 179 -4.9322635564114486e-30
164 179 -9.1315772071939121e-30
165 179 8.0616566823083702e-15
166 179 -2.7807429160061329e-16
167 179 -5.7374950557180871e-31
168 179 -2.3827006291844935e-15
169 179 -4.3762456814847175e-15
170 179 4.713869030441372
171 179 -5.8487171637853997e-46
172 179 -3.7059804540845041e-30
173 179 -6.8582329145588772e-30
174 179 6.1275839956257412e-15
175 179 -6.4589038749844715e-15
176 179 -1.5586615136760641e-14
177 179 45.869794354881861
178 179 -1.8508289022812558e-14
179 179 88.132782066432554
180 179 -2.9131090661709632e-14
145 180 1.0095521049040029e-94
146 180 1.655405105759996e-77
147 180 1.5066869407652432e-77
148 180 6.9809041121618012e-63
149 180 1.129534998245569e-77
150 180 1.666327544256568e-62
151 180 2.4851759281093944e-62
152 180 -1.6735679220721748e-46
153 180 1.3572187363409248e-60
154 180 1.7469624812711956e-60
155 180 8.0941682305313316e-46
156 180 1.3096650736320329e-60
157 180 1.9320614140628943e-45
158 180 2.8814938181918469e-45
159 180 -1.9404564349871941e-29
160 180 1.1243132109998369e-60
161 180 7.3670049263860277e-46
162 180 1.1920074768114322e-60
163 180 1.7584890195131708e-45
164 180 2.6226263835112726e-45
165 180 -1.7661298491506308e-29
166 180 2.4135961871839944e-31
167 180 5.5229057022118839e-46
168 180 8.1475739222084128e-31
169 180 1.2151365230536296e-30
170 180 -8.1829760336844587e-15
171 180 6.3188878813884328e-61
172 180 1.3183063036053374e-45
173 180 1.9661339109992003e-45
174 180 -1.3240344905681576e-29
175 180 1.3751878042055848e-30
176 180 2.900506046013268e-30
177 180 -1.9532596551734062e-14
178 180 3.0588314182365385e-30
179 180 -2.9131090661709632e-14
180 180 138.71644545159435
181 181 133.86897222912691
182 181 -5.3625699585261939e-15
183 181 4.2990479391587791e-15
184 181 -9.7160036152278561e-31
185 181 1.201460747351475e-14
186 181 -2.4127754440591144e-31
187 181 7.306233910181386e-32
188 181 1.6239928744348253e-46
189 181 1.0740784844109497e-31
190 181 -1.2177281115833545e-31
191 181 2.7521095140017435e-47
192 181 -3.4032012383191103e-31
193 181 6.8343143103998799e-48
194 181 -2.0695294744660091e-48
195 181 -4.6000458803846445e-63
196 181 6.9029487847603595e-32
197 181 -2.2063023561486788e-47
198 181 2.7282674880309279e-31
199 181 -5.4789112457122722e-48
200 181 1.6590937723965155e-48
201 181 3.6877500741339451e-63
202 181 3.5258628149565497e-63
203 181 -6.1659830623345115e-47
204 181 1.238253730226359e-63
205 181 -3.7496118486552205e-64
206 181 -8.3344483614558898e-79
207 181 5.3914955175963926e-31
208 181 -1.5311987428625753e-47
209 181 4.6366918255388044e-48
210 181 1.0306205054743834e-62
211 181 2.1743221175756201e-64
212 181 -9.3114121314334758e-65
213 181 -2.0696937900252008e-79
214 181 1.9937799275592176e-65
215 181 6.267332913059713e-80
216 181 9.8505008752915368e-95
181 182 -5.3625699585261939e-15
182 182 85.716817974920133
183 182 44.213698718690885
184 182 9.3796084206508052e-15
185 182 3.9384555352196546
186 182 2.3086408472013726e-14
187 182 -4.2964645874314077e-15
188 182 -1.1942957087542708e-29
189 182 -3.4336741767471597e-15
190 182 6.9407422264457462e-16
191 182 -7.055872608191646e-31
192 182 5.328213196875292e-15
193 182 -7.6317634591734883e-31
194 182 1.5477957425944428e-31
195 182 4.1181900853092668e-46
196 182 1.4198720375268449e-15
197 182 -1.3916484924072718e-32
198 182 2.8953297290735295e-15
199 182 4.6789628195497775e-31
200 182 -8.0500771368754732e-32
201 182 -2.3327293165789476e-46
202 182 -6.8075751839765943e-47
203 182 5.750375125304105e-31
204 182 -1.3043492979381681e-46
205 182 2.5669555423335477e-47
206 182 6.9338002153846971e-62
207 182 3.5347247775174524e-16
208 182 1.4600933521725954e-30
209 182 -2.7114287027775739e-31
210 182 -7.5454709031039369e-46
211 182 -4.1609581761687355e-47
212 182 1.4385153537018638e-47
213 182 3.502433761592693e-62
214 182 -2.3449029853677576e-48
215 182 -8.2945744810030061e-63
216 182 -1.4488254363228129e-77
181 183 4.2990479391587791e-15
182 183 44.213698718690885
183 183 45.375444788873715
184 183 6.4103680781371803e-15
185 183 44.279828721297001
186 183 1.7199061892731729e-14
187 183 -3.4382776814662518e-15
188 183 -1.04289886138198e-29
189 183 -1.7711277569244187e-15
190 183 -2.8128237419384359e-16
191 183 -4.084849582647366e-31
192 183 1.5516459800825669e-15
193 183 -5.4352058412861881e-31
194 183 1.1445404144764815e-31
195 183 3.3333341522381448e-46
196 183 1.4571801751887617e-15
197 183 -8.7303922412963601e-32
198 183 3.8851252983681514e-15
199 183 3.3272630065603726e-31
200 183 -6.056478906969083e-32
201 183 -1.9789730323027654e-46
202 183 -4.6525463208894275e-47
203 183 1.7956835744515532e-31
204 183 -9.6436502080131463e-47
205 183 2.0119385612446962e-47
206 183 5.9021174096097606e-62
207 183 3.9740707067972068e-15
208 183 1.0350568195777203e-30
209 183 -2.0111190791037442e-31
210 183 -6.2386234187659102e-46
211 183 -3.0998575327014462e-47
212 183 1.1019387409164399e-47
213 183 2.8044661625990158e-62
214 183 -1.8765260217386256e-48
215 183 -6.9741438710659388e-63
216 183 -1.2651627120542549e-77
181 184 -9.7160036152278561e-31
182 184 9.3796084206508052e-15
183 184 6.4103680781371803e-15
184 184 85.650687972311189
185 184 6.1420919803061932e-16
186 184 44.279828721277163
187 184 3.9384555352292776
188 184 7.2213330883184716e-15
189 184 -3.7573162400624702e-31
190 184 3.1414327361465525e-32
191 184 -2.4261011273935408e-15
192 184 5.7785214887714805e-31
193 184 -1.2542496146378455e-15
194 184 -1.1155884022098658e-16
195 184 -2.045480866741195e-31
196 184 2.0586159150159312e-31
197 184 1.9449489950856454e-15
198 184 4.2076304016430706e-31
199 184 1.0055028209797824e-15
200 184 8.9434134352772982e-17
201 184 1.6398145614438221e-31
202 184 -6.2163948831838746e-31
203 184 5.4355752861256808e-15
204 184 -3.364045812869297e-31
205 184 1.2841979556024872e-32
206 184 3.6411291769298475e-47
207 184 5.5124666292236556e-32
208 184 2.8100923456898615e-15
209 184 2.4994278598168081e-16
210 184 4.5828119536988502e-31
211 184 -7.9807353136153879e-32
212 184 1.2069169845475762e-32
213 184 2.8780302135248259e-47
214 184 2.1495105928054483e-33
215 184 6.165297252403159e-48
216 184 8.7603522191571809e-63
181 185 1.201460747351475e-14
182 185 3.9384555352196546
183 185 44.279828721297001
184 185 6.1420919803061932e-16
185 185 85.650687972374911
186 185 9.8255217948930636e-15
187 185 -2.8278233860699897e-15
188 185 -7.6221207346762334e-30
189 185 -1.577680248427468e-16
190 185 -1.1648154802858531e-15
191 185 -3.7610238415846913e-32
192 185 -2.1761583414142759e-15
193 185 -2.8333246700724632e-31
194 185 8.1619529532631635e-32
195 185 2.1927904082088555e-46
196 185 1.4219957264346518e-15
197 185 -2.132998557007835e-31
198 185 4.7550413407782127e-15
199 185 1.6668484511766967e-31
200 185 -4.7125463065744077e-32
201 185 -1.3509899745071708e-46
202 185 -4.4578356651624783e-48
203 185 -4.0058647229770719e-31
204 185 -5.1208062729818016e-47
205 185 1.4749629580170378e-47
206 185 3.964414488631627e-62
207 185 7.6870642889446744e-15
208 185 5.1439125135644827e-31
209 185 -1.4640528472897241e-31
210 185 -4.1024434085640903e-46
211 185 -1.7708941300742008e-47
212 185 7.3957899100566511e-48
213 185 1.8142387068188322e-62
214 185 -1.5433553250935858e-48
215 185 -5.3672625361530748e-63
216 185 -9.2465562072907036e-78
181 186 -2.4127754440591144e-31
182 186 2.3086408472013726e-14
183 186 1.7199061892731729e-14
184 186 44.279828721277163
185 186 9.8255217948930636e-15
186 186 45.375444788859845
187 186 44.213698718692328
188 186 1.3109685094603414e-14
189 186 -9.2480339888852569e-31
190 186 3.7071780564980805e-32
191 186 -1.2542496146378453e-15
192 186 1.1867995954230789e-30
193 186 -1.2852835203458423e-15
194 186 -1.2523764472690167e-15
195 186 -3.7133877778594038e-31
196 186 5.5232807389759991e-31
197 186 1.0055028209797822e-15
198 186 1.3146063058776885e-30
199 186 1.0303819832862597e-15
200 186 1.0040011461524247e-15
201 186 2.9769368413221216e-31
202 186 -3.2137617012884321e-31
203 186 2.8100923456898607e-15
204 186 -2.8930237034064815e-31
205 186 -2.0981936030079171e-31
206 186 -2.9296335202306165e-47
207 186 8.8183083520604692e-31
208 186 2.8796224773870383e-15
209 186 2.8058955947210664e-15
210 186 8.3196856904389047e-31
211 186 -8.1782026951578844e-32
212 186 -3.883669491943087e-32
213 186 2.2215732445730767e-47
214 186 2.4130731677133232e-32
215 186 4.2986091395456801e-47
216 186 1.5903636836353612e-62
181 187 7.306233910181386e-32
182 187 -4.2964645874314077e-15
183 187 -3.4382776814662518e-15
184 187 3.9384555352292776
185 187 -2.8278233860699897e-15
186 187 44.213698718692328
187 187 85.716817974919238
188 187 1.775329630699104e-14
189 187 1.7210927626432033e-31
190 187 -1.7273792889335266e-34
191 187 -1.1155884022098663e-16
192 187 -1.9256320777792857e-31
193 187 -1.2523764472690165e-15
194 187 -2.4279742947630273e-15
195 187 -5.028715262598864e-31
196 187 -1.1041632974946718e-31
197 187 8.9434134352773031e-17
198 187 -2.824144209248399e-31
199 187 1.0040011461524247e-15
200 187 1.9464506699135304e-15
201 187 4.0314043739269839e-31
202 187 -2.8584703073309955e-32
203 187 2.4994278598168091e-16
204 187 -2.3192724040402174e-31
205 187 -4.3838494806170358e-31
206 187 -8.773276324454929e-47
207 187 -2.537943439960007e-31
208 187 2.8058955947210664e-15
209 187 5.4397720370959491e-15
210 187 1.1266620378562448e-30
211 187 -7.9688164317642333e-32
212 187 -9.2178587295009841e-32
213 187 1.5301140362633362e-47
214 187 4.678209683171903e-32
215 187 8.0379793403258153e-47
216 187 2.1536900015301588e-62
181 188 1.6239928744348253e-46
182 188 -1.1942957087542708e-29
183 188 -1.04289886138198e-29
184 188 7.2213330883184716e-15
185 188 -7.6221207346762334e-30
186 188 1.3109685094603414e-14
187 188 1.775329630699104e-14
188 188 133.86897222893381
189 188 4.7841513853176237e-46
190 188 2.4206911782073555e-47
191 188 -2.0454808667411928e-31
192 188 -5.4202491282182147e-46
193 188 -3.7133877778594012e-31
194 188 -5.0287152625988596e-31
195 188 -3.7919095822556639e-15
196 188 -3.3491496394959431e-46
197 188 1.6398145614438206e-31
198 188 -8.3492836456664687e-46
199 188 2.9769368413221194e-31
200 188 4.0314043739269813e-31
201 188 3.0398859504208393e-15
202 188 -5.2411322224318268e-47
203 188 4.5828119536988459e-31
204 188 -7.6483058306362689e-47
205 188 -8.8324329324475877e-47
206 188 -6.8702520423507174e-31
207 188 -6.8407777559400589e-46
208 188 8.3196856904388994e-31
209 188 1.1266620378562439e-30
210 188 8.4956104178045969e-15
211 188 -2.3628123641454997e-47
212 188 -1.7566340025758478e-47
213 188 -1.706089877972122e-31
214 188 9.6893053959207702e-48
215 188 5.1662875428169092e-32
216 188 1.6239928744324823e-46
181 189 1.0740784844109497e-31
182 189 -3.4336741767471597e-15
183 189 -1.7711277569244187e-15
184 189 -3.7573162400624702e-31
185 189 -1.577680248427468e-16
186 189 -9.2480339888852569e-31
187 189 1.7210927626432033e-31
188 189 4.7841513853176237e-46
189 189 54.884808342199882
190 189 40.036670773758161
191 189 8.4934829070433631e-15
192 189 3.5663754037844404
193 189 2.0905352009190201e-14
194 189 -3.8905620466759085e-15
195 189 -1.0814662759189912e-29
196 189 14.602720270802514
197 189 4.3810340047693199e-15
198 189 1.8395765422446122
199 189 1.0783215676808484e-14
200 189 -2.0067956585887142e-15
201 189 -5.5783246774810406e-30
202 189 6.5718779087077219e-31
203 189 3.9025252639121756e-16
204 189 2.2875792683033267e-30
205 189 -4.2572682230421436e-31
206 189 -1.1834002274029736e-45
207 189 0.11587025540518239
208 189 9.6054428153599151e-16
209 189 -1.7876078452315271e-16
210 189 -4.9690445133444619e-31
211 189 3.981372585937306e-30
212 189 -1.0478585966945455e-30
213 189 -2.9127507045548228e-45
214 189 1.3789310281395907e-31
215 189 5.4207350048866615e-46
216 189 1.0654763506499679e-60
181 190 -1.2177281115833545e-31
182 190 6.9407422264457462e-16
183 190 -2.8128237419384359e-16
184 190 3.1414327361465525e-32
185 190 -1.1648154802858531e-15
186 190 3.7071780564980805e-32
187 190 -1.7273792889335266e-34
188 190 2.4206911782073555e-47
189 190 40.036670773758161
190 190 43.656792149935839
191 190 7.202442197482419e-15
192 190 29.653321742892121
193 190 1.8637510430781536e-14
194 190 -3.6205612467413595e-15
195 190 -1.0622192741709679e-29
196 190 21.193994214037179
197 190 5.2964475270455092e-15
198 190 15.959517299092433
199 190 1.3505670235971558e-14
200 190 -2.5918848812726943e-15
201 190 -7.4925588338167795e-30
202 190 6.3518867109696246e-31
203 190 3.2910867742272794e-15
204 190 2.3105641024649949e-30
205 190 -4.4664283843042025e-31
206 190 -1.302606402299421e-45
207 190 1.8423279791308766
208 190 8.1422896979085421e-15
209 190 -1.5222961408674816e-15
210 190 -4.2571941257892969e-30
211 190 4.194654579977549e-30
212 190 -1.1449452461060822e-30
213 190 -3.3329272780191345e-45
214 190 1.5605843718458401e-31
215 190 6.4145545930147395e-46
216 190 1.315797733091404e-60
181 191 2.7521095140017435e-47
182 191 -7.055872608191646e-31
183 191 -4.084849582647366e-31
184 191 -2.4261011273935408e-15
185 191 -3.7610238415846913e-32
186 191 -1.2542496146378453e-15
187 191 -1.1155884022098663e-16
188 191 -2.0454808667411928e-31
189 191 8.4934829070433631e-15
190 191 7.202442197482419e-15
191 191 54.842465047096475
192 191 6.6923072043410887e-16
193 191 28.352544695346548
194 191 2.5218082322790512
195 191 4.6238473602801459e-15
196 191 2.9941591667702089e-15
197 191 28.288360252432636
198 191 3.9145299467010368e-16
199 191 14.624561418620049
200 191 1.300777047536045
201 191 2.3850324701838775e-15
202 191 8.4869302367497377e-15
203 191 2.5198626725925219
204 191 1.7873403992945763e-14
205 191 -2.4729701852878155e-15
206 191 -7.1352547077796322e-30
207 191 2.5555085086115083e-17
208 191 1.3027226072125673
209 191 0.1158702554054655
210 191 2.1245325783846623e-16
211 191 1.0799344028456528e-14
212 191 -7.4193385629400247e-16
213 191 -2.7050140360790933e-30
214 191 -1.7876078452358947e-16
215 191 -5.8312995190115949e-31
216 191 -9.1109637370935684e-46
181 192 -3.4032012383191103e-31
182 192 5.328213196875292e-15
183 192 1.5516459800825669e-15
184 192 5.7785214887714805e-31
185 192 -2.1761583414142759e-15
186 192 1.1867995954230789e-30
187 192 -1.9256320777792857e-31
188 192 -5.4202491282182147e-46
189 192 3.5663754037844404
190 192 29.653321742892121
191 192 6.6923072043410887e-16
192 192 54.958335302542459
193 192 6.9705267837300876e-15
194 192 -1.9370691570000447e-15
195 192 -5.2318377394000259e-30
196 192 20.682253101980052
197 192 3.3053508024039256e-15
198 192 29.591082859666834
199 192 1.0881422700711074e-14
200 192 -2.3551032178142449e-15
201 192 -6.4677738957103482e-30
202 192 6.0860580783683367e-32
203 192 6.0192360958255472e-15
204 192 7.9435458140708385e-31
205 192 -2.1784588039573594e-31
206 192 -5.8884430506203491e-46
207 192 3.5636239669007099
208 192 1.5059980782403294e-14
209 192 -2.8321155986732957e-15
210 192 -7.8654661870706997e-30
211 192 2.3963324427034365e-30
212 192 -8.0301873117489896e-31
213 192 -2.1910467599842895e-45
214 192 1.2835080210156456e-31
215 192 4.969093589161819e-46
216 192 9.6166268421714356e-61
181 193 6.8343143103998799e-48
182 193 -7.6317634591734883e-31
183 193 -5.4352058412861881e-31
184 193 -1.2542496146378455e-15
185 193 -2.8333246700724632e-31
186 193 -1.2852835203458423e-15
187 193 -1.2523764472690165e-15
188 193 -3.7133877778594012e-31
189 193 2.0905352009190201e-14
190 193 1.8637510430781536e-14
191 193 28.352544695346548
192 193 6.9705267837300876e-15
193 193 29.054071879124447
194 193 28.310201400258578
195 193 8.3941818051355152e-15
196 193 8.0333497543772467e-15
197 193 14.624561418620045
198 193 3.7511336088366542e-15
199 193 14.986417029169557
200 193 14.60272027080299
201 193 4.3298133796228821e-15
202 193 4.3875866750606979e-15
203 193 1.3027226072125668
204 193 1.081554667115751e-14
205 193 1.6767176219816223e-15
206 193 -3.0318331036775924e-30
207 193 4.0880541400074103e-16
208 193 1.3349558804654229
209 193 1.300777047532909
210 193 3.8568990981600399e-16
211 193 1.1066552262268989e-14
212 193 6.1685803906903287e-15
213 193 -1.7872808083441647e-30
214 193 -2.0067956585887797e-15
215 193 -4.3652206669996768e-30
216 193 -1.6540140724828483e-45
181 194 -2.0695294744660091e-48
182 194 1.5477957425944428e-31
183 194 1.1445404144764815e-31
184 194 -1.1155884022098658e-16
185 194 8.1619529532631635e-32
186 194 -1.2523764472690167e-15
187 194 -2.4279742947630273e-15
188 194 -5.0287152625988596e-31
189 194 -3.8905620466759085e-15
190 194 -3.6205612467413595e-15
191 194 2.5218082322790512
192 194 -1.9370691570000447e-15
193 194 28.310201400258578
194 194 54.884808342199307
195 194 1.1367503930561189e-14
196 194 -1.6059531234991486e-15
197 194 1.3007770475360456
198 194 -1.03511689588101e-15
199 194 14.602720270802989
200 194 28.310201400257359
201 194 5.8634863711609753e-15
202 194 3.9025252639217129e-16
203 194 0.11587025540546556
204 194 3.7770662284870637e-15
205 194 5.8793963965154727e-15
206 194 8.9253065963122059e-31
207 194 -1.1765578807877469e-16
208 194 1.300777047532909
209 194 2.5218082322728632
210 194 5.2230600522958705e-16
211 194 1.0783215676808835e-14
212 194 1.3363297350146205e-14
213 194 -8.8282186860746956e-31
214 194 -3.8905620466758674e-15
215 194 -8.2169054511144926e-30
216 194 -2.2398861385929626e-45
181 195 -4.6000458803846445e-63
182 195 4.1181900853092668e-46
183 195 3.3333341522381448e-46
184 195 -2.045480866741195e-31
185 195 2.1927904082088555e-46
186 195 -3.7133877778594038e-31
187 195 -5.028715262598864e-31
188 195 -3.7919095822556639e-15
189 195 -1.0814662759189912e-29
190 195 -1.0622192741709679e-29
191 195 4.6238473602801459e-15
192 195 -5.2318377394000259e-30
193 195 8.3941818051355152e-15
194 195 1.1367503930561189e-14
195 195 85.716817974796484
196 195 -4.8711792330160404e-30
197 195 2.3850324701838752e-15
198 195 -2.8242261922278835e-30
199 195 4.329813379622879e-15
200 195 5.8634863711609706e-15
201 195 44.2136987186271
202 195 7.1554533405989085e-31
203 195 2.1245325783846603e-16
204 195 2.1638946895115338e-30
205 195 1.0121297220125128e-30
206 195 9.3796084206372746e-15
207 195 -3.1712964334601658e-31
208 195 3.8568990981600374e-16
209 195 5.2230600522958666e-16
210 195 3.938455535213973
211 195 3.1973023277147712e-30
212 195 2.6408998786073172e-30
213 195 2.308640847198042e-14
214 195 -8.0579637051372954e-31
215 195 -4.2964645874252096e-15
216 195 -1.6889891888018413e-29
181 196 6.9029487847603595e-32
182 196 1.4198720375268449e-15
183 196 1.4571801751887617e-15
184 196 2.0586159150159312e-31
185 196 1.4219957264346518e-15
186 196 5.5232807389759991e-31
187 196 -1.1041632974946718e-31
188 196 -3.3491496394959431e-46
189 196 14.602720270802514
190 196 21.193994214037179
191 196 2.9941591667702089e-15
192 196 20.682253101980052
193 196 8.0333497543772467e-15
194 196 -1.6059531234991486e-15
195 196 -4.8711792330160404e-30
196 196 15.380195691071778
197 196 3.0728328073682296e-15
198 196 21.225693866706493
199 196 8.2444316762697768e-15
200 196 -1.6481506727335504e-15
201 196 -4.9991728976548497e-30
202 196 3.0696298188630028e-31
203 196 2.9986375017487376e-15
204 196 1.1647233847957021e-30
205 196 -2.3284074701290778e-31
206 196 -7.0625287553719845e-46
207 196 14.64643523404477
208 196 8.0453651581002597e-15
209 196 -1.6083551320919594e-15
210 196 -4.8784650087984241e-30
211 196 2.2096810415928873e-30
212 196 -6.2471333474327118e-31
213 196 -1.8948813500603006e-45
214 196 8.8308390048169067e-32
215 196 3.7880718701827825e-46
216 196 8.1246461892482423e-61
181 197 -2.2063023561486788e-47
182 197 -1.3916484924072718e-32
183 197 -8.7303922412963601e-32
184 197 1.9449489950856454e-15
185 197 -2.132998557007835e-31
186 197 1.0055028209797822e-15
187 197 8.9434134352773031e-17
188 197 1.6398145614438206e-31
189 197 4.3810340047693199e-15
190 197 5.2964475270455092e-15
191 197 28.288360252432636
192 197 3.3053508024039256e-15
193 197 14.624561418620045
194 197 1.3007770475360456
195 197 2.3850324701838752e-15
196 197 3.0728328073682296e-15
197 197 29.03165683976864
198 197 2.3285456734710853e-15
199 197 15.008832068531145
200 197 1.3349558804690929
201 197 2.447700877881201e-15
202 197 5.8002790981398863e-15
203 197 28.330670879940154
204 197 1.3124486241067441e-14
205 197 -2.0112494682858445e-15
206 197 -6.3267733546529132e-30
207 197 2.8731434961045904e-16
208 197 14.646435234038206
209 197 1.302722607216334
210 197 2.3885997402390803e-15
211 197 8.0453651580966547e-15
212 197 -6.3127851743960298e-16
213 197 -2.5218216678826373e-30
214 197 -1.4305464486937724e-16
215 197 -4.9229522886479675e-31
216 197 -7.9559975288016481e-46
181 198 2.7282674880309279e-31
182 198 2.8953297290735295e-15
183 198 3.8851252983681514e-15
184 198 4.2076304016430706e-31
185 198 4.7550413407782127e-15
186 198 1.3146063058776885e-30
187 198 -2.824144209248399e-31
188 198 -8.3492836456664687e-46
189 198 1.8395765422446122
190 198 15.959517299092433
191 198 3.9145299467010368e-16
192 198 29.591082859666834
193 198 3.7511336088366542e-15
194 198 -1.03511689588101e-15
195 198 -2.8242261922278835e-30
196 198 21.225693866706493
197 198 2.3285456734710853e-15
198 198 43.67809207383501
199 198 9.0193337290721456e-15
200 198 -2.0957813157626739e-15
201 198 -6.0331452066635982e-30
202 198 4.1594350934059903e-32
203 198 4.304578608014122e-15
204 198 5.4941060690077133e-31
205 198 -1.5118671791640502e-31
206 198 -4.128378612174712e-46
207 198 40.065618989569685
208 198 1.4254116349666285e-14
209 198 -3.1352028558809088e-15
210 198 -9.1937379495711105e-30
211 198 1.7852352412277336e-30
212 198 -6.1566754687876939e-31
213 198 -1.7447178185198234e-45
214 198 1.0271368221096656e-31
215 198 4.1606583344630367e-46
216 198 8.397559423952935e-61
181 199 -5.4789112457122722e-48
182 199 4.6789628195497775e-31
183 199 3.3272630065603726e-31
184 199 1.0055028209797824e-15
185 199 1.6668484511766967e-31
186 199 1.0303819832862597e-15
187 199 1.0040011461524247e-15
188 199 2.9769368413221194e-31
189 199 1.0783215676808484e-14
190 199 1.3505670235971558e-14
191 199 14.624561418620049
192 199 1.0881422700711074e-14
193 199 14.986417029169557
194 199 14.602720270802989
195 199 4.329813379622879e-15
196 199 8.2444316762697768e-15
197 199 15.008832068531145
198 199 9.0193337290721456e-15
199 199 15.380195691067076
200 199 14.986417029174628
201 199 4.4435822752331848e-15
202 199 2.9986375017473934e-15
203 199 14.646435234038202
204 199 7.8617531759540293e-15
205 199 9.7991143031725296e-16
206 199 -2.8218332928371009e-30
207 199 4.5961757217812933e-15
208 199 15.008832068533282
209 199 14.62456141862708
210 199 4.3362894397213651e-15
211 199 8.2444316762672556e-15
212 199 4.5150175698569134e-15
213 199 -1.8506582039123123e-30
214 199 -1.6059531234991996e-15
215 199 -3.781151746809145e-30
216 199 -1.4443402754091706e-45
181 200 1.6590937723965155e-48
182 200 -8.0500771368754732e-32
183 200 -6.056478906969083e-32
184 200 8.9434134352772982e-17
185 200 -4.7125463065744077e-32
186 200 1.0040011461524247e-15
187 200 1.9464506699135304e-15
188 200 4.0314043739269813e-31
189 200 -2.0067956585887142e-15
190 200 -2.5918848812726943e-15
191 200 1.300777047536045
192 200 -2.3551032178142449e-15
193 200 14.60272027080299
194 200 28.310201400257359
195 200 5.8634863711609706e-15
196 200 -1.6481506727335504e-15
197 200 1.3349558804690929
198 200 -2.0957813157626739e-15
199 200 14.986417029174628
200 200 29.054071879133026
201 200 6.0175536046386341e-15
202 200 2.667128759969261e-16
203 200 1.3027226072163347
204 200 2.6231905537934501e-15
205 200 4.0034284346337642e-15
206 200 5.4330032407481905e-31
207 200 -1.3227972482128842e-15
208 200 14.624561418627078
209 200 28.352544695358958
210 200 5.8722563311562448e-15
211 200 8.033349754377507e-15
212 200 9.8770451588190562e-15
213 200 -1.1635565429061351e-30
214 200 -3.1134511599553259e-15
215 200 -7.133695472766194e-30
216 200 -1.9559433115609669e-45
181 201 3.6877500741339451e-63
182 201 -2.3327293165789476e-46
183 201 -1.9789730323027654e-46
184 201 1.6398145614438221e-31
185 201 -1.3509899745071708e-46
186 201 2.9769368413221216e-31
187 201 4.0314043739269839e-31
188 201 3.0398859504208393e-15
189 201 -5.5783246774810406e-30
190 201 -7.4925588338167795e-30
191 201 2.3850324701838775e-15
192 201 -6.4677738957103482e-30
193 201 4.3298133796228821e-15
194 201 5.8634863711609753e-15
195 201 44.2136987186271
196 201 -4.9991728976548497e-30
197 201 2.447700877881201e-15
198 201 -6.0331452066635982e-30
199 201 4.4435822752331848e-15
200 201 6.0175536046386341e-15
201 201 45.375444788808259
202 201 4.8902989999227129e-31
203 201 2.388599740239078e-15
204 201 1.5555364182824797e-30
205 201 6.6465151751835313e-31
206 201 6.4103680781279325e-15
207 201 -3.565470312977508e-30
208 201 4.3362894397213619e-15
209 201 5.8722563311562401e-15
210 201 44.27982872123313
211 201 2.3819469663634947e-30
212 201 1.944179446366399e-30
213 201 1.7199061892706921e-14
214 201 -6.448445274397593e-31
215 201 -3.4382776814612918e-15
216 201 -1.4748817139477269e-29
181 202 3.5258628149565497e-63
182 202 -6.8075751839765943e-47
183 202 -4.6525463208894275e-47
184 202 -6.2163948831838746e-31
185 202 -4.4578356651624783e-48
186 202 -3.2137617012884321e-31
187 202 -2.8584703073309955e-32
188 202 -5.2411322224318268e-47
189 202 6.5718779087077219e-31
190 202 6.3518867109696246e-31
191 202 8.4869302367497377e-15
192 202 6.0860580783683367e-32
193 202 4.3875866750606979e-15
194 202 3.9025252639217129e-16
195 202 7.1554533405989085e-31
196 202 3.0696298188630028e-31
197 202 5.8002790981398863e-15
198 202 4.1594350934059903e-32
199 202 2.9986375017473934e-15
200 202 2.667128759969261e-16
201 202 4.8902989999227129e-31
202 202 54.800154419587152
203 202 5.5575354329068925e-16
204 202 40.065618989521916
205 202 3.563623966906766
206 202 6.5340627655582877e-15
207 202 2.8180760087000412e-33
208 202 2.8731434961033026e-16
209 202 2.5555085086177523e-17
210 202 4.6856383132141807e-32
211 202 14.646435234031642
212 202 1.8423279791345526
213 202 3.3779901477254457e-15
214 202 0.11587025540574862
215 202 3.0045427860624114e-16
216 202 3.895424810132856e-31
181 203 -6.1659830623345115e-47
182 203 5.750375125304105e-31
183 203 1.7956835744515532e-31
184 203 5.4355752861256808e-15
185 203 -4.0058647229770719e-31
186 203 2.8100923456898607e-15
187 203 2.4994278598168091e-16
188 203 4.5828119536988459e-31
189 203 3.9025252639121756e-16
190 203 3.2910867742272794e-15
191 203 2.5198626725925219
192 203 6.0192360958255472e-15
193 203 1.3027226072125668
194 203 0.11587025540546556
195 203 2.1245325783846603e-16
196 203 2.9986375017487376e-15
197 203 28.330670879940154
198 203 4.304578608014122e-15
199 203 14.646435234038202
200 203 1.3027226072163347
201 203 2.388599740239078e-15
202 203 5.5575354329068925e-16
203 203 54.800154419627923
204 203 6.4896276189905619e-15
205 203 -1.7911991021628524e-15
206 203 -4.8435755106536343e-30
207 203 5.5575354329110271e-16
208 203 28.330670879948535
209 203 2.5198626726005537
210 203 4.6202800902282287e-15
211 203 4.5961757217792328e-15
212 203 -6.4628982391941087e-16
213 203 -1.9911472430121372e-30
214 203 -1.1765578807906206e-16
215 203 -3.7678662459187542e-31
216 203 -5.8147128139495485e-46
181 204 1.238253730226359e-63
182 204 -1.3043492979381681e-46
183 204 -9.6436502080131463e-47
184 204 -3.364045812869297e-31
185 204 -5.1208062729818016e-47
186 204 -2.8930237034064815e-31
187 204 -2.3192724040402174e-31
188 204 -7.6483058306362689e-47
189 204 2.2875792683033267e-30
190 204 2.3105641024649949e-30
191 204 1.7873403992945763e-14
192 204 7.9435458140708385e-31
193 204 1.081554667115751e-14
194 204 3.7770662284870637e-15
195 204 2.1638946895115338e-30
196 204 1.1647233847957021e-30
197 204 1.3124486241067441e-14
198 204 5.4941060690077133e-31
199 204 7.8617531759540293e-15
200 204 2.6231905537934501e-15
201 204 1.5555364182824797e-30
202 204 40.065618989521916
203 204 6.4896276189905619e-15
204 204 43.678092073791397
205 204 29.591082859649308
206 204 1.0776305485274766e-14
207 204 6.375393685128062e-32
208 204 3.4581757820592789e-15
209 204 4.9192759184978291e-16
210 204 5.9017002596548095e-31
211 204 21.225693866690492
212 204 15.95951729908921
213 204 6.7839903175998749e-15
214 204 1.8395765422491672
215 204 2.7707223800009022e-15
216 204 1.0001029445733631e-30
181 205 -3.7496118486552205e-64
182 205 2.5669555423335477e-47
183 205 2.0119385612446962e-47
184 205 1.2841979556024872e-32
185 205 1.4749629580170378e-47
186 205 -2.0981936030079171e-31
187 205 -4.3838494806170358e-31
188 205 -8.8324329324475877e-47
189 205 -4.2572682230421436e-31
190 205 -4.4664283843042025e-31
191 205 -2.4729701852878155e-15
192 205 -2.1784588039573594e-31
193 205 1.6767176219816223e-15
194 205 5.8793963965154727e-15
195 205 1.0121297220125128e-30
196 205 -2.3284074701290778e-31
197 205 -2.0112494682858445e-15
198 205 -1.5118671791640502e-31
199 205 9.7991143031725296e-16
200 205 4.0034284346337642e-15
201 205 6.6465151751835313e-31
202 205 3.563623966906766
203 205 -1.7911991021628524e-15
204 205 29.591082859649308
205 205 54.958335302501645
206 205 1.157118722840453e-14
207 205 -1.8348630978131469e-32
208 205 -7.3250039292243728e-16
209 205 3.1008530705114059e-16
210 205 -7.1087545831113906e-32
211 205 20.682253101971458
212 205 29.653321742882341
213 205 8.2572888013375688e-15
214 205 3.5663754037931179
215 205 5.1461533655109614e-15
216 205 1.3543516708737745e-30
181 206 -8.3344483614558898e-79
182 206 6.9338002153846971e-62
183 206 5.9021174096097606e-62
184 206 3.6411291769298475e-47
185 206 3.964414488631627e-62
186 206 -2.9296335202306165e-47
187 206 -8.773276324454929e-47
188 206 -6.8702520423507174e-31
189 206 -1.1834002274029736e-45
190 206 -1.302606402299421e-45
191 206 -7.1352547077796322e-30
192 206 -5.8884430506203491e-46
193 206 -3.0318331036775924e-30
194 206 8.9253065963122059e-31
195 206 9.3796084206372746e-15
196 206 -7.0625287553719845e-46
197 206 -6.3267733546529132e-30
198 206 -4.128378612174712e-46
199 206 -2.8218332928371009e-30
200 206 5.4330032407481905e-31
201 206 6.4103680781279325e-15
202 206 6.5340627655582877e-15
203 206 -4.8435755106536343e-30
204 206 1.0776305485274766e-14
205 206 1.157118722840453e-14
206 206 85.65068797218764
207 206 -4.9456936143987659e-47
208 206 -2.4610192038715577e-30
209 206 -1.4278996389081346e-31
210 206 6.1420919802973333e-16
211 206 6.1324393360264319e-15
212 206 6.2579462409705542e-15
213 206 44.279828721213285
214 206 7.3865223630639909e-16
215 206 3.9384555352235964
216 206 1.0212507191898837e-14
181 207 5.3914955175963926e-31
182 207 3.5347247775174524e-16
183 207 3.9740707067972068e-15
184 207 5.5124666292236556e-32
185 207 7.6870642889446744e-15
186 207 8.8183083520604692e-31
187 207 -2.537943439960007e-31
188 207 -6.8407777559400589e-46
189 207 0.11587025540518239
190 207 1.8423279791308766
191 207 2.5555085086115083e-17
192 207 3.5636239669007099
193 207 4.0880541400074103e-16
194 207 -1.1765578807877469e-16
195 207 -3.1712964334601658e-31
196 207 14.64643523404477
197 207 2.8731434961045904e-16
198 207 40.065618989569685
199 207 4.5961757217812933e-15
200 207 -1.3227972482128842e-15
201 207 -3.565470312977508e-30
202 207 2.8180760087000412e-33
203 207 5.5575354329110271e-16
204 207 6.375393685128062e-32
205 207 -1.8348630978131469e-32
206 207 -4.9456936143987659e-47
207 207 54.800154419668694
208 207 8.8904050439237438e-15
209 207 -2.5586931482772994e-15
210 207 -6.8967065606818342e-30
211 207 7.211594810588575e-31
212 207 -2.9352356519593041e-31
213 207 -7.9116399681002556e-46
214 207 5.9734417689988026e-32
215 207 2.2770007528341574e-46
216 207 4.3398200140790201e-61
181 208 -1.5311987428625753e-47
182 208 1.4600933521725954e-30
183 208 1.0350568195777203e-30
184 208 2.8100923456898615e-15
185 208 5.1439125135644827e-31
186 208 2.8796224773870383e-15
187 208 2.8058955947210664e-15
188 208 8.3196856904388994e-31
189 208 9.6054428153599151e-16
190 208 8.1422896979085421e-15
191 208 1.3027226072125673
192 208 1.5059980782403294e-14
193 208 1.3349558804654229
194 208 1.300777047532909
195 208 3.8568990981600374e-16
196 208 8.0453651581002597e-15
197 208 14.646435234038206
198 208 1.4254116349666285e-14
199 208 15.008832068533282
200 208 14.624561418627078
201 208 4.3362894397213619e-15
202 208 2.8731434961033026e-16
203 208 28.330670879948535
204 208 3.4581757820592789e-15
205 208 -7.3250039292243728e-16
206 208 -2.4610192038715577e-30
207 208 8.8904050439237438e-15
208 208 29.031656839781366
209 208 28.288360252454606
210 208 8.3877057450429976e-15
211 208 4.7098989251212302e-15
212 208 2.2866308105157278e-15
213 208 -1.6213437537386964e-30
214 208 -1.3208217079274777e-15
215 208 -2.7943295420057736e-30
216 208 -1.055609164874906e-45
181 209 4.6366918255388044e-48
182 209 -2.7114287027775739e-31
183 209 -2.0111190791037442e-31
184 209 2.4994278598168081e-16
185 209 -1.4640528472897241e-31
186 209 2.8058955947210664e-15
187 209 5.4397720370959491e-15
188 209 1.1266620378562439e-30
189 209 -1.7876078452315271e-16
190 209 -1.5222961408674816e-15
191 209 0.1158702554054655
192 209 -2.8321155986732957e-15
193 209 1.300777047532909
194 209 2.5218082322728632
195 209 5.2230600522958666e-16
196 209 -1.6083551320919594e-15
197 209 1.302722607216334
198 209 -3.1352028558809088e-15
199 209 14.62456141862708
200 209 28.352544695358958
201 209 5.8722563311562401e-15
202 209 2.5555085086177523e-17
203 209 2.5198626726005537
204 209 4.9192759184978291e-16
205 209 3.1008530705114059e-16
206 209 -1.4278996389081346e-31
207 209 -2.5586931482772994e-15
208 209 28.288360252454606
209 209 54.842465047136706
210 209 1.1358733970573995e-14
211 209 4.589311532798855e-15
212 209 5.3573574222120461e-15
213 209 -1.2143721376145834e-30
214 209 -2.560668688560902e-15
215 209 -5.255490576765605e-30
216 209 -1.4295188750272945e-45
181 210 1.0306205054743834e-62
182 210 -7.5454709031039369e-46
183 210 -6.2386234187659102e-46
184 210 4.5828119536988502e-31
185 210 -4.1024434085640903e-46
186 210 8.3196856904389047e-31
187 210 1.1266620378562448e-30
188 210 8.4956104178045969e-15
189 210 -4.9690445133444619e-31
190 210 -4.2571941257892969e-30
191 210 2.1245325783846623e-16
192 210 -7.8654661870706997e-30
193 210 3.8568990981600399e-16
194 210 5.2230600522958705e-16
195 210 3.938455535213973
196 210 -4.8784650087984241e-30
197 210 2.3885997402390803e-15
198 210 -9.1937379495711105e-30
199 210 4.3362894397213651e-15
200 210 5.8722563311562448e-15
201 210 44.27982872123313
202 210 4.6856383132141807e-32
203 210 4.6202800902282287e-15
204 210 5.9017002596548095e-31
205 210 -7.1087545831113906e-32
206 210 6.1420919802973333e-16
207 210 -6.8967065606818342e-30
208 210 8.3877057450429976e-15
209 210 1.1358733970573995e-14
210 210 85.650687972251362
211 210 1.3607644404241802e-30
212 210 1.0261042825287415e-30
213 210 9.825521794878891e-15
214 210 -5.3035461472552414e-31
215 210 -2.8278233860659101e-15
216 210 -1.0779306517008759e-29
181 211 2.1743221175756201e-64
182 211 -4.1609581761687355e-47
183 211 -3.0998575327014462e-47
184 211 -7.9807353136153879e-32
185 211 -1.7708941300742008e-47
186 211 -8.1782026951578844e-32
187 211 -7.9688164317642333e-32
188 211 -2.3628123641454997e-47
189 211 3.981372585937306e-30
190 211 4.194654579977549e-30
191 211 1.0799344028456528e-14
192 211 2.3963324427034365e-30
193 211 1.1066552262268989e-14
194 211 1.0783215676808835e-14
195 211 3.1973023277147712e-30
196 211 2.2096810415928873e-30
197 211 8.0453651580966547e-15
198 211 1.7852352412277336e-30
199 211 8.2444316762672556e-15
200 211 8.033349754377507e-15
201 211 2.3819469663634947e-30
202 211 14.646435234031642
203 211 4.5961757217792328e-15
204 211 21.225693866690492
205 211 20.682253101971458
206 211 6.1324393360264319e-15
207 211 7.211594810588575e-31
208 211 4.7098989251212302e-15
209 211 4.589311532798855e-15
210 211 1.3607644404241802e-30
211 211 15.380195691062374
212 211 21.193994214031388
213 211 6.2841743191535449e-15
214 211 14.602720270803468
215 211 6.1232808040073663e-15
216 211 1.2838213397708972e-30
181 212 -9.3114121314334758e-65
182 212 1.4385153537018638e-47
183 212 1.1019387409164399e-47
184 212 1.2069169845475762e-32
185 212 7.3957899100566511e-48
186 212 -3.883669491943087e-32
187 212 -9.2178587295009841e-32
188 212 -1.7566340025758478e-47
189 212 -1.0478585966945455e-30
190 212 -1.1449452461060822e-30
191 212 -7.4193385629400247e-16
192 212 -8.0301873117489896e-31
193 212 6.1685803906903287e-15
194 212 1.3363297350146205e-14
195 212 2.6408998786073172e-30
196 212 -6.2471333474327118e-31
197 212 -6.3127851743960298e-16
198 212 -6.1566754687876939e-31
199 212 4.5150175698569134e-15
200 212 9.8770451588190562e-15
201 212 1.944179446366399e-30
202 212 1.8423279791345526
203 212 -6.4628982391941087e-16
204 212 15.95951729908921
205 212 29.653321742882341
206 212 6.2579462409705542e-15
207 212 -2.9352356519593041e-31
208 212 2.2866308105157278e-15
209 212 5.3573574222120461e-15
210 212 1.0261042825287415e-30
211 212 21.193994214031388
212 212 43.656792149927604
213 212 1.0347366984259816e-14
214 212 40.036670773759056
215 212 1.4257668176296595e-14
216 212 2.4587044656929866e-30
181 213 -2.0696937900252008e-79
182 213 3.502433761592693e-62
183 213 2.8044661625990158e-62
184 213 2.8780302135248259e-47
185 213 1.8142387068188322e-62
186 213 2.2215732445730767e-47
187 213 1.5301140362633362e-47
188 213 -1.706089877972122e-31
189 213 -2.9127507045548228e-45
190 213 -3.3329272780191345e-45
191 213 -2.7050140360790933e-30
192 213 -2.1910467599842895e-45
193 213 -1.7872808083441647e-30
194 213 -8.8282186860746956e-31
195 213 2.308640847198042e-14
196 213 -1.8948813500603006e-45
197 213 -2.5218216678826373e-30
198 213 -1.7447178185198234e-45
199 213 -1.8506582039123123e-30
200 213 -1.1635565429061351e-30
201 213 1.7199061892706921e-14
202 213 3.3779901477254457e-15
203 213 -1.9911472430121372e-30
204 213 6.7839903175998749e-15
205 213 8.2572888013375688e-15
206 213 44.279828721213285
207 213 -7.9116399681002556e-46
208 213 -1.6213437537386964e-30
209 213 -1.2143721376145834e-30
210 213 9.825521794878891e-15
211 213 6.2841743191535449e-15
212 213 1.0347366984259816e-14
213 213 45.37544478879439
214 213 8.2922219488859195e-15
215 213 44.213698718628549
216 213 1.8539894459201814e-14
181 214 1.9937799275592176e-65
182 214 -2.3449029853677576e-48
183 214 -1.8765260217386256e-48
184 214 2.1495105928054483e-33
185 214 -1.5433553250935858e-48
186 214 2.4130731677133232e-32
187 214 4.678209683171903e-32
188 214 9.6893053959207702e-48
189 214 1.3789310281395907e-31
190 214 1.5605843718458401e-31
191 214 -1.7876078452358947e-16
192 214 1.2835080210156456e-31
193 214 -2.0067956585887797e-15
194 214 -3.8905620466758674e-15
195 214 -8.0579637051372954e-31
196 214 8.8308390048169067e-32
197 214 -1.4305464486937724e-16
198 214 1.0271368221096656e-31
199 214 -1.6059531234991996e-15
200 214 -3.1134511599553259e-15
201 214 -6.448445274397593e-31
202 214 0.11587025540574862
203 214 -1.1765578807906206e-16
204 214 1.8395765422491672
205 214 3.5663754037931179
206 214 7.3865223630639909e-16
207 214 5.9734417689988026e-32
208 214 -1.3208217079274777e-15
209 214 -2.560668688560902e-15
210 214 -5.3035461472552414e-31
211 214 14.602720270803468
212 214 40.036670773759056
213 214 8.2922219488859195e-15
214 214 54.884808342198738
215 214 1.6076078228928932e-14
216 214 2.3543882089923151e-30
181 215 6.267332913059713e-80
182 215 -8.2945744810030061e-63
183 215 -6.9741438710659388e-63
184 215 6.165297252403159e-48
185 215 -5.3672625361530748e-63
186 215 4.2986091395456801e-47
187 215 8.0379793403258153e-47
188 215 5.1662875428169092e-32
189 215 5.4207350048866615e-46
190 215 6.4145545930147395e-46
191 215 -5.8312995190115949e-31
192 215 4.969093589161819e-46
193 215 -4.3652206669996768e-30
194 215 -8.2169054511144926e-30
195 215 -4.2964645874252096e-15
196 215 3.7880718701827825e-46
197 215 -4.9229522886479675e-31
198 215 4.1606583344630367e-46
199 215 -3.781151746809145e-30
200 215 -7.133695472766194e-30
201 215 -3.4382776814612918e-15
202 215 3.0045427860624114e-16
203 215 -3.7678662459187542e-31
204 215 2.7707223800009022e-15
205 215 5.1461533655109614e-15
206 215 3.9384555352235964
207 215 2.2770007528341574e-46
208 215 -2.7943295420057736e-30
209 215 -5.255490576765605e-30
210 215 -2.8278233860659101e-15
211 215 6.1232808040073663e-15
212 215 1.4257668176296595e-14
213 215 44.213698718628549
214 215 1.6076078228928932e-14
215 215 85.716817974795589
216 215 2.5106952414138693e-14
181 216 9.8505008752915368e-95
182 216 -1.4488254363228129e-77
183 216 -1.2651627120542549e-77
184 216 8.7603522191571809e-63
185 216 -9.2465562072907036e-78
186 216 1.5903636836353612e-62
187 216 2.1536900015301588e-62
188 216 1.6239928744324823e-46
189 216 1.0654763506499679e-60
190 216 1.315797733091404e-60
191 216 -9.1109637370935684e-46
192 216 9.6166268421714356e-61
193 216 -1.6540140724828483e-45
194 216 -2.2398861385929626e-45
195 216 -1.6889891888018413e-29
196 216 8.1246461892482423e-61
197 216 -7.9559975288016481e-46
198 216 8.397559423952935e-61
199 216 -1.4443402754091706e-45
200 216 -1.9559433115609669e-45
201 216 -1.4748817139477269e-29
202 216 3.895424810132856e-31
203 216 -5.8147128139495485e-46
204 216 1.0001029445733631e-30
205 216 1.3543516708737745e-30
206 216 1.0212507191898837e-14
207 216 4.3398200140790201e-61
208 216 -1.055609164874906e-45
209 216 -1.4295188750272945e-45
210 216 -1.0779306517008759e-29
211 216 1.2838213397708972e-30
212 216 2.4587044656929866e-30
213 216 1.8539894459201814e-14
214 216 2.3543882089923151e-30
215 216 2.5106952414138693e-14
216 216 133.86897222874069
217 217 117.30615760596743
218 217 -3.2697243850802358e-14
219 217 -8.5389408807096298e-15
220 217 2.6612205962964402e-30
221 217 1.2419344883112165e-14
222 217 -7.6360592351459499e-31
223 217 -1.5186293215982872e-30
224 217 1.1062745304869154e-46
225 217 4.5569208695723235e-30
226 217 1.6829815134047066e-30
227 217 -5.2451294946622799e-46
228 217 -2.4477892678814386e-30
229 217 1.5050281653836564e-46
230 217 2.9931406127171198e-46
231 217 -2.1804104391518184e-62
232 217 3.1078296678079302e-31
233 217 -1.3697744944789447e-46
234 217 -6.3924433332206399e-31
235 217 3.9304066687255532e-47
236 217 7.8166376518659717e-47
237 217 -5.6941789713393912e-63
238 217 3.0186373873064619e-62
239 217 1.992249635719562e-46
240 217 -1.2249387043143537e-62
241 217 -2.4361097475127653e-62
242 217 1.7746306678103073e-78
243 217 6.5742553705106128e-31
244 217 -5.7165258117737443e-47
245 217 -1.136880090646276e-46
246 217 8.2818201295886864e-63
247 217 2.4853512310503205e-63
248 217 6.990130153513875e-63
249 217 -5.0920938004030919e-79
250 217 9.829982771170463e-63
251 217 -1.0126955168221908e-78
252 217 5.216449680865773e-95
217 218 -3.2697243850802358e-14
218 218 77.160619522262394
219 218 38.715226430930151
220 218 8.7422318428505439e-15
221 218 1.4303116525502864
222 218 1.1861517817500881e-14
223 218 1.9603669390002786e-15
224 218 -1.0154604529253898e-29
225 218 -2.1507307405479803e-14
226 218 -1.1602158237972178e-14
227 218 -4.8527677793561677e-31
228 218 5.4945105453216684e-15
229 218 -2.6930086136346612e-30
230 218 -1.0927148326812e-30
231 218 2.0528749783669568e-45
232 218 -2.8181558106289931e-15
233 218 1.7107322723127167e-31
234 218 2.8246884695547433e-15
235 218 -7.8873515903137023e-31
236 218 -4.5530666259986778e-31
237 218 5.4849156764236543e-46
238 218 1.9832724822628813e-46
239 218 6.7740750158831741e-31
240 218 1.5003677994415502e-46
241 218 -4.8580090710379054e-47
242 218 -1.5706538018982566e-61
243 218 1.5142882578402597e-16
244 218 8.8139631015167255e-31
245 218 1.3366425576197739e-31
246 218 -7.592427494800649e-46
247 218 -7.7212700954873273e-47
248 218 -1.1760501386959674e-46
249 218 5.4650672190425275e-62
250 218 -2.5378639752936869e-47
251 218 9.4263601596105626e-62
252 218 -9.5764626403592607e-78
217 219 -8.5389408807096298e-15
218 219 38.715226430930151
219 219 39.747475415127397
220 219 1.8884742365043871e-14
221 219 38.843455759663151
222 219 1.7275765357155108e-14
223 219 4.6514365082442902e-15
224 219 -1.4602489142893373e-29
225 219 -1.0791259599637139e-14
226 219 -9.8267609122674247e-15
227 219 -3.1010355598424522e-30
228 219 -4.7575371956009922e-15
229 219 -3.5831679824114511e-30
230 219 -1.2711776287007232e-30
231 219 2.903893006381307e-45
232 219 -2.8932951999130277e-15
233 219 -3.3441982976833824e-31
234 219 9.76248210077573e-16
235 219 -1.0721668433611678e-30
236 219 -6.0326980572605156e-31
237 219 7.7811993868673088e-46
238 219 4.2842137500443151e-46
239 219 2.0368617471159696e-30
240 219 1.9020428004896805e-46
241 219 -9.825691320702229e-47
242 219 -2.2165261968327604e-61
243 219 4.1124036741165772e-15
244 219 1.1145093362012922e-30
245 219 -7.3601351000309867e-33
246 219 -1.0672725078374542e-45
247 219 -1.1245681411197507e-46
248 219 -1.79554393417882e-46
249 219 7.8734414053800069e-62
250 219 -6.0216854879520909e-47
251 219 1.3677454765417576e-61
252 219 -1.3771111551445593e-77
217 220 2.6612205962964402e-30
218 220 8.7422318428505439e-15
219 220 1.8884742365043871e-14
220 220 77.03239019345223
221 220 2.8596866425926862e-14
222 220 38.843455759646901
223 220 1.4303116525453676
224 220 1.3464477870450942e-14
225 220 -2.4367594353276282e-30
226 220 -4.1720632079754393e-30
227 220 -1.518268956752644e-14
228 220 -4.9818327547049892e-30
229 220 -7.6558461843814161e-15
230 220 -2.8190710104098298e-16
231 220 -2.6537796267928378e-30
232 220 -1.3746567264233178e-30
233 220 -3.9649852207373063e-15
234 220 -5.817395059221737e-32
235 220 -1.999337260918251e-15
236 220 -7.3620519228629713e-17
237 220 -6.9303906613705736e-31
238 220 1.7475654095878156e-30
239 220 5.7668181101971652e-15
240 220 2.6853345497166249e-31
241 220 -6.8221837523134838e-31
242 220 2.6735939328791016e-46
243 220 3.0275848597468466e-30
244 220 2.9079085249430882e-15
245 220 1.0707634957863284e-16
246 220 1.0079811185097236e-30
247 220 -2.5285196884317231e-31
248 220 -3.621607522492488e-31
249 220 -3.6073226348763322e-47
250 220 -1.8516617191518313e-32
251 220 -1.223014669973515e-46
252 220 1.2697891771841498e-62
217 221 1.2419344883112165e-14
218 221 1.4303116525502864
219 221 38.843455759663151
220 221 2.8596866425926862e-14
221 221 77.032390193480254
222 221 2.0715571069989596e-14
223 221 3.8314478242814431e-15
224 221 -2.1361114054001502e-29
225 221 -3.9867684562281168e-16
226 221 -7.7294667036135024e-15
227 221 -5.613351557725419e-30
228 221 -1.5075613217952961e-14
229 221 -4.0895165691892227e-30
230 221 -7.6825196809038591e-31
231 221 4.2111199751227309e-45
232 221 -2.8274898701496486e-15
233 221 -8.4882083990989599e-31
234 221 -1.0570766957944449e-15
235 221 -1.2450582328004863e-30
236 221 -5.5278813216086007e-31
237 221 1.1253947577609675e-45
238 221 6.4875170644061775e-46
239 221 3.3765411366317567e-30
240 221 2.0067979951047389e-46
241 221 -2.0031658510533089e-46
242 221 -3.235946101086429e-61
243 221 8.1555123831825807e-15
244 221 1.1962403018731892e-30
245 221 -4.1833191677160281e-31
246 221 -1.5477721512251981e-45
247 221 -1.3484827310857027e-46
248 221 -2.0726839939229974e-46
249 221 1.1213765662926005e-61
250 221 -4.9601394580853365e-47
251 221 1.9809691357101266e-61
252 221 -2.0144941155047496e-77
217 222 -7.6360592351459499e-31
218 222 1.1861517817500881e-14
219 222 1.7275765357155108e-14
220 222 38.843455759646901
221 222 2.0715571069989596e-14
222 222 39.747475415100531
223 222 38.715226430895775
224 222 1.3246869595749088e-14
225 222 -3.3062112717520306e-30
226 222 -4.0154969166635691e-30
227 222 -7.6558461843814177e-15
228 222 -3.194953037162905e-30
229 222 -7.8340238281260983e-15
230 222 -7.6305728404410718e-15
231 222 -2.6108901503807846e-30
232 222 -1.2575361947369104e-30
233 222 -1.9993372609182514e-15
234 222 2.2703778701170895e-31
235 222 -2.0458686558316066e-15
236 222 -1.9927370841342637e-15
237 222 -6.8183840637630731e-31
238 222 8.8120697676423268e-31
239 222 2.9079085249430886e-15
240 222 4.588159214834818e-31
241 222 2.654732963696271e-31
242 222 2.3840239999250671e-46
243 222 2.1931825815589356e-30
244 222 2.9755854709946494e-15
245 222 2.8983089887810534e-15
246 222 9.9169047328445886e-31
247 222 -2.5873669627102887e-31
248 222 -5.4205574613982097e-31
249 222 -3.4468748693039215e-47
250 222 -5.0120197652595898e-31
251 222 -9.5446072257350935e-47
252 222 1.2492672798821733e-62
217 223 -1.5186293215982872e-30
218 223 1.9603669390002786e-15
219 223 4.6514365082442902e-15
220 223 1.4303116525453676
221 223 3.8314478242814431e-15
222 223 38.715226430895775
223 223 77.16061952218412
224 223 1.1956802930805758e-14
225 223 -5.4642140830660775e-31
226 223 -1.0176776586087493e-30
227 223 -2.8190710104098382e-16
228 223 -6.0840126116680243e-31
229 223 -7.6305728404410734e-15
230 223 -1.5207962911462994e-14
231 223 -2.3566246180986531e-30
232 223 -3.3858701167269778e-31
233 223 -7.3620519228629934e-17
234 223 1.5100601536330329e-31
235 223 -1.9927370841342641e-15
236 223 -3.9715853975203037e-15
237 223 -6.1543652987361829e-31
238 223 3.2448209937066054e-32
239 223 1.0707634957863315e-16
240 223 6.1446682674427523e-31
241 223 1.2246791173228337e-30
242 223 1.9275889627783443e-46
243 223 4.0564001841780561e-31
244 223 2.8983089887810538e-15
245 223 5.7764176463577603e-15
246 223 8.9511317913364333e-31
247 223 -2.5201725839828341e-31
248 223 -7.0956751968864879e-31
249 223 -2.9219027866671151e-47
250 223 -9.9891072787638013e-31
251 223 -5.7999415814502332e-47
252 223 1.127605474296226e-62
217 224 1.1062745304869154e-46
218 224 -1.0154604529253898e-29
219 224 -1.4602489142893373e-29
220 224 1.3464477870450942e-14
221 224 -2.1361114054001502e-29
222 224 1.3246869595749088e-14
223 224 1.1956802930805758e-14
224 224 117.30615760567457
225 224 2.830436076677142e-45
226 224 3.4007502012616516e-45
227 224 -2.6537796267928392e-30
228 224 3.4499696235996971e-45
229 224 -2.6108901503807836e-30
230 224 -2.356624618098651e-30
231 224 -2.3120442852954765e-14
232 224 1.0629432763646346e-45
233 224 -6.9303906613705762e-31
234 224 6.3168581188955255e-48
235 224 -6.8183840637630713e-31
236 224 -6.1543652987361767e-31
237 224 -6.0379430008857345e-15
238 224 3.0545664915465921e-46
239 224 1.0079811185097241e-30
240 224 1.5052378183914464e-46
241 224 6.854982723752098e-47
242 224 1.8817671298698221e-30
243 224 -2.2615269985870249e-45
244 224 9.9169047328445851e-31
245 224 8.9511317913364246e-31
246 224 8.7818029847211372e-15
247 224 -8.6230665958758208e-47
248 224 -1.7629947288598193e-46
249 224 -5.3995092667003823e-31
250 224 -1.5479112004027511e-46
251 224 -1.0738330914081942e-30
252 224 1.1062745304841536e-46
217 225 4.5569208695723235e-30
218 225 -2.1507307405479803e-14
219 225 -1.0791259599637139e-14
220 225 -2.4367594353276282e-30
221 225 -3.9867684562281168e-16
222 225 -3.3062112717520306e-30
223 225 -5.4642140830660775e-31
224 225 2.830436076677142e-45
225 225 50.754038207199855
226 225 36.01402799316535
227 225 8.132277952005686e-15
228 225 1.3305174382951175
229 225 1.1033928355889073e-14
230 225 1.8235902596097951e-15
231 225 -9.4461080430076987e-30
232 225 12.777409031209471
233 225 4.0803584038669214e-15
234 225 0.66758515177165145
235 225 5.5362571914445584e-15
236 225 9.1498370873729387e-16
237 225 -4.739570703878277e-30
238 225 6.5151411617725411e-31
239 225 1.5074648167289897e-16
240 225 1.2501345948629165e-30
241 225 2.0661120834417083e-31
242 225 -1.0702359187491071e-45
243 225 0.017439761604931301
244 225 2.0453382047411225e-16
245 225 3.3803544009627182e-17
246 225 -1.7510069889264992e-31
247 225 1.1993880611850593e-30
248 225 2.8033145003743939e-31
249 225 -1.4521031525323486e-45
250 225 3.2760757099102061e-32
251 225 -2.3999078836626154e-46
252 225 8.7903308104925294e-61
217 226 1.6829815134047066e-30
218 226 -1.1602158237972178e-14
219 226 -9.8267609122674247e-15
220 226 -4.1720632079754393e-30
221 226 -7.7294667036135024e-15
222 226 -4.0154969166635691e-30
223 226 -1.0176776586087493e-30
224 226 3.4007502012616516e-45
225 226 36.01402799316535
226 226 38.922156162093664
227 226 1.5307089946127644e-14
228 226 26.022162967243723
229 226 1.52782270118889e-14
230 226 3.7065724549197919e-15
231 226 -1.2956480320521672e-29
232 226 18.5517781104334
233 226 9.1948175953645068e-15
234 226 13.304369473895125
235 226 9.7207220718560315e-15
236 226 2.199382024131948e-15
237 226 -8.2600827379584265e-30
238 226 1.9903413803233471e-30
239 226 3.1250666663477207e-15
240 226 3.1970227455556545e-30
241 226 6.6224111783583889e-31
242 226 -2.7230065534959002e-45
243 226 0.66979627136916997
244 226 4.1383340908530304e-15
245 226 7.0584896817979961e-16
246 226 -3.5405306136178558e-30
247 226 2.4704254375701676e-30
248 226 7.5903889522536428e-31
249 226 -2.9720200320978247e-45
250 226 1.0993061437629197e-31
251 226 -6.466816126776003e-46
252 226 1.7876565921377525e-60
217 227 -5.2451294946622799e-46
218 227 -4.8527677793561677e-31
219 227 -3.1010355598424522e-30
220 227 -1.518268956752644e-14
221 227 -5.613351557725419e-30
222 227 -7.6558461843814177e-15
223 227 -2.8190710104098382e-16
224 227 -2.6537796267928392e-30
225 227 8.132277952005686e-15
226 227 1.5307089946127644e-14
227 227 50.669692639551926
228 227 1.8916790824725324e-14
229 227 25.550108979395848
230 227 0.94081790310219593
231 227 8.8565466231785286e-15
232 227 8.8142843382820875e-15
233 227 25.42344314830973
234 227 9.6682497245730986e-15
235 227 12.819729294678275
236 227 0.47205398783556191
237 227 4.4437591356814019e-15
238 227 8.1187633308173983e-15
239 227 0.93925440544307048
240 227 1.0684004916786411e-14
241 227 1.3939239881181712e-15
242 227 -5.6648677676318026e-30
243 227 4.9310943453230265e-16
244 227 0.47361748549840693
245 227 0.017439761604871328
246 227 1.641721115652324e-16
247 227 5.5545939185854614e-15
248 227 7.937613465487407e-16
249 227 -2.0010099419976545e-30
250 227 3.380354400951093e-17
251 227 1.0119731415061195e-31
252 227 -1.6483397035442177e-45
217 228 -2.4477892678814386e-30
218 228 5.4945105453216684e-15
219 228 -4.7575371956009922e-15
220 228 -4.9818327547049892e-30
221 228 -1.5075613217952961e-14
222 228 -3.194953037162905e-30
223 228 -6.0840126116680243e-31
224 228 3.4499696235996971e-45
225 228 1.3305174382951175
226 228 26.022162967243723
227 228 1.8916790824725324e-14
228 228 50.687132401175298
229 228 1.3770734611292367e-14
230 228 2.5441189921682148e-15
231 228 -1.4174541875761869e-29
232 228 18.129835034493276
233 228 1.2332793812880316e-14
234 228 25.897060633817585
235 228 1.076457018956823e-14
236 228 1.9136488751005554e-15
237 228 -1.0412414183062615e-29
238 228 3.0139424459640692e-30
239 228 6.0895136310966073e-15
240 228 4.4354241610986662e-30
241 228 7.634361102818647e-31
242 228 -4.067422295252428e-45
243 228 1.3283063186967514
244 228 8.0417840865625405e-15
245 228 1.3340468960010416e-15
246 228 -6.9287625243663198e-30
247 228 2.9623158608078263e-30
248 228 7.3360946296150283e-31
249 228 -3.9531911728644623e-45
250 228 9.0551254978421286e-32
251 228 -6.8864636649138947e-46
252 228 2.6150566509838094e-60
217 229 1.5050281653836564e-46
218 229 -2.6930086136346612e-30
219 229 -3.5831679824114511e-30
220 229 -7.6558461843814161e-15
221 229 -4.0895165691892227e-30
222 229 -7.8340238281260983e-15
223 229 -7.6305728404410734e-15
224 229 -2.6108901503807836e-30
225 229 1.1033928355889073e-14
226 229 1.52782270118889e-14
227 229 25.550108979395848
228 229 1.3770734611292367e-14
229 229 26.144747130866531
230 229 25.46576341178676
231 229 8.7134101533480895e-15
232 229 8.0633087323060612e-15
233 229 12.819729294678279
234 229 7.0475222272793033e-15
235 229 13.118088104946745
236 229 12.777409031198127
237 229 4.371940624186916e-15
238 229 4.0938730250453641e-15
239 229 0.47361748549840704
240 229 6.8898683950262047e-15
241 229 3.5343831921532572e-15
242 229 -2.3752608752990014e-30
243 229 3.5720849215405675e-16
244 229 0.48464017921116015
245 229 0.47205398783676611
246 229 1.615188181887196e-16
247 229 5.6838682577683954e-15
248 229 4.5789666612218376e-15
249 229 -2.1012700369951151e-30
250 229 9.1498370873648154e-16
251 229 -3.1300069490125542e-30
252 229 -1.6216998024309331e-45
217 230 2.9931406127171198e-46
218 230 -1.0927148326812e-30
219 230 -1.2711776287007232e-30
220 230 -2.8190710104098298e-16
221 230 -7.6825196809038591e-31
222 230 -7.6305728404410718e-15
223 230 -1.5207962911462994e-14
224 230 -2.356624618098651e-30
225 230 1.8235902596097951e-15
226 230 3.7065724549197919e-15
227 230 0.94081790310219593
228 230 2.5441189921682148e-15
229 230 25.46576341178676
230 230 50.754038207148369
231 230 7.8648413729608868e-15
232 230 2.1710163248518269e-15
233 230 0.47205398783556329
234 230 1.3212296530598093e-15
235 230 12.777409031198129
236 230 25.465763411783534
237 230 3.9461724968864878e-15
238 230 1.50746481672381e-16
239 230 0.01743976160487138
240 230 3.0298763484819959e-15
241 230 5.7742916015484984e-15
242 230 7.6726487315603304e-31
243 230 6.6067485924210285e-17
244 230 0.47205398783676616
245 230 0.94081790310447688
246 230 1.4578906093549086e-16
247 230 5.5362571914396446e-15
248 230 8.4491567486905651e-15
249 230 -2.1423596833549618e-30
250 230 1.8235902596079449e-15
251 230 -6.4795904224210377e-30
252 230 -1.4637680857684027e-45
217 231 -2.1804104391518184e-62
218 231 2.0528749783669568e-45
219 231 2.903893006381307e-45
220 231 -2.6537796267928378e-30
221 231 4.2111199751227309e-45
222 231 -2.6108901503807846e-30
223 231 -2.3566246180986531e-30
224 231 -2.3120442852954765e-14
225 231 -9.4461080430076987e-30
226 231 -1.2956480320521672e-29
227 231 8.8565466231785286e-15
228 231 -1.4174541875761869e-29
229 231 8.7134101533480895e-15
230 231 7.8648413729608868e-15
231 231 77.160619522069766
232 231 -6.8155810052450064e-30
233 231 4.4437591356814043e-15
234 231 -7.2279792903131103e-30
235 231 4.3719406241869152e-15
236 231 3.9461724968864839e-15
237 231 38.715226430833496
238 231 1.4190772080434597e-30
239 231 1.6417211156523247e-16
240 231 2.3486946890678792e-30
241 231 1.1160919704607862e-30
242 231 8.7422318428287193e-15
243 231 -3.6833989833930867e-31
244 231 1.6151881818871955e-16
245 231 1.4578906093549074e-16
246 231 1.4303116525467154
247 231 1.8942954445696668e-30
248 231 1.4303985368773874e-30
249 231 1.1861517817471268e-14
250 231 2.8258338898747188e-31
251 231 1.9603669389953842e-15
252 231 -1.4360779445770271e-29
217 232 3.1078296678079302e-31
218 232 -2.8181558106289931e-15
219 232 -2.8932951999130277e-15
220 232 -1.3746567264233178e-30
221 232 -2.8274898701496486e-15
222 232 -1.2575361947369104e-30
223 232 -3.3858701167269778e-31
224 232 1.0629432763646346e-45
225 232 12.777409031209471
226 232 18.5517781104334
227 232 8.8142843382820875e-15
228 232 18.129835034493276
229 232 8.0633087323060612e-15
230 232 2.1710163248518269e-15
231 232 -6.8155810052450064e-30
232 232 13.467850572978511
233 232 9.0492961639790148e-15
234 232 18.613223755292239
235 232 8.2782975883050701e-15
236 232 2.2289012864141982e-15
237 232 -6.9973021834774292e-30
238 232 3.0401941507201904e-30
239 232 8.8434782722495365e-15
240 232 3.9331684729023018e-30
241 232 1.0589911966103438e-30
242 232 -3.3245444549256333e-45
243 232 12.862189727788138
244 232 8.0900153478015177e-15
245 232 2.1782069831965678e-15
246 232 -6.8381550015197831e-30
247 232 2.54421485426646e-30
248 232 9.6876531722230405e-31
249 232 -3.0412938028235023e-45
250 232 1.8443926586605414e-31
251 232 -8.1885721033432167e-46
252 232 1.8177450657482731e-60
217 233 -1.3697744944789447e-46
218 233 1.7107322723127167e-31
219 233 -3.3441982976833824e-31
220 233 -3.9649852207373063e-15
221 233 -8.4882083990989599e-31
222 233 -1.9993372609182514e-15
223 233 -7.3620519228629934e-17
224 233 -6.9303906613705762e-31
225 233 4.0803584038669214e-15
226 233 9.1948175953645068e-15
227 233 25.42344314830973
228 233 1.2332793812880316e-14
229 233 12.819729294678279
230 233 0.47205398783556329
231 233 4.4437591356814043e-15
232 233 9.0492961639790148e-15
233 233 26.101298498703983
234 233 1.5942913295931165e-14
235 233 13.16153673710417
236 233 0.48464017920982111
237 233 4.5622413524279367e-15
238 233 1.7537941864426616e-14
239 233 25.507648546276481
240 233 1.7597901036075841e-14
241 233 3.2847579955360698e-15
242 233 -7.4215323692116476e-30
243 233 1.3391539159158602e-14
244 233 12.862189727782757
245 233 0.47361748549697635
246 233 4.4584773823132836e-15
247 233 8.0900153477981335e-15
248 233 1.7508679929268674e-15
249 233 -2.852382070027123e-30
250 233 8.0206942682917476e-17
251 233 3.5584707918220647e-31
252 233 -2.3703397365660907e-45
217 234 -6.3924433332206399e-31
218 234 2.8246884695547433e-15
219 234 9.76248210077573e-16
220 234 -5.817395059221737e-32
221 234 -1.0570766957944449e-15
222 234 2.2703778701170895e-31
223 234 1.5100601536330329e-31
224 234 6.3168581188955255e-48
225 234 0.66758515177165145
226 234 13.304369473895125
227 234 9.6682497245730986e-15
228 234 25.897060633817585
229 234 7.0475222272793033e-15
230 234 1.3212296530598093e-15
231 234 -7.2279792903131103e-30
232 234 18.613223755292239
233 234 1.5942913295931165e-14
234 234 38.963488226501617
235 234 1.2739672918037106e-14
236 234 2.8384549730483022e-15
237 234 -1.2073206774464866e-29
238 234 6.5106402596322287e-30
239 234 2.1870445770362251e-14
240 234 7.5464152521882835e-30
241 234 1.7507385609986751e-30
242 234 -6.9986485262794053e-45
243 234 36.073262518403688
244 234 1.8204141281744414e-14
245 234 4.3231997063987093e-15
246 234 -1.6662417132037879e-29
247 234 4.3144793535265585e-30
248 234 1.3856762549663826e-30
249 234 -5.7245801031529224e-45
250 234 2.1485437491042409e-31
251 234 -1.3239589821549856e-45
252 234 3.760494684360484e-60
217 235 3.9304066687255532e-47
218 235 -7.8873515903137023e-31
219 235 -1.0721668433611678e-30
220 235 -1.999337260918251e-15
221 235 -1.2450582328004863e-30
222 235 -2.0458686558316066e-15
223 235 -1.9927370841342641e-15
224 235 -6.8183840637630713e-31
225 235 5.5362571914445584e-15
226 235 9.7207220718560315e-15
227 235 12.819729294678275
228 235 1.076457018956823e-14
229 235 13.118088104946745
230 235 12.777409031198129
231 235 4.3719406241869152e-15
232 235 8.2782975883050701e-15
233 235 13.16153673710417
234 235 1.2739672918037106e-14
235 235 13.467850572969409
236 235 13.118088104943965
237 235 4.4885079719710491e-15
238 235 8.8434782722458399e-15
239 235 12.862189727782761
240 235 1.2119323394841954e-14
241 235 7.7728651555456477e-15
242 235 -2.7027346902906572e-30
243 235 9.7008314497208955e-15
244 235 13.16153673710078
245 235 12.819729294672257
246 235 4.3864209995632604e-15
247 235 8.2782975882994755e-15
248 235 7.2776914976270881e-15
249 235 -2.996963454576094e-30
250 235 2.1710163248498989e-15
251 235 -4.2940772338694773e-30
252 235 -2.3320311184752715e-45
217 236 7.8166376518659717e-47
218 236 -4.5530666259986778e-31
219 236 -6.0326980572605156e-31
220 236 -7.3620519228629713e-17
221 236 -5.5278813216086007e-31
222 236 -1.9927370841342637e-15
223 236 -3.9715853975203037e-15
224 236 -6.1543652987361767e-31
225 236 9.1498370873729387e-16
226 236 2.199382024131948e-15
227 236 0.47205398783556191
228 236 1.9136488751005554e-15
229 236 12.777409031198127
230 236 25.465763411783534
231 236 3.9461724968864839e-15
232 236 2.2289012864141982e-15
233 236 0.48464017920982111
234 236 2.8384549730483022e-15
235 236 13.118088104943965
236 236 26.144747130857677
237 236 4.0513877551440943e-15
238 236 3.256386378208285e-16
239 236 0.47361748549697774
240 236 6.4432832911814323e-15
241 236 1.2478555722138557e-14
242 236 1.746839523724569e-30
243 236 1.7942169890551217e-15
244 236 12.819729294672259
245 236 25.550108979380617
246 236 3.9592426787500273e-15
247 236 8.0633087322988999e-15
248 236 1.2898642374782197e-14
249 236 -3.0584562574767748e-30
250 236 4.3269013269244245e-15
251 236 -9.1309852868066987e-30
252 236 -2.1049226997043282e-45
217 237 -5.6941789713393912e-63
218 237 5.4849156764236543e-46
219 237 7.7811993868673088e-46
220 237 -6.9303906613705736e-31
221 237 1.1253947577609675e-45
222 237 -6.8183840637630731e-31
223 237 -6.1543652987361829e-31
224 237 -6.0379430008857345e-15
225 237 -4.739570703878277e-30
226 237 -8.2600827379584265e-30
227 237 4.4437591356814019e-15
228 237 -1.0412414183062615e-29
229 237 4.371940624186916e-15
230 237 3.9461724968864878e-15
231 237 38.715226430833496
232 237 -6.9973021834774292e-30
233 237 4.5622413524279367e-15
234 237 -1.2073206774464866e-29
235 237 4.4885079719710491e-15
236 237 4.0513877551440943e-15
237 237 39.747475415028163
238 237 3.0654537596052001e-30
239 237 4.458477382313286e-15
240 237 4.1154947844368655e-30
241 237 2.4587823237739146e-30
242 237 1.8884742364996723e-14
243 237 -1.0003130800305591e-29
244 237 4.3864209995632588e-15
245 237 3.9592426787500242e-15
246 237 38.843455759566176
247 237 2.7589558200746643e-30
248 237 2.2861536017151659e-30
249 237 1.7275765357111979e-14
250 237 6.7049625557857745e-31
251 237 4.6514365082326774e-15
252 237 -2.0651038190234125e-29
217 238 3.0186373873064619e-62
218 238 1.9832724822628813e-46
219 238 4.2842137500443151e-46
220 238 1.7475654095878156e-30
221 238 6.4875170644061775e-46
222 238 8.8120697676423268e-31
223 238 3.2448209937066054e-32
224 238 3.0545664915465921e-46
225 238 6.5151411617725411e-31
226 238 1.9903413803233471e-30
227 238 8.1187633308173983e-15
228 238 3.0139424459640692e-30
229 238 4.0938730250453641e-15
230 238 1.50746481672381e-16
231 238 1.4190772080434597e-30
232 238 3.0401941507201904e-30
233 238 1.7537941864426616e-14
234 238 6.5106402596322287e-30
235 238 8.8434782722458399e-15
236 238 3.256386378208285e-16
237 238 3.0654537596052001e-30
238 238 50.585487241534494
239 238 2.6557427747122643e-14
240 238 36.073262518375472
241 238 1.3283063186917001
242 238 1.2504233606275027e-14
243 238 6.97133710692501e-30
244 238 1.3391539159153001e-14
245 238 4.931094345306069e-16
246 238 4.6419681033377728e-30
247 238 12.862189727777377
248 238 0.66979627136658637
249 238 6.3052391815985036e-15
250 238 0.017439761604811355
251 238 2.3217442673818211e-16
252 238 1.5454616196224824e-30
217 239 1.992249635719562e-46
218 239 6.7740750158831741e-31
219 239 2.0368617471159696e-30
220 239 5.7668181101971652e-15
221 239 3.3765411366317567e-30
222 239 2.9079085249430886e-15
223 239 1.0707634957863315e-16
224 239 1.0079811185097241e-30
225 239 1.5074648167289897e-16
226 239 3.1250666663477207e-15
227 239 0.93925440544307048
228 239 6.0895136310966073e-15
229 239 0.47361748549840704
230 239 0.01743976160487138
231 239 1.6417211156523247e-16
232 239 8.8434782722495365e-15
233 239 25.507648546276481
234 239 2.1870445770362251e-14
235 239 12.862189727782761
236 239 0.47361748549697774
237 239 4.458477382313286e-15
238 239 2.6557427747122643e-14
239 239 50.585487241552904
240 239 2.3072710971553658e-14
241 239 2.8647090821013011e-15
242 239 -1.074500966813536e-29
243 239 2.6557427747132305e-14
244 239 25.507648546275096
245 239 0.93925440544018235
246 239 8.8418283765410065e-15
247 239 9.7008314497168345e-15
248 239 1.5212875469791415e-15
249 239 -4.6955347590758156e-30
250 239 6.6067485923983081e-17
251 239 1.7932045962901083e-31
252 239 -3.4674292145707134e-45
217 240 -1.2249387043143537e-62
218 240 1.5003677994415502e-46
219 240 1.9020428004896805e-46
220 240 2.6853345497166249e-31
221 240 2.0067979951047389e-46
222 240 4.588159214834818e-31
223 240 6.1446682674427523e-31
224 240 1.5052378183914464e-46
225 240 1.2501345948629165e-30
226 240 3.1970227455556545e-30
227 240 1.0684004916786411e-14
228 240 4.4354241610986662e-30
229 240 6.8898683950262047e-15
230 240 3.0298763484819959e-15
231 240 2.3486946890678792e-30
232 240 3.9331684729023018e-30
233 240 1.7597901036075841e-14
234 240 7.5464152521882835e-30
235 240 1.2119323394841954e-14
236 240 6.4432832911814323e-15
237 240 4.1154947844368655e-30
238 240 36.073262518375472
239 240 2.3072710971553658e-14
240 240 38.963488226463717
241 240 25.897060633783937
242 240 1.315740716027445e-14
243 240 7.1418306060239319e-30
244 240 1.6549153541583572e-14
245 240 9.6905729826431576e-15
246 240 5.6070654948217697e-30
247 240 18.613223755271871
248 240 13.304369473876388
249 240 8.9486623519862777e-15
250 240 0.66758515176876299
251 240 4.6052779538656213e-15
252 240 2.1502896581980724e-30
217 241 -2.4361097475127653e-62
218 241 -4.8580090710379054e-47
219 241 -9.825691320702229e-47
220 241 -6.8221837523134838e-31
221 241 -2.0031658510533089e-46
222 241 2.654732963696271e-31
223 241 1.2246791173228337e-30
224 241 6.854982723752098e-47
225 241 2.0661120834417083e-31
226 241 6.6224111783583889e-31
227 241 1.3939239881181712e-15
228 241 7.634361102818647e-31
229 241 3.5343831921532572e-15
230 241 5.7742916015484984e-15
231 241 1.1160919704607862e-30
232 241 1.0589911966103438e-30
233 241 3.2847579955360698e-15
234 241 1.7507385609986751e-30
235 241 7.7728651555456477e-15
236 241 1.2478555722138557e-14
237 241 2.4587823237739146e-30
238 241 1.3283063186917001
239 241 2.8647090821013011e-15
240 241 25.897060633783937
241 241 50.687132401105337
242 241 8.0159433026541494e-15
243 241 1.3209170649646376e-30
244 241 1.0706691435424927e-14
245 241 1.8856913732588117e-14
246 241 3.3546025952054902e-30
247 241 18.129835034469597
248 241 26.022162967205073
249 241 8.4030018144258299e-15
250 241 1.3305174382891922
251 241 9.0023356841045335e-15
252 241 1.9408804096233072e-30
217 242 1.7746306678103073e-78
218 242 -1.5706538018982566e-61
219 242 -2.2165261968327604e-61
220 242 2.6735939328791016e-46
221 242 -3.235946101086429e-61
222 242 2.3840239999250671e-46
223 242 1.9275889627783443e-46
224 242 1.8817671298698221e-30
225 242 -1.0702359187491071e-45
226 242 -2.7230065534959002e-45
227 242 -5.6648677676318026e-30
228 242 -4.067422295252428e-45
229 242 -2.3752608752990014e-30
230 242 7.6726487315603304e-31
231 242 8.7422318428287193e-15
232 242 -3.3245444549256333e-45
233 242 -7.4215323692116476e-30
234 242 -6.9986485262794053e-45
235 242 -2.7027346902906572e-30
236 242 1.746839523724569e-30
237 242 1.8884742364996723e-14
238 242 1.2504233606275027e-14
239 242 -1.074500966813536e-29
240 242 1.315740716027445e-14
241 242 8.0159433026541494e-15
242 242 77.032390193259914
243 242 -7.3643858339316445e-45
244 242 -3.8439629900807087e-30
245 242 2.6543708557836902e-30
246 242 2.8596866425855467e-14
247 242 6.2033360678579147e-15
248 242 4.1207614969365321e-15
249 242 38.843455759549926
250 242 2.0617686721989958e-16
251 242 1.4303116525417969
252 242 1.9041647214616596e-14
217 243 6.5742553705106128e-31
218 243 1.5142882578402597e-16
219 243 4.1124036741165772e-15
220 243 3.0275848597468466e-30
221 243 8.1555123831825807e-15
222 243 2.1931825815589356e-30
223 243 4.0564001841780561e-31
224 243 -2.2615269985870249e-45
225 243 0.017439761604931301
226 243 0.66979627136916997
227 243 4.9310943453230265e-16
228 243 1.3283063186967514
229 243 3.5720849215405675e-16
230 243 6.6067485924210285e-17
231 243 -3.6833989833930867e-31
232 243 12.862189727788138
233 243 1.3391539159158602e-14
234 243 36.073262518403688
235 243 9.7008314497208955e-15
236 243 1.7942169890551217e-15
237 243 -1.0003130800305591e-29
238 243 6.97133710692501e-30
239 243 2.6557427747132305e-14
240 243 7.1418306060239319e-30
241 243 1.3209170649646376e-30
242 243 -7.3643858339316445e-45
243 243 50.585487241571315
244 243 1.9238201617539704e-14
245 243 3.5582010016317295e-15
246 243 -1.9837706503852041e-29
247 243 3.6582468773797586e-30
248 243 9.5687236948550115e-31
249 243 -5.3347613636199733e-45
250 243 1.2514255628102997e-31
251 243 -9.8669062757885719e-46
252 243 3.8897974577315641e-60
217 244 -5.7165258117737443e-47
218 244 8.8139631015167255e-31
219 244 1.1145093362012922e-30
220 244 2.9079085249430882e-15
221 244 1.1962403018731892e-30
222 244 2.9755854709946494e-15
223 244 2.8983089887810538e-15
224 244 9.9169047328445851e-31
225 244 2.0453382047411225e-16
226 244 4.1383340908530304e-15
227 244 0.47361748549840693
228 244 8.0417840865625405e-15
229 244 0.48464017921116015
230 244 0.47205398783676616
231 244 1.6151881818871955e-16
232 244 8.0900153478015177e-15
233 244 12.862189727782757
234 244 1.8204141281744414e-14
235 244 13.16153673710078
236 244 12.819729294672259
237 244 4.3864209995632588e-15
238 244 1.3391539159153001e-14
239 244 25.507648546275096
240 244 1.6549153541583572e-14
241 244 1.0706691435424927e-14
242 244 -3.8439629900807087e-30
243 244 1.9238201617539704e-14
244 244 26.101298498695844
245 244 25.42344314829641
246 244 8.6989297779661955e-15
247 244 9.9266028730770729e-15
248 244 8.1351092073924194e-15
249 244 -4.8985824686944145e-30
250 244 1.7882939516818998e-15
251 244 -6.617262840879332e-30
252 244 -3.4113898125015517e-45
217 245 -1.136880090646276e-46
218 245 1.3366425576197739e-31
219 245 -7.3601351000309867e-33
220 245 1.0707634957863284e-16
221 245 -4.1833191677160281e-31
222 245 2.8983089887810534e-15
223 245 5.7764176463577603e-15
224 245 8.9511317913364246e-31
225 245 3.3803544009627182e-17
226 245 7.0584896817979961e-16
227 245 0.017439761604871328
228 245 1.3340468960010416e-15
229 245 0.47205398783676611
230 245 0.94081790310447688
231 245 1.4578906093549074e-16
232 245 2.1782069831965678e-15
233 245 0.47361748549697635
234 245 4.3231997063987093e-15
235 245 12.819729294672257
236 245 25.550108979380617
237 245 3.9592426787500242e-15
238 245 4.931094345306069e-16
239 245 0.93925440544018235
240 245 9.6905729826431576e-15
241 245 1.8856913732588117e-14
242 245 2.6543708557836902e-30
243 245 3.5582010016317295e-15
244 245 25.42344314829641
245 245 50.669692639518964
246 245 7.851771191092338e-15
247 245 9.6688072366081442e-15
248 245 1.4890622139828466e-14
249 245 -4.9384310113091665e-30
250 245 3.5641240390020169e-15
251 245 -1.3660194487752747e-29
252 245 -3.0791663957595473e-45
217 246 8.2818201295886864e-63
218 246 -7.592427494800649e-46
219 246 -1.0672725078374542e-45
220 246 1.0079811185097236e-30
221 246 -1.5477721512251981e-45
222 246 9.9169047328445886e-31
223 246 8.9511317913364333e-31
224 246 8.7818029847211372e-15
225 246 -1.7510069889264992e-31
226 246 -3.5405306136178558e-30
227 246 1.641721115652324e-16
228 246 -6.9287625243663198e-30
229 246 1.615188181887196e-16
230 246 1.4578906093549086e-16
231 246 1.4303116525467154
232 246 -6.8381550015197831e-30
233 246 4.4584773823132836e-15
234 246 -1.6662417132037879e-29
235 246 4.3864209995632604e-15
236 246 3.9592426787500273e-15
237 246 38.843455759566176
238 246 4.6419681033377728e-30
239 246 8.8418283765410065e-15
240 246 5.6070654948217697e-30
241 246 3.3546025952054902e-30
242 246 2.8596866425855467e-14
243 246 -1.9837706503852041e-29
244 246 8.6989297779661955e-15
245 246 7.851771191092338e-15
246 246 77.032390193287938
247 246 3.3082959966255225e-30
248 246 2.5441690075568651e-30
249 246 2.0715571069937878e-14
250 246 5.5229635298087028e-31
251 246 3.8314478242718782e-15
252 246 -3.0209177202492034e-29
217 247 2.4853512310503205e-63
218 247 -7.7212700954873273e-47
219 247 -1.1245681411197507e-46
220 247 -2.5285196884317231e-31
221 247 -1.3484827310857027e-46
222 247 -2.5873669627102887e-31
223 247 -2.5201725839828341e-31
224 247 -8.6230665958758208e-47
225 247 1.1993880611850593e-30
226 247 2.4704254375701676e-30
227 247 5.5545939185854614e-15
228 247 2.9623158608078263e-30
229 247 5.6838682577683954e-15
230 247 5.5362571914396446e-15
231 247 1.8942954445696668e-30
232 247 2.54421485426646e-30
233 247 8.0900153477981335e-15
234 247 4.3144793535265585e-30
235 247 8.2782975882994755e-15
236 247 8.0633087322988999e-15
237 247 2.7589558200746643e-30
238 247 12.862189727777377
239 247 9.7008314497168345e-15
240 247 18.613223755271871
241 247 18.129835034469597
242 247 6.2033360678579147e-15
243 247 3.6582468773797586e-30
244 247 9.9266028730770729e-15
245 247 9.6688072366081442e-15
246 247 3.3082959966255225e-30
247 247 13.467850572960307
248 247 18.551778110404388
249 247 6.347708848776925e-15
250 247 12.777409031186783
251 247 6.1828577246095431e-15
252 247 1.4959108513102537e-30
217 248 6.990130153513875e-63
218 248 -1.1760501386959674e-46
219 248 -1.79554393417882e-46
220 248 -3.621607522492488e-31
221 248 -2.0726839939229974e-46
222 248 -5.4205574613982097e-31
223 248 -7.0956751968864879e-31
224 248 -1.7629947288598193e-46
225 248 2.8033145003743939e-31
226 248 7.5903889522536428e-31
227 248 7.937613465487407e-16
228 248 7.3360946296150283e-31
229 248 4.5789666612218376e-15
230 248 8.4491567486905651e-15
231 248 1.4303985368773874e-30
232 248 9.6876531722230405e-31
233 248 1.7508679929268674e-15
234 248 1.3856762549663826e-30
235 248 7.2776914976270881e-15
236 248 1.2898642374782197e-14
237 248 2.2861536017151659e-30
238 248 0.66979627136658637
239 248 1.5212875469791415e-15
240 248 13.304369473876388
241 248 26.022162967205073
242 248 4.1207614969365321e-15
243 248 9.5687236948550115e-31
244 248 8.1351092073924194e-15
245 248 1.4890622139828466e-14
246 248 2.5441690075568651e-30
247 248 18.551778110404388
248 248 38.922156162026788
249 248 8.4233283793243918e-15
250 248 36.014027993096839
251 248 1.2659582650222234e-14
252 248 1.9095125659234303e-30
217 249 -5.0920938004030919e-79
218 249 5.4650672190425275e-62
219 249 7.8734414053800069e-62
220 249 -3.6073226348763322e-47
221 249 1.1213765662926005e-61
222 249 -3.4468748693039215e-47
223 249 -2.9219027866671151e-47
224 249 -5.3995092667003823e-31
225 249 -1.4521031525323486e-45
226 249 -2.9720200320978247e-45
227 249 -2.0010099419976545e-30
228 249 -3.9531911728644623e-45
229 249 -2.1012700369951151e-30
230 249 -2.1423596833549618e-30
231 249 1.1861517817471268e-14
232 249 -3.0412938028235023e-45
233 249 -2.852382070027123e-30
234 249 -5.7245801031529224e-45
235 249 -2.996963454576094e-30
236 249 -3.0584562574767748e-30
237 249 1.7275765357111979e-14
238 249 6.3052391815985036e-15
239 249 -4.6955347590758156e-30
240 249 8.9486623519862777e-15
241 249 8.4030018144258299e-15
242 249 38.843455759549926
243 249 -5.3347613636199733e-45
244 249 -4.8985824686944145e-30
245 249 -4.9384310113091665e-30
246 249 2.0715571069937878e-14
247 249 6.347708848776925e-15
248 249 8.4233283793243918e-15
249 249 39.747475415001297
250 249 5.5807306645556119e-15
251 249 38.71522643079912
252 249 1.8733902641249392e-14
217 250 9.829982771170463e-63
218 250 -2.5378639752936869e-47
219 250 -6.0216854879520909e-47
220 250 -1.8516617191518313e-32
221 250 -4.9601394580853365e-47
222 250 -5.0120197652595898e-31
223 250 -9.9891072787638013e-31
224 250 -1.5479112004027511e-46
225 250 3.2760757099102061e-32
226 250 1.0993061437629197e-31
227 250 3.380354400951093e-17
228 250 9.0551254978421286e-32
229 250 9.1498370873648154e-16
230 250 1.8235902596079449e-15
231 250 2.8258338898747188e-31
232 250 1.8443926586605414e-31
233 250 8.0206942682917476e-17
234 250 2.1485437491042409e-31
235 250 2.1710163248498989e-15
236 250 4.3269013269244245e-15
237 250 6.7049625557857745e-31
238 250 0.017439761604811355
239 250 6.6067485923983081e-17
240 250 0.66758515176876299
241 250 1.3305174382891922
242 250 2.0617686721989958e-16
243 250 1.2514255628102997e-31
244 250 1.7882939516818998e-15
245 250 3.5641240390020169e-15
246 250 5.5229635298087028e-31
247 250 12.777409031186783
248 250 36.014027993096839
249 250 5.5807306645556119e-15
250 250 50.754038207096883
251 250 1.1122565335543037e-14
252 250 1.2187351392717615e-30
217 251 -1.0126955168221908e-78
218 251 9.4263601596105626e-62
219 251 1.3677454765417576e-61
220 251 -1.223014669973515e-46
221 251 1.9809691357101266e-61
222 251 -9.5446072257350935e-47
223 251 -5.7999415814502332e-47
224 251 -1.0738330914081942e-30
225 251 -2.3999078836626154e-46
226 251 -6.466816126776003e-46
227 251 1.0119731415061195e-31
228 251 -6.8864636649138947e-46
229 251 -3.1300069490125542e-30
230 251 -6.4795904224210377e-30
231 251 1.9603669389953842e-15
232 251 -8.1885721033432167e-46
233 251 3.5584707918220647e-31
234 251 -1.3239589821549856e-45
235 251 -4.2940772338694773e-30
236 251 -9.1309852868066987e-30
237 251 4.6514365082326774e-15
238 251 2.3217442673818211e-16
239 251 1.7932045962901083e-31
240 251 4.6052779538656213e-15
241 251 9.0023356841045335e-15
242 251 1.4303116525417969
243 251 -9.8669062757885719e-46
244 251 -6.617262840879332e-30
245 251 -1.3660194487752747e-29
246 251 3.8314478242718782e-15
247 251 6.1828577246095431e-15
248 251 1.2659582650222234e-14
249 251 38.71522643079912
250 251 1.1122565335543037e-14
251 251 77.160619521991492
252 251 1.6909472867325663e-14
217 252 5.216449680865773e-95
218 252 -9.5764626403592607e-78
219 252 -1.3771111551445593e-77
220 252 1.2697891771841498e-62
221 252 -2.0144941155047496e-77
222 252 1.2492672798821733e-62
223 252 1.127605474296226e-62
224 252 1.1062745304841536e-46
225 252 8.7903308104925294e-61
226 252 1.7876565921377525e-60
227 252 -1.6483397035442177e-45
228 252 2.6150566509838094e-60
229 252 -1.6216998024309331e-45
230 252 -1.4637680857684027e-45
231 252 -1.4360779445770271e-29
232 252 1.8177450657482731e-60
233 252 -2.3703397365660907e-45
234 252 3.760494684360484e-60
235 252 -2.3320311184752715e-45
236 252 -2.1049226997043282e-45
237 252 -2.0651038190234125e-29
238 252 1.5454616196224824e-30
239 252 -3.4674292145707134e-45
240 252 2.1502896581980724e-30
241 252 1.9408804096233072e-30
242 252 1.9041647214616596e-14
243 252 3.8897974577315641e-60
244 252 -3.4113898125015517e-45
245 252 -3.0791663957595473e-45
246 252 -3.0209177202492034e-29
247 252 1.4959108513102537e-30
248 252 1.9095125659234303e-30
249 252 1.8733902641249392e-14
250 252 1.2187351392717615e-30
251 252 1.6909472867325663e-14
252 252 117.30615760538171
253 253 138.71860277424784
254 253 4.2930303981523996e-14
255 253 1.3779795621468808e-14
256 253 2.4362306776929995e-30
257 253 -1.2100231110820565e-14
258 253 -2.1226766891449122e-30
259 253 -2.9226953941316125e-30
260 253 -1.8064976271640457e-46
261 253 6.6429842973500703e-30
262 253 3.015484054465162e-30
263 253 5.331294428007656e-46
264 253 -2.6479386902643609e-30
265 253 -4.6451325438592436e-46
266 253 -6.395843305057106e-46
267 253 -3.9532261136407757e-62
268 253 6.8441709898072215e-31
269 253 1.7112421949641418e-46
270 253 -8.4993700453940729e-31
271 253 -1.4909975274473144e-46
272 253 -2.0529417543504157e-46
273 253 -1.2689089719669275e-62
274 253 2.1393020821563196e-62
275 253 -1.5026656863758951e-46
276 253 -2.6360433902751691e-62
277 253 -3.6295456179866458e-62
278 253 -2.2433968177941696e-78
279 253 5.2774317938670302e-31
280 253 1.3092657658627502e-46
281 253 1.8027168447978478e-46
282 253 1.1142467015600732e-62
283 253 1.6240634769095833e-62
284 253 3.1624065594576583e-62
285 253 1.9546614256343592e-78
286 253 3.0789483876366971e-62
287 253 2.6913566135639896e-78
288 253 1.1762783115267531e-94
253 254 4.2930303981523996e-14
254 254 88.173782007905459
255 254 45.830478539063833
256 254 -1.4417905188937594e-14
257 254 4.7143422274399187
258 254 -1.4217914562236684e-14
259 254 -1.655386203625694e-15
260 254 -1.0964454781103887e-30
261 254 2.7287812802906125e-14
262 254 1.6222703159713923e-14
263 254 -2.0601389418159764e-30
264 254 -4.4068967357623383e-15
265 254 -4.0654147046049498e-30
266 254 -1.6758851297571062e-30
267 254 -3.2113385482627408e-46
268 254 4.5526311170732509e-15
269 254 -4.4358841990506359e-31
270 254 -2.495679358545677e-15
271 254 -1.4945796660100847e-30
272 254 -7.9906833757669097e-31
273 254 -1.1921872958662945e-46
274 254 -2.5321292333642823e-46
275 254 9.4784056606612003e-31
276 254 -2.0560786338547898e-47
277 254 1.9424346766310493e-46
278 254 -3.3950315943799841e-64
279 254 -4.1122552669283944e-16
280 254 8.2595016399424387e-31
281 254 3.1868904519920517e-32
282 254 6.3287504239468108e-47
283 254 2.1756300313121433e-46
284 254 2.2973292253956131e-46
285 254 2.4956258614994999e-62
286 254 3.4877727544260451e-47
287 254 1.7859424127687403e-62
288 254 1.4278734898728028e-78
253 255 1.3779795621468808e-14
254 255 45.830478539063833
255 255 47.016794486984885
256 255 -2.3891280470289939e-14
257 255 45.871329748304795
258 255 -1.8300014621918427e-14
259 255 -5.2796095458307383e-15
260 255 1.4002435537148273e-30
261 255 1.4183507734120295e-14
262 255 1.3508056776831488e-14
263 255 -4.6590727608285462e-30
264 255 7.2113728314088683e-15
265 255 -4.5005540728485062e-30
266 255 -1.83814835840252e-30
267 255 2.6421763823874851e-46
268 255 4.6704753785079116e-15
269 255 -1.0942791803324039e-30
270 255 3.2207259020177726e-16
271 255 -1.7941481742011896e-30
272 255 -1.0713127827581062e-30
273 255 5.5059752481492041e-47
274 255 -4.1958806711909059e-46
275 255 2.0432653452496714e-30
276 255 3.1249250987120508e-47
277 255 2.9037235176590239e-46
278 255 3.9389131852869345e-62
279 255 -4.0012924021621545e-15
280 255 6.3240819578335124e-31
281 255 -3.5775431143445462e-31
282 255 -1.2860743940539439e-46
283 255 2.8002743447794171e-46
284 255 3.2976359119930645e-46
285 255 1.70064639645213e-63
286 255 1.1123735529283049e-46
287 255 -1.5999395971647156e-62
288 255 -1.8235021162752169e-78
253 256 2.4362306776929995e-30
254 256 -1.4417905188937594e-14
255 256 -2.3891280470289939e-14
256 256 88.13293079851384
257 256 -3.5447908154210563e-14
258 256 45.871329748313137
259 256 4.7143422274748064
260 256 -2.0663211845851388e-14
261 256 -4.4620190815333913e-30
262 256 -6.2409516292400566e-30
263 256 1.9286457854217179e-14
264 256 -6.8679023444805728e-30
265 256 1.0038194122243993e-14
266 256 1.0316570872860846e-15
267 256 -4.5218076919894723e-30
268 256 -2.3732719003371815e-30
269 256 6.1905792143368416e-15
270 256 -1.0162973899440973e-30
271 256 3.2220657806821634e-15
272 256 3.3114193229007257e-16
273 256 -1.451412639938837e-30
274 256 1.5478252046329364e-30
275 256 -5.436034122785726e-15
276 256 -3.8396089720604599e-31
277 256 -1.2544771851116165e-30
278 256 -3.3776282271604012e-46
279 256 3.0920718093032021e-30
280 256 -2.8293409910795839e-15
281 256 -2.9078035852366821e-16
282 256 1.274505722934236e-30
283 256 -7.0192461869001634e-31
284 256 -7.3441031748631033e-31
285 256 1.8133900001379088e-46
286 256 -9.9327603069384472e-32
287 256 3.0350350913217694e-46
288 256 2.6909183355988443e-62
253 257 -1.2100231110820565e-14
254 257 4.7143422274399187
255 257 45.871329748304795
256 257 -3.5447908154210563e-14
257 257 88.132930798534886
258 257 -2.1007841919916508e-14
259 257 -3.8040270382864294e-15
260 257 2.1244631331736354e-30
261 257 1.4589834445475059e-15
262 257 1.036933605452979e-14
263 257 -7.69865291062641e-30
264 257 1.8995677495700266e-14
265 257 -4.6482343677801947e-30
266 257 -9.0268464197163971e-31
267 257 4.6056299855443768e-46
268 257 4.5566891258981423e-15
269 257 -1.9202576662257581e-30
270 257 3.3612382232592499e-15
271 257 -1.9719555917671072e-30
272 257 -9.5060045744718164e-31
273 257 1.069847378224154e-46
274 257 -6.2255010920558487e-46
275 257 3.2809026425617176e-30
276 257 1.2266682581470728e-46
277 257 4.8086982561787928e-46
278 257 5.9024734821859639e-62
279 257 -7.6877131819683403e-15
280 257 3.4214905446962635e-31
281 257 -1.0783900152694335e-30
282 257 -2.1219374932207122e-46
283 257 3.2146269816125833e-46
284 257 3.5413929273804255e-46
285 257 -3.642037829272764e-63
286 257 8.0147954792520422e-47
287 257 -2.8147751783623211e-62
288 257 -2.766635139303609e-78
253 258 -2.1226766891449122e-30
254 258 -1.4217914562236684e-14
255 258 -1.8300014621918427e-14
256 258 45.871329748313137
257 258 -2.1007841919916508e-14
258 258 47.016794486970362
259 258 45.830478539015402
260 258 -1.7717014307985816e-14
261 258 -4.4001264569965115e-30
262 258 -5.0033464575289768e-30
263 258 1.0038194122243993e-14
264 258 -3.7202642203588792e-30
265 258 1.0288860441704927e-14
266 258 1.0029254499797705e-14
267 258 -3.8770802997416056e-30
268 258 -1.8178561225283495e-30
269 258 3.2220657806821634e-15
270 258 -3.4687608046895227e-31
271 258 3.3025248115067308e-15
272 258 3.2191963351199808e-15
273 258 -1.2444676413531836e-30
274 258 8.0561034010763383e-31
275 258 -2.8293409910795839e-15
276 258 8.7541816237828598e-32
277 258 -1.1425510151977468e-31
278 258 -2.6225901771484669e-46
279 258 1.8324848815417644e-30
280 258 -2.8999931904789047e-15
281 258 -2.8268212908303122e-15
282 258 1.0927844275752903e-30
283 258 -7.1945255833367743e-31
284 258 -1.1963593312118215e-30
285 258 1.4840583890415091e-46
286 258 -9.6561330534580801e-31
287 258 2.217487743208002e-46
288 258 2.3072424078640006e-62
253 259 -2.9226953941316125e-30
254 259 -1.655386203625694e-15
255 259 -5.2796095458307383e-15
256 259 4.7143422274748064
257 259 -3.8040270382864294e-15
258 259 45.830478539015402
259 259 88.173782007770541
260 259 -1.3277271653876882e-14
261 259 -5.1230499376236107e-31
262 259 -1.2716332635498143e-30
263 259 1.0316570872860848e-15
264 259 -7.3034529407402294e-31
265 259 1.0029254499797704e-14
266 259 1.9295397476654484e-14
267 259 -2.9055148609526608e-30
268 259 -5.2445698737050491e-31
269 259 3.3114193229007266e-16
270 259 5.8445882662909914e-32
271 259 3.2191963351199804e-15
272 259 6.1934486598961417e-15
273 259 -9.3261396370030386e-31
274 259 8.2795132953376479e-32
275 259 -2.9078035852366831e-16
276 259 5.1813523253870933e-31
277 259 1.0247497868290137e-30
278 259 -1.6922482193220223e-46
279 259 3.3181999670452954e-31
280 259 -2.8268212908303118e-15
281 259 -5.4385538230324666e-15
282 259 8.1894135500604982e-31
283 259 -7.0129951212199941e-31
284 259 -1.6368471649968964e-30
285 259 1.0145947770535264e-46
286 259 -1.8577544857166915e-30
287 259 1.166128692721461e-46
288 259 1.7290658396515117e-62
253 260 -1.8064976271640457e-46
254 260 -1.0964454781103887e-30
255 260 1.4002435537148273e-30
256 260 -2.0663211845851388e-14
257 260 2.1244631331736354e-30
258 260 -1.7717014307985816e-14
259 260 -1.3277271653876882e-14
260 260 138.71860277417557
261 260 -3.3932534449895679e-46
262 260 2.2940466764197358e-46
263 260 -4.5218076919894772e-30
264 260 5.3253288287217487e-46
265 260 -3.8770802997416098e-30
266 260 -2.9055148609526643e-30
267 260 3.0356309063719638e-14
268 260 1.3909504280409843e-46
269 260 -1.4514126399388388e-30
270 260 6.2858292870947935e-47
271 260 -1.244467641353185e-30
272 260 -9.3261396370030508e-31
273 260 9.743786927300213e-15
274 260 -3.6289545592396085e-46
275 260 1.2745057229342374e-30
276 260 3.560976752886088e-48
277 260 1.4296106727830536e-46
278 260 1.7226752327305203e-30
279 260 -1.853139693155608e-46
280 260 1.0927844275752914e-30
281 260 8.1894135500605088e-31
282 260 -8.5561554723811938e-15
283 260 2.7110634421745402e-46
284 260 4.0761401101591626e-46
285 260 -1.5009590811601944e-30
286 260 2.7974200960524612e-46
287 260 -2.0666577325320751e-30
288 260 -1.8064976271631044e-46
253 261 6.6429842973500703e-30
254 261 2.7287812802906125e-14
255 261 1.4183507734120295e-14
256 261 -4.4620190815333913e-30
257 261 1.4589834445475059e-15
258 261 -4.4001264569965115e-30
259 261 -5.1230499376236107e-31
260 261 -3.3932534449895679e-46
261 261 56.045949700405664
262 261 41.197812171954737
263 261 -1.2960505079182528e-14
264 261 4.2378040071050016
265 261 -1.2780730035639115e-14
266 261 -1.4880553741302836e-15
267 261 -9.8561386011885186e-31
268 261 15.141680503753335
269 261 -6.7365393245849855e-15
270 261 2.2027022225855508
271 261 -6.6430968512392192e-15
272 261 -7.7345315508498329e-16
273 261 -5.1229689637723894e-31
274 261 1.4985444337050581e-30
275 261 -6.9295265546117308e-16
276 261 2.0898656006931891e-30
277 261 2.4332223039292154e-31
278 261 1.6116454193814088e-46
279 261 0.16021659815700881
280 261 -6.8334071572209985e-16
281 261 -7.9561090920222719e-17
282 261 -5.2697309052077025e-32
283 261 1.4572601688433873e-30
284 261 2.3994711003328143e-31
285 261 1.5892903009909062e-46
286 261 1.9754405165352201e-32
287 261 1.8504044501745803e-47
288 261 8.6664128850392641e-63
253 262 3.015484054465162e-30
254 262 1.6222703159713923e-14
255 262 1.3508056776831488e-14
256 262 -6.2409516292400566e-30
257 262 1.036933605452979e-14
258 262 -5.0033464575289768e-30
259 262 -1.2716332635498143e-30
260 262 2.2940466764197358e-46
261 262 41.197812171954737
262 262 45.026991521382186
263 262 -1.9949480423448554e-14
264 262 30.714764312029804
265 262 -1.6329427221190956e-14
266 262 -3.9027950990809324e-15
267 262 5.2778897310342237e-31
268 262 21.967857384288045
269 262 -1.2780063139397234e-14
270 262 16.753039655618025
271 262 -1.0865011355759006e-14
272 262 -2.305372015881563e-15
273 262 9.099342248436023e-32
274 262 3.5117361968109402e-30
275 262 -5.5796420964205173e-15
276 262 4.3507651332860746e-30
277 262 8.3384783029385178e-31
278 262 4.3302826866372225e-47
279 262 2.2046656114101664
280 262 -5.32349060723726e-15
281 262 -7.268286345013388e-16
282 262 -3.149843199825503e-31
283 262 2.6525747360215371e-30
284 262 7.5951333901541794e-31
285 262 1.1276430513941933e-48
286 262 8.9100764185976433e-32
287 262 2.5020870184604963e-47
288 262 -1.5652038765619981e-62
253 263 5.331294428007656e-46
254 263 -2.0601389418159764e-30
255 263 -4.6590727608285462e-30
256 263 1.9286457854217179e-14
257 263 -7.69865291062641e-30
258 263 1.0038194122243993e-14
259 263 1.0316570872860848e-15
260 263 -4.5218076919894772e-30
261 263 -1.2960505079182528e-14
262 263 -1.9949480423448554e-14
263 263 56.0199834236439
264 263 -2.3021764937135627e-14
265 263 29.157218633510183
266 263 2.9965799507856459
267 263 -1.3134168744741523e-14
268 263 -1.1162824855186668e-14
269 263 29.11775574976609
270 263 -1.2523383537424e-14
271 263 15.15517711077911
272 263 1.557545678536449
273 263 -6.8268052598353681e-15
274 263 -1.2954500433643231e-14
275 263 2.9951916252063593
276 263 -1.3800852410037709e-14
277 263 -1.5417180732480917e-15
278 263 1.4510474573903818e-30
279 263 -1.7036956315159399e-15
280 263 1.558934004077198
281 263 0.16021659815819442
282 263 -7.0223784129853076e-16
283 263 -6.6490182063763261e-15
284 263 -1.0305963191425288e-15
285 263 1.7552971530882624e-30
286 263 -7.9561090920811481e-17
287 263 2.0931999035559448e-31
288 263 2.3097509856442566e-46
253 264 -2.6479386902643609e-30
254 264 -4.4068967357623383e-15
255 264 7.2113728314088683e-15
256 264 -6.8679023444805728e-30
257 264 1.8995677495700266e-14
258 264 -3.7202642203588792e-30
259 264 -7.3034529407402294e-31
260 264 5.3253288287217487e-46
261 264 4.2378040071050016
262 264 30.714764312029804
263 264 -2.3021764937135627e-14
264 264 56.180200021814279
265 264 -1.3836421002787721e-14
266 264 -2.4742139918014405e-15
267 264 1.3131110487493076e-30
268 264 21.432657010226219
269 264 -1.6479138568418859e-14
270 264 30.676689753849953
271 264 -1.1642231562267561e-14
272 264 -1.8041930998729714e-15
273 264 3.3931822418546409e-31
274 264 5.2104240424104912e-30
275 264 -1.0364909837638203e-14
276 264 5.8166993210786076e-30
277 264 8.1839116751782505e-31
278 264 5.9374809203702334e-47
279 264 4.2358406182741577
280 264 -9.7471039171255962e-15
281 264 -1.1810061502425157e-15
282 264 -6.2441161786930486e-31
283 264 3.045072470508385e-30
284 264 6.4058764526505962e-31
285 264 -5.1698055608711146e-47
286 264 6.4198254274901235e-32
287 264 4.7153104983400503e-48
288 264 -2.3747425387781033e-62
253 265 -4.6451325438592436e-46
254 265 -4.0654147046049498e-30
255 265 -4.5005540728485062e-30
256 265 1.0038194122243993e-14
257 265 -4.6482343677801947e-30
258 265 1.0288860441704927e-14
259 265 1.0029254499797704e-14
260 265 -3.8770802997416098e-30
261 265 -1.2780730035639115e-14
262 265 -1.6329427221190956e-14
263 265 29.157218633510183
264 265 -1.3836421002787721e-14
265 265 29.885311017619621
266 265 29.131252356808098
267 265 -1.126147557843507e-14
268 265 -8.5503938696740511e-15
269 265 15.15517711077911
270 265 -7.5625904455834995e-15
271 265 15.53362092456425
272 265 15.141680503737335
273 265 -5.8534272100888145e-15
274 265 -6.7425439701033646e-15
275 265 1.558934004077198
276 265 -9.5883198490570063e-15
277 265 -5.310854103329841e-15
278 265 1.4788702909694009e-30
279 265 -1.0096778729745123e-15
280 265 1.5978625448411787
281 265 1.5575456785232771
282 265 -6.0211151948253718e-16
283 265 -6.8150525449759182e-15
284 265 -5.2584495991304609e-15
285 265 1.4442738033266649e-30
286 265 -7.7345315508416603e-16
287 265 -1.508241827742427e-31
288 265 1.9804225773719511e-46
253 266 -6.395843305057106e-46
254 266 -1.6758851297571062e-30
255 266 -1.83814835840252e-30
256 266 1.0316570872860846e-15
257 266 -9.0268464197163971e-31
258 266 1.0029254499797705e-14
259 266 1.9295397476654484e-14
260 266 -2.9055148609526643e-30
261 266 -1.4880553741302836e-15
262 266 -3.9027950990809324e-15
263 266 2.9965799507856459
264 266 -2.4742139918014405e-15
265 266 29.131252356808098
266 266 56.045949700319902
267 266 -8.4394395059548457e-15
268 266 -2.4668144822613999e-15
269 266 1.5575456785364494
270 266 -1.4362188039925338e-15
271 266 15.141680503737334
272 266 29.131252356794302
273 266 -4.3866049788938338e-15
274 266 -6.9295265546630137e-16
275 266 0.16021659815819447
276 266 -5.2466474920903945e-15
277 266 -9.2207192159873381e-15
278 266 1.3427285232987282e-30
279 266 -1.8282896184178057e-16
280 266 1.5575456785232769
281 266 2.9965799507588855
282 266 -4.5122716904364712e-16
283 266 -6.6430968512321984e-15
284 266 -9.5842548475913183e-15
285 266 9.9860069429278115e-31
286 266 -1.4880553741280064e-15
287 266 -5.3849109462052761e-31
288 266 1.4841444552757572e-46
253 267 -3.9532261136407757e-62
254 267 -3.2113385482627408e-46
255 267 2.6421763823874851e-46
256 267 -4.5218076919894723e-30
257 267 4.6056299855443768e-46
258 267 -3.8770802997416056e-30
259 267 -2.9055148609526608e-30
260 267 3.0356309063719638e-14
261 267 -9.8561386011885186e-31
262 267 5.2778897310342237e-31
263 267 -1.3134168744741523e-14
264 267 1.3131110487493076e-30
265 267 -1.126147557843507e-14
266 267 -8.4394395059548457e-15
267 267 88.173782007859515
268 267 6.5424176674667803e-31
269 267 -6.826805259835376e-15
270 267 7.4947690697167072e-31
271 267 -5.8534272100888209e-15
272 267 -4.3866049788938385e-15
273 267 45.830478539039952
274 267 3.0372482157951236e-30
275 267 -7.0223784129853155e-16
276 267 3.9593104468265517e-30
277 267 1.6265737628168897e-30
278 267 -1.4417905188930081e-14
279 267 1.0210584341278512e-31
280 267 -6.0211151948253787e-16
281 267 -4.5122716904364761e-16
282 267 4.7143422274374629
283 267 2.5680692350271281e-30
284 267 1.57227373033611e-30
285 267 -1.4217914562229275e-14
286 267 2.2407245088785999e-31
287 267 -1.6553862036248314e-15
288 267 -1.5506080655455563e-30
253 268 6.8441709898072215e-31
254 268 4.5526311170732509e-15
255 268 4.6704753785079116e-15
256 268 -2.3732719003371815e-30
257 268 4.5566891258981423e-15
258 268 -1.8178561225283495e-30
259 268 -5.2445698737050491e-31
260 268 1.3909504280409843e-46
261 268 15.141680503753335
262 268 21.967857384288045
263 268 -1.1162824855186668e-14
264 268 21.432657010226219
265 268 -8.5503938696740511e-15
266 268 -2.4668144822613999e-15
267 268 6.5424176674667803e-31
268 268 15.935706672950802
269 268 -1.1451773117577323e-14
270 268 21.987438535678738
271 268 -8.7717196974505291e-15
272 268 -2.5306676527210568e-15
273 268 6.7117672936924e-31
274 268 4.1147565726500821e-30
275 268 -1.1172774890805233e-14
276 268 4.4572927140115187e-30
277 268 1.2859424239623929e-30
278 268 -3.4105412037973603e-46
279 268 15.168685748062531
280 268 -8.558015302838119e-15
281 268 -2.4690132887715172e-15
282 268 6.5482492817460315e-31
283 268 2.4141717726918486e-30
284 268 9.8499388472381119e-31
285 268 -2.6123737476423978e-46
286 268 2.0094116001147222e-31
287 268 -7.5367772432329068e-47
288 268 1.4134239896612118e-62
253 269 1.7112421949641418e-46
254 269 -4.4358841990506359e-31
255 269 -1.0942791803324039e-30
256 269 6.1905792143368416e-15
257 269 -1.9202576662257581e-30
258 269 3.2220657806821634e-15
259 269 3.3114193229007266e-16
260 269 -1.4514126399388388e-30
261 269 -6.7365393245849855e-15
262 269 -1.2780063139397234e-14
263 269 29.11775574976609
264 269 -1.6479138568418859e-14
265 269 15.15517711077911
266 269 1.5575456785364494
267 269 -6.826805259835376e-15
268 269 -1.1451773117577323e-14
269 269 29.871465052645995
270 269 -1.9914933988502206e-14
271 269 15.547466889503674
272 269 1.5978625448534969
273 269 -7.0035162217199193e-15
274 269 -2.1466336416897261e-14
275 269 29.143709996168884
276 269 -1.952700411246876e-14
277 269 -4.166269869909493e-15
278 269 4.4484167624882635e-30
279 269 -1.6577240330397722e-14
280 269 15.16868574806529
281 269 1.5589340040884507
282 269 -6.8328903643118384e-15
283 269 -8.5580153028396747e-15
284 269 -2.3677807846115588e-15
285 269 3.1889602681363845e-30
286 269 -2.5374833629893115e-16
287 269 8.3402597423810661e-31
288 269 -2.9497261769081992e-46
253 270 -8.4993700453940729e-31
254 270 -2.495679358545677e-15
255 270 3.2207259020177726e-16
256 270 -1.0162973899440973e-30
257 270 3.3612382232592499e-15
258 270 -3.4687608046895227e-31
259 270 5.8445882662909914e-32
260 270 6.2858292870947935e-47
261 270 2.2027022225855508
262 270 16.753039655618025
263 270 -1.2523383537424e-14
264 270 30.676689753849953
265 270 -7.5625904455834995e-15
266 270 -1.4362188039925338e-15
267 270 7.4947690697167072e-31
268 270 21.987438535678738
269 270 -1.9914933988502206e-14
270 270 45.040150800715651
271 270 -1.3171754578946529e-14
272 270 -3.0351795612126786e-15
273 270 1.1830891965811919e-30
274 270 8.6339659288287841e-30
275 270 -2.690087109860676e-14
276 270 8.29450021785117e-30
277 270 2.0043035728484731e-30
278 270 -7.2370862625507639e-46
279 270 41.215429934460225
280 270 -1.8573511517325091e-14
281 270 -4.6122382189160599e-15
282 270 1.5921405833375432e-30
283 270 3.9193420730711147e-30
284 270 1.3013896445857513e-30
285 270 -4.9231898434171627e-46
286 270 2.0475084022874763e-31
287 270 -1.1925509517442179e-46
288 270 3.0327252909894749e-62
253 271 -1.4909975274473144e-46
254 271 -1.4945796660100847e-30
255 271 -1.7941481742011896e-30
256 271 3.2220657806821634e-15
257 271 -1.9719555917671072e-30
258 271 3.3025248115067308e-15
259 271 3.2191963351199804e-15
260 271 -1.244467641353185e-30
261 271 -6.6430968512392192e-15
262 271 -1.0865011355759006e-14
263 271 15.15517711077911
264 271 -1.1642231562267561e-14
265 271 15.53362092456425
266 271 15.141680503737334
267 271 -5.8534272100888209e-15
268 271 -8.7717196974505291e-15
269 271 15.547466889503674
270 271 -1.3171754578946529e-14
271 271 15.935706672945878
272 271 15.533620924552634
273 271 -6.0049424083765926e-15
274 271 -1.1172774890807264e-14
275 271 15.16868574806529
276 271 -1.4149057082182413e-14
277 271 -9.6391651916222491e-15
278 271 3.5144038504015951e-30
279 271 -9.8243327311288429e-15
280 271 15.547466889496043
281 271 15.15517711076034
282 271 -5.8586446895339023e-15
283 271 -8.771719697447817e-15
284 271 -7.8354937452239663e-15
285 271 2.8118549097974073e-30
286 271 -2.4668144822587931e-15
287 271 1.1369257392231961e-30
288 271 -2.529148966326613e-46
253 272 -2.0529417543504157e-46
254 272 -7.9906833757669097e-31
255 272 -1.0713127827581062e-30
256 272 3.3114193229007257e-16
257 272 -9.5060045744718164e-31
258 272 3.2191963351199808e-15
259 272 6.1934486598961417e-15
260 272 -9.3261396370030508e-31
261 272 -7.7345315508498329e-16
262 272 -2.305372015881563e-15
263 272 1.557545678536449
264 272 -1.8041930998729714e-15
265 272 15.141680503737335
266 272 29.131252356794302
267 272 -4.3866049788938385e-15
268 272 -2.5306676527210568e-15
269 272 1.5978625448534969
270 272 -3.0351795612126786e-15
271 272 15.533620924552634
272 272 29.885311017583124
273 272 -4.5001516754414048e-15
274 272 -1.1482615558521035e-15
275 272 1.5589340040884512
276 272 -8.5152338975730941e-15
277 272 -1.5365454954593207e-14
278 272 2.3343101920247857e-30
279 272 -1.7789560434051946e-15
280 272 15.155177110760338
281 272 29.157218633460264
282 272 -4.3905149995517569e-15
283 272 -8.5503938696650155e-15
284 272 -1.3376349637917281e-14
285 272 2.2141810211650004e-30
286 272 -4.7459326051912567e-15
287 272 1.395368581850813e-30
288 272 -1.8953643822426857e-46
253 273 -1.2689089719669275e-62
254 273 -1.1921872958662945e-46
255 273 5.5059752481492041e-47
256 273 -1.451412639938837e-30
257 273 1.069847378224154e-46
258 273 -1.2444676413531836e-30
259 273 -9.3261396370030386e-31
260 273 9.743786927300213e-15
261 273 -5.1229689637723894e-31
262 273 9.099342248436023e-32
263 273 -6.8268052598353681e-15
264 273 3.3931822418546409e-31
265 273 -5.8534272100888145e-15
266 273 -4.3866049788938338e-15
267 273 45.830478539039952
268 273 6.7117672936924e-31
269 273 -7.0035162217199193e-15
270 273 1.1830891965811919e-30
271 273 -6.0049424083765926e-15
272 273 -4.5001516754414048e-15
273 273 47.016794486960386
274 273 5.0328912578177367e-30
275 273 -6.8328903643118463e-15
276 273 5.7773018241333052e-30
277 273 3.0731618034585402e-30
278 273 -2.3891280470277491e-14
279 273 9.9350674737928362e-31
280 273 -5.8586446895339087e-15
281 273 -4.3905149995517617e-15
282 273 45.871329748280893
283 273 3.3053866194918399e-30
284 273 2.4258691807850968e-30
285 273 -1.8300014621908888e-14
286 273 7.1464595275359149e-31
287 273 -5.2796095458279867e-15
288 273 1.9802434242879764e-30
253 274 2.1393020821563196e-62
254 274 -2.5321292333642823e-46
255 274 -4.1958806711909059e-46
256 274 1.5478252046329364e-30
257 274 -6.2255010920558487e-46
258 274 8.0561034010763383e-31
259 274 8.2795132953376479e-32
260 274 -3.6289545592396085e-46
261 274 1.4985444337050581e-30
262 274 3.5117361968109402e-30
263 274 -1.2954500433643231e-14
264 274 5.2104240424104912e-30
265 274 -6.7425439701033646e-15
266 274 -6.9295265546630137e-16
267 274 3.0372482157951236e-30
268 274 4.1147565726500821e-30
269 274 -2.1466336416897261e-14
270 274 8.6339659288287841e-30
271 274 -1.1172774890807264e-14
272 274 -1.1482615558521035e-15
273 274 5.0328912578177367e-30
274 274 55.994029177145393
275 274 -3.1849976507530617e-14
276 274 41.215429934457873
277 274 4.2358406183044917
278 274 -1.8565913931999455e-14
279 274 9.0582962010029457e-30
280 274 -1.6577240330400735e-14
281 274 -1.7036956315285474e-15
282 274 7.4673882498306758e-30
283 274 15.168685748068048
284 274 2.2046656114268819
285 274 -9.6631662234199987e-15
286 274 0.16021659815938005
287 274 -9.9311427918333658e-16
288 274 3.07794567744071e-30
253 275 -1.5026656863758951e-46
254 275 9.4784056606612003e-31
255 275 2.0432653452496714e-30
256 275 -5.436034122785726e-15
257 275 3.2809026425617176e-30
258 275 -2.8293409910795839e-15
259 275 -2.9078035852366831e-16
260 275 1.2745057229342374e-30
261 275 -6.9295265546117308e-16
262 275 -5.5796420964205173e-15
263 275 2.9951916252063593
264 275 -1.0364909837638203e-14
265 275 1.558934004077198
266 275 0.16021659815819447
267 275 -7.0223784129853155e-16
268 275 -1.1172774890805233e-14
269 275 29.143709996168884
270 275 -2.690087109860676e-14
271 275 15.16868574806529
272 275 1.5589340040884512
273 275 -6.8328903643118463e-15
274 275 -3.1849976507530617e-14
275 275 55.994029177158758
276 275 -2.5068918605295165e-14
277 275 -3.621530291978233e-15
278 275 6.6299889098793861e-30
279 275 -3.1849976507538221e-14
280 275 29.143709996181141
281 275 2.9951916252292392
282 275 -1.3128083640245745e-14
283 275 -9.8243327311306289e-15
284 275 -1.9718619525244031e-15
285 275 3.8317963583024435e-30
286 275 -1.8282896184313366e-16
287 275 6.3883906734377338e-31
288 275 -4.4753532334953564e-46
253 276 -2.6360433902751691e-62
254 276 -2.0560786338547898e-47
255 276 3.1249250987120508e-47
256 276 -3.8396089720604599e-31
257 276 1.2266682581470728e-46
258 276 8.7541816237828598e-32
259 276 5.1813523253870933e-31
260 276 3.560976752886088e-48
261 276 2.0898656006931891e-30
262 276 4.3507651332860746e-30
263 276 -1.3800852410037709e-14
264 276 5.8166993210786076e-30
265 276 -9.5883198490570063e-15
266 276 -5.2466474920903945e-15
267 276 3.9593104468265517e-30
268 276 4.4572927140115187e-30
269 276 -1.952700411246876e-14
270 276 8.29450021785117e-30
271 276 -1.4149057082182413e-14
272 276 -8.5152338975730941e-15
273 276 5.7773018241333052e-30
274 276 41.215429934457873
275 276 -2.5068918605295165e-14
276 276 45.040150800704808
277 276 30.676689753824053
278 276 -1.8089148463283823e-14
279 276 7.591932613253483e-30
280 276 -1.8961441393354751e-14
281 276 -1.2425390075498366e-14
282 276 7.6566557241631891e-30
283 276 21.987438535675942
284 276 16.753039655616099
285 276 -1.2862160911252723e-14
286 276 2.2027022225995236
287 276 -7.4289167793151463e-15
288 276 3.7322322064812859e-30
253 277 -3.6295456179866458e-62
254 277 1.9424346766310493e-46
255 277 2.9037235176590239e-46
256 277 -1.2544771851116165e-30
257 277 4.8086982561787928e-46
258 277 -1.1425510151977468e-31
259 277 1.0247497868290137e-30
260 277 1.4296106727830536e-46
261 277 2.4332223039292154e-31
262 277 8.3384783029385178e-31
263 277 -1.5417180732480917e-15
264 277 8.1839116751782505e-31
265 277 -5.310854103329841e-15
266 277 -9.2207192159873381e-15
267 277 1.6265737628168897e-30
268 277 1.2859424239623929e-30
269 277 -4.166269869909493e-15
270 277 2.0043035728484731e-30
271 277 -9.6391651916222491e-15
272 277 -1.5365454954593207e-14
273 277 3.0731618034585402e-30
274 277 4.2358406183044917
275 277 -3.621530291978233e-15
276 277 30.676689753824053
277 277 56.18020002171756
278 277 -9.1377673265862303e-15
279 277 1.3747207849219936e-30
280 277 -1.2969351886423625e-14
281 277 -2.2661053014099902e-14
282 277 3.9594900157869451e-30
283 277 21.432657010207468
284 277 30.714764312000373
285 277 -1.1217320259380708e-14
286 277 4.2378040071298777
287 277 -1.3585395913768412e-14
288 277 2.796964546021973e-30
253 278 -2.2433968177941696e-78
254 278 -3.3950315943799841e-64
255 278 3.9389131852869345e-62
256 278 -3.3776282271604012e-46
257 278 5.9024734821859639e-62
258 278 -2.6225901771484669e-46
259 278 -1.6922482193220223e-46
260 278 1.7226752327305203e-30
261 278 1.6116454193814088e-46
262 278 4.3302826866372225e-47
263 278 1.4510474573903818e-30
264 278 5.9374809203702334e-47
265 278 1.4788702909694009e-30
266 278 1.3427285232987282e-30
267 278 -1.4417905188930081e-14
268 278 -3.4105412037973603e-46
269 278 4.4484167624882635e-30
270 278 -7.2370862625507639e-46
271 278 3.5144038504015951e-30
272 278 2.3343101920247857e-30
273 278 -2.3891280470277491e-14
274 278 -1.8565913931999455e-14
275 278 6.6299889098793861e-30
276 278 -1.8089148463283823e-14
277 278 -9.1377673265862303e-15
278 278 88.132930798467925
279 278 -7.6775049088239729e-46
280 278 5.2298900823139635e-30
281 278 3.4650504169961491e-30
282 278 -3.5447908154192091e-14
283 278 -8.2853747770654705e-15
284 278 -4.9926265190395546e-15
285 278 45.871329748289234
286 278 -6.3813158217746602e-16
287 278 4.7143422274723497
288 278 -2.9222194434576206e-14
253 279 5.2774317938670302e-31
254 279 -4.1122552669283944e-16
255 279 -4.0012924021621545e-15
256 279 3.0920718093032021e-30
257 279 -7.6877131819683403e-15
258 279 1.8324848815417644e-30
259 279 3.3181999670452954e-31
260 279 -1.853139693155608e-46
261 279 0.16021659815700881
262 279 2.2046656114101664
263 279 -1.7036956315159399e-15
264 279 4.2358406182741577
265 279 -1.0096778729745123e-15
266 279 -1.8282896184178057e-16
267 279 1.0210584341278512e-31
268 279 15.168685748062531
269 279 -1.6577240330397722e-14
270 279 41.215429934460225
271 279 -9.8243327311288429e-15
272 279 -1.7789560434051946e-15
273 279 9.9350674737928362e-31
274 279 9.0582962010029457e-30
275 279 -3.1849976507538221e-14
276 279 7.591932613253483e-30
277 279 1.3747207849219936e-30
278 279 -7.6775049088239729e-46
279 279 55.994029177172123
280 279 -1.8875564355239408e-14
281 279 -3.4179216239328805e-15
282 279 1.9088319849044196e-30
283 279 3.18147251564815e-30
284 279 8.1471427899291702e-31
285 279 -4.5499951298197533e-46
286 279 1.043163744351447e-31
287 279 -8.2389731243630305e-47
288 279 3.2535964996645324e-62
253 280 1.3092657658627502e-46
254 280 8.2595016399424387e-31
255 280 6.3240819578335124e-31
256 280 -2.8293409910795839e-15
257 280 3.4214905446962635e-31
258 280 -2.8999931904789047e-15
259 280 -2.8268212908303118e-15
260 280 1.0927844275752914e-30
261 280 -6.8334071572209985e-16
262 280 -5.32349060723726e-15
263 280 1.558934004077198
264 280 -9.7471039171255962e-15
265 280 1.5978625448411787
266 280 1.5575456785232769
267 280 -6.0211151948253787e-16
268 280 -8.558015302838119e-15
269 280 15.16868574806529
270 280 -1.8573511517325091e-14
271 280 15.547466889496043
272 280 15.155177110760338
273 280 -5.8586446895339087e-15
274 280 -1.6577240330400735e-14
275 280 29.143709996181141
276 280 -1.8961441393354751e-14
277 280 -1.2969351886423625e-14
278 280 5.2298900823139635e-30
279 280 -1.8875564355239408e-14
280 280 29.871465052643895
281 280 29.117755749742269
282 280 -1.1256258098973429e-14
283 280 -1.0069658662954868e-14
284 280 -8.2299892221818082e-15
285 280 3.4031605924706755e-30
286 280 -1.7773717748425769e-15
287 280 1.1877366135705037e-30
288 280 -3.8372494006563203e-46
253 281 1.8027168447978478e-46
254 281 3.1868904519920517e-32
255 281 -3.5775431143445462e-31
256 281 -2.9078035852366821e-16
257 281 -1.0783900152694335e-30
258 281 -2.8268212908303122e-15
259 281 -5.4385538230324666e-15
260 281 8.1894135500605088e-31
261 281 -7.9561090920222719e-17
262 281 -7.268286345013388e-16
263 281 0.16021659815819442
264 281 -1.1810061502425157e-15
265 281 1.5575456785232771
266 281 2.9965799507588855
267 281 -4.5122716904364761e-16
268 281 -2.4690132887715172e-15
269 281 1.5589340040884507
270 281 -4.6122382189160599e-15
271 281 15.15517711076034
272 281 29.157218633460264
273 281 -4.3905149995517617e-15
274 281 -1.7036956315285474e-15
275 281 2.9951916252292392
276 281 -1.2425390075498366e-14
277 281 -2.2661053014099902e-14
278 281 3.4650504169961491e-30
279 281 -3.4179216239328805e-15
280 281 29.117755749742269
281 281 56.019983423571553
282 281 -8.4355294852845162e-15
283 281 -9.8155835652614003e-15
284 281 -1.4610017783500078e-14
285 281 2.7126281446142583e-30
286 281 -3.4195058924934155e-15
287 281 1.7144712013907356e-30
288 281 -2.8756652678902952e-46
253 282 1.1142467015600732e-62
254 282 6.3287504239468108e-47
255 282 -1.2860743940539439e-46
256 282 1.274505722934236e-30
257 282 -2.1219374932207122e-46
258 282 1.0927844275752903e-30
259 282 8.1894135500604982e-31
260 282 -8.5561554723811938e-15
261 282 -5.2697309052077025e-32
262 282 -3.149843199825503e-31
263 282 -7.0223784129853076e-16
264 282 -6.2441161786930486e-31
265 282 -6.0211151948253718e-16
266 282 -4.5122716904364712e-16
267 282 4.7143422274374629
268 282 6.5482492817460315e-31
269 282 -6.8328903643118384e-15
270 282 1.5921405833375432e-30
271 282 -5.8586446895339023e-15
272 282 -4.3905149995517569e-15
273 282 45.871329748280893
274 282 7.4673882498306758e-30
275 282 -1.3128083640245745e-14
276 282 7.6566557241631891e-30
277 282 3.9594900157869451e-30
278 282 -3.5447908154192091e-14
279 282 1.9088319849044196e-30
280 282 -1.1256258098973429e-14
281 282 -8.4355294852845162e-15
282 282 88.132930798488957
283 282 3.7944800056783979e-30
284 282 2.4965853070465683e-30
285 282 -2.1007841919905561e-14
286 282 5.1491166221248881e-31
287 282 -3.8040270382844478e-15
288 282 3.0044445756942287e-30
253 283 1.6240634769095833e-62
254 283 2.1756300313121433e-46
255 283 2.8002743447794171e-46
256 283 -7.0192461869001634e-31
257 283 3.2146269816125833e-46
258 283 -7.1945255833367743e-31
259 283 -7.0129951212199941e-31
260 283 2.7110634421745402e-46
261 283 1.4572601688433873e-30
262 283 2.6525747360215371e-30
263 283 -6.6490182063763261e-15
264 283 3.045072470508385e-30
265 283 -6.8150525449759182e-15
266 283 -6.6430968512321984e-15
267 283 2.5680692350271281e-30
268 283 2.4141717726918486e-30
269 283 -8.5580153028396747e-15
270 283 3.9193420730711147e-30
271 283 -8.771719697447817e-15
272 283 -8.5503938696650155e-15
273 283 3.3053866194918399e-30
274 283 15.168685748068048
275 283 -9.8243327311306289e-15
276 283 21.987438535675942
277 283 21.432657010207468
278 283 -8.2853747770654705e-15
279 283 3.18147251564815e-30
280 283 -1.0069658662954868e-14
281 283 -9.8155835652614003e-15
282 283 3.7944800056783979e-30
283 283 15.935706672940956
284 283 21.967857384258046
285 283 -8.4922709951929105e-15
286 283 15.141680503721334
287 283 -8.2779961468625628e-15
288 283 2.262801021017124e-30
253 284 3.1624065594576583e-62
254 284 2.2973292253956131e-46
255 284 3.2976359119930645e-46
256 284 -7.3441031748631033e-31
257 284 3.5413929273804255e-46
258 284 -1.1963593312118215e-30
259 284 -1.6368471649968964e-30
260 284 4.0761401101591626e-46
261 284 2.3994711003328143e-31
262 284 7.5951333901541794e-31
263 284 -1.0305963191425288e-15
264 284 6.4058764526505962e-31
265 284 -5.2584495991304609e-15
266 284 -9.5842548475913183e-15
267 284 1.57227373033611e-30
268 284 9.8499388472381119e-31
269 284 -2.3677807846115588e-15
270 284 1.3013896445857513e-30
271 284 -7.8354937452239663e-15
272 284 -1.3376349637917281e-14
273 284 2.4258691807850968e-30
274 284 2.2046656114268819
275 284 -1.9718619525244031e-15
276 284 16.753039655616099
277 284 30.714764312000373
278 284 -4.9926265190395546e-15
279 284 8.1471427899291702e-31
280 284 -8.2299892221818082e-15
281 284 -1.4610017783500078e-14
282 284 2.4965853070465683e-30
283 284 21.967857384258046
284 284 45.026991521295223
285 284 -1.0353578885522644e-14
286 284 41.197812171848163
287 284 -1.5648080557307037e-14
288 284 2.3981683607792763e-30
253 285 1.9546614256343592e-78
254 285 2.4956258614994999e-62
255 285 1.70064639645213e-63
256 285 1.8133900001379088e-46
257 285 -3.642037829272764e-63
258 285 1.4840583890415091e-46
259 285 1.0145947770535264e-46
260 285 -1.5009590811601944e-30
261 285 1.5892903009909062e-46
262 285 1.1276430513941933e-48
263 285 1.7552971530882624e-30
264 285 -5.1698055608711146e-47
265 285 1.4442738033266649e-30
266 285 9.9860069429278115e-31
267 285 -1.4217914562229275e-14
268 285 -2.6123737476423978e-46
269 285 3.1889602681363845e-30
270 285 -4.9231898434171627e-46
271 285 2.8118549097974073e-30
272 285 2.2141810211650004e-30
273 285 -1.8300014621908888e-14
274 285 -9.6631662234199987e-15
275 285 3.8317963583024435e-30
276 285 -1.2862160911252723e-14
277 285 -1.1217320259380708e-14
278 285 45.871329748289234
279 285 -4.5499951298197533e-46
280 285 3.4031605924706755e-30
281 285 2.7126281446142583e-30
282 285 -2.1007841919905561e-14
283 285 -8.4922709951929105e-15
284 285 -1.0353578885522644e-14
285 285 47.016794486945862
286 285 -6.2035962539184567e-15
287 285 45.830478538991521
288 285 -2.5055641919098662e-14
253 286 3.0789483876366971e-62
254 286 3.4877727544260451e-47
255 286 1.1123735529283049e-46
256 286 -9.9327603069384472e-32
257 286 8.0147954792520422e-47
258 286 -9.6561330534580801e-31
259 286 -1.8577544857166915e-30
260 286 2.7974200960524612e-46
261 286 1.9754405165352201e-32
262 286 8.9100764185976433e-32
263 286 -7.9561090920811481e-17
264 286 6.4198254274901235e-32
265 286 -7.7345315508416603e-16
266 286 -1.4880553741280064e-15
267 286 2.2407245088785999e-31
268 286 2.0094116001147222e-31
269 286 -2.5374833629893115e-16
270 286 2.0475084022874763e-31
271 286 -2.4668144822587931e-15
272 286 -4.7459326051912567e-15
273 286 7.1464595275359149e-31
274 286 0.16021659815938005
275 286 -1.8282896184313366e-16
276 286 2.2027022225995236
277 286 4.2378040071298777
278 286 -6.3813158217746602e-16
279 286 1.043163744351447e-31
280 286 -1.7773717748425769e-15
281 286 -3.4195058924934155e-15
282 286 5.1491166221248881e-31
283 286 15.141680503721334
284 286 41.197812171848163
285 286 -6.2035962539184567e-15
286 286 56.045949700234139
287 286 -1.1935169808130372e-14
288 286 1.2708168843006805e-30
253 287 2.6913566135639896e-78
254 287 1.7859424127687403e-62
255 287 -1.5999395971647156e-62
256 287 3.0350350913217694e-46
257 287 -2.8147751783623211e-62
258 287 2.217487743208002e-46
259 287 1.166128692721461e-46
260 287 -2.0666577325320751e-30
261 287 1.8504044501745803e-47
262 287 2.5020870184604963e-47
263 287 2.0931999035559448e-31
264 287 4.7153104983400503e-48
265 287 -1.508241827742427e-31
266 287 -5.3849109462052761e-31
267 287 -1.6553862036248314e-15
268 287 -7.5367772432329068e-47
269 287 8.3402597423810661e-31
270 287 -1.1925509517442179e-46
271 287 1.1369257392231961e-30
272 287 1.395368581850813e-30
273 287 -5.2796095458279867e-15
274 287 -9.9311427918333658e-16
275 287 6.3883906734377338e-31
276 287 -7.4289167793151463e-15
277 287 -1.3585395913768412e-14
278 287 4.7143422274723497
279 287 -8.2389731243630305e-47
280 287 1.1877366135705037e-30
281 287 1.7144712013907356e-30
282 287 -3.8040270382844478e-15
283 287 -8.2779961468625628e-15
284 287 -1.5648080557307037e-14
285 287 45.830478538991521
286 287 -1.1935169808130372e-14
287 287 88.173782007724597
288 287 -1.8776897644214761e-14
253 288 1.1762783115267531e-94
254 288 1.4278734898728028e-78
255 288 -1.8235021162752169e-78
256 288 2.6909183355988443e-62
257 288 -2.766635139303609e-78
258 288 2.3072424078640006e-62
259 288 1.7290658396515117e-62
260 288 -1.8064976271631044e-46
261 288 8.6664128850392641e-63
262 288 -1.5652038765619981e-62
263 288 2.3097509856442566e-46
264 288 -2.3747425387781033e-62
265 288 1.9804225773719511e-46
266 288 1.4841444552757572e-46
267 288 -1.5506080655455563e-30
268 288 1.4134239896612118e-62
269 288 -2.9497261769081992e-46
270 288 3.0327252909894749e-62
271 288 -2.529148966326613e-46
272 288 -1.8953643822426857e-46
273 288 1.9802434242879764e-30
274 288 3.07794567744071e-30
275 288 -4.4753532334953564e-46
276 288 3.7322322064812859e-30
277 288 2.796964546021973e-30
278 288 -2.9222194434576206e-14
279 288 3.2535964996645324e-62
280 288 -3.8372494006563203e-46
281 288 -2.8756652678902952e-46
282 288 3.0044445756942287e-30
283 288 2.262801021017124e-30
284 288 2.3981683607792763e-30
285 288 -2.5055641919098662e-14
286 288 1.2708168843006805e-30
287 288 -1.8776897644214761e-14
288 288 138.71860277410329
289 289 127.36984239873571
290 289 1.592541622861208e-14
291 289 1.4926070474908701e-14
292 289 4.1244711216585039e-30
293 289 5.5948776738487351e-15
294 289 1.1016462402412919e-30
295 289 -1.2105593030572634e-30
296 289 1.1029658072540615e-46
297 289 9.9560020362814551e-31
298 289 1.3196375673620902e-30
299 289 3.6465103436233852e-46
300 289 4.9465201009319071e-31
301 289 9.7398291600556281e-47
302 289 -1.0702746824889328e-46
303 289 9.7514956613335748e-63
304 289 8.7456958267344825e-31
305 289 3.4176858924804171e-46
306 289 4.6361179244667509e-31
307 289 9.1286390490298008e-47
308 289 -1.003113206525754e-46
309 289 9.1395734583896882e-63
310 289 6.6779002443428343e-62
311 289 1.2810829567105765e-46
312 289 2.5224862900828463e-62
313 289 -2.7718691661175757e-62
314 289 2.5255077588420258e-78
315 289 1.2288095673221745e-31
316 289 3.4217725886995715e-47
317 289 -3.760062431011727e-47
318 289 3.4258712349512557e-63
319 289 4.7641750032476646e-63
320 289 -7.403662567205204e-63
321 289 6.7456312461942119e-79
322 289 5.7527504102672067e-63
323 289 -7.4125307760189703e-79
324 289 4.7755950273250477e-95
289 290 1.592541622861208e-14
290 290 82.500150999798748
291 290 42.029912426349256
292 290 1.2152365116004794e-14
293 290 2.8397789725534417
294 290 1.5379662856587208e-15
295 290 -1.0995182519225328e-15
296 290 -6.0889270724904345e-31
297 290 1.0315230189863006e-14
298 290 1.0552192020812544e-14
299 290 2.9634509520337045e-30
300 290 2.8135685120512438e-15
301 290 6.4053691181134234e-31
302 290 -6.516560878038567e-31
303 290 -3.31644558962096e-48
304 290 4.9253529965982146e-15
305 290 1.9693657063392545e-30
306 290 1.5407860823653565e-15
307 290 3.8449228996212159e-31
308 290 -3.7357395395816413e-31
309 290 -2.4719176984498716e-47
310 290 3.9351606343593157e-46
311 290 4.4248263722362408e-31
312 290 1.0953814789159514e-46
313 290 -1.0684664783887271e-46
314 290 -6.5009051144535632e-63
315 290 1.2474079949467536e-16
316 290 6.5137872707075811e-32
317 290 -5.3236490343232831e-32
318 290 -1.7173674164349208e-47
319 290 1.3302165915563028e-47
320 290 -1.7060517177501142e-47
321 290 -2.7821965376711305e-63
322 290 1.0450135005974884e-47
323 290 3.4188304184527476e-63
324 290 -5.2727382223249979e-79
289 291 1.4926070474908701e-14
290 291 42.029912426349256
291 291 43.168242860942037
292 291 5.2805646863679754e-15
293 291 42.171687111417448
294 291 4.355959178815568e-15
295 291 3.8128665836966978e-16
296 291 1.9380574895924314e-30
297 291 5.2551203396450631e-15
298 291 7.2993233310720019e-15
299 291 1.4292398959960966e-30
300 291 5.0339374823354026e-15
301 291 6.4216810368129533e-31
302 291 -2.4875373798630841e-31
303 291 1.9708261112588196e-46
304 291 5.0587503531128155e-15
305 291 1.4260083140997112e-30
306 291 4.8353273527494194e-15
307 291 6.2496328744836892e-31
308 291 -2.585193055323486e-31
309 291 1.8702735056798784e-46
310 291 1.709944532000268e-46
311 291 1.1296402558195593e-30
312 291 1.3203566984678695e-46
313 291 -2.6757786975628299e-47
314 291 4.7609937534935282e-62
315 291 1.8524434532267144e-15
316 291 3.9321636259650939e-31
317 291 -2.7157373027179852e-31
318 291 8.6019796100522523e-47
319 291 3.7675527908732223e-47
320 291 -2.6942505452258547e-47
321 291 1.4520223661575518e-62
322 291 -3.6238571292228103e-48
323 291 -1.2791331059283771e-62
324 291 1.6782710124096821e-78
289 292 4.1244711216585039e-30
290 292 1.2152365116004794e-14
291 292 5.2805646863679754e-15
292 292 82.358376314668163
293 292 4.3053369216511735e-16
294 292 42.171687111385758
295 292 2.8397789725556635
296 292 -6.8849710434675402e-16
297 292 1.5194450192542797e-30
298 292 1.4738520109169794e-30
299 292 7.2814346919479772e-15
300 292 4.1552317594370477e-31
301 292 3.7284657529104104e-15
302 292 2.5106936360035469e-16
303 292 -6.0871121132874796e-32
304 292 6.1881273598438391e-31
305 292 6.8245128296990523e-15
306 292 1.9969276313303572e-31
307 292 3.4944984666233994e-15
308 292 2.3531435294334967e-16
309 292 -5.7051359341154021e-32
310 292 2.6669165819620004e-30
311 292 2.5580955503301039e-15
312 292 1.4693188637593313e-30
313 292 -4.8846950400345288e-31
314 292 3.4665101377372703e-47
315 292 1.8911724288803083e-32
316 292 1.3098753275402506e-15
317 292 8.8205065213385417e-17
318 292 -2.1385091084564011e-32
319 292 3.647510248604671e-31
320 292 -2.66048888270423e-31
321 292 2.1611904971383416e-47
322 292 -2.699006914932611e-32
323 292 6.3659368678105476e-48
324 292 -5.9620766595327218e-64
289 293 5.5948776738487351e-15
290 293 2.8397789725534417
291 293 42.171687111417448
292 293 4.3053369216511735e-16
293 293 82.358376314744419
294 293 6.9496856314933897e-15
295 293 -4.5964181800425515e-16
296 293 4.4085141807161366e-30
297 293 3.5506569909972596e-16
298 293 3.963780105856377e-15
299 293 1.0308779460800748e-31
300 293 7.3696397571680347e-15
301 293 6.3180054179179681e-31
302 293 -5.9722523162796881e-32
303 293 3.9150259322908003e-46
304 293 4.9419671251945093e-15
305 293 1.0012986493583899e-30
306 293 8.1343881572466052e-15
307 293 8.33794001276016e-31
308 293 -3.2150428223593994e-31
309 293 3.9112811016070247e-46
310 293 1.3941477407901616e-47
311 293 1.8991674084544685e-30
312 293 1.6176301222709217e-46
313 293 -1.3418035194320385e-47
314 293 1.0120725137058788e-61
315 293 3.6176934211264484e-15
316 293 7.1955677356177241e-31
317 293 -5.6776985451113678e-31
318 293 1.8736073880146057e-46
319 293 6.0109166366760974e-47
320 293 -4.9516795967282681e-47
321 293 3.1217493586668107e-62
322 293 4.3685669102240827e-48
323 293 -2.9909064846899727e-62
324 293 3.8175758959806891e-78
289 294 1.1016462402412919e-30
290 294 1.5379662856587208e-15
291 294 4.355959178815568e-15
292 294 42.171687111385758
293 294 6.9496856314933897e-15
294 294 43.168242860910048
295 294 42.029912426297763
296 294 -3.4251673202712545e-16
297 294 1.9229632999155734e-31
298 294 5.1255870767396019e-31
299 294 3.7284657529104104e-15
300 294 6.6220279233623681e-31
301 294 3.8165728274370934e-15
302 294 3.7159312281098232e-15
303 294 -3.028244760018484e-32
304 294 5.1046113008288082e-31
305 294 3.4944984666233994e-15
306 294 7.1117451762497933e-31
307 294 3.5770766790132627e-15
308 294 3.4827505036278127e-15
309 294 -2.8382174791828407e-32
310 294 1.3655972431792912e-30
311 294 1.3098753275402506e-15
312 294 1.2463595553233998e-30
313 294 6.7896009635625244e-31
314 294 1.7979934663387495e-47
315 294 3.0527352666804388e-31
316 294 1.3408288861224007e-15
317 294 1.3054717294205915e-15
318 294 -1.0638754275280509e-32
319 294 3.7337042701160098e-31
320 294 -3.3063253609732046e-32
321 294 2.4338100985730955e-47
322 294 -3.9946427299058456e-31
323 294 2.8037773137181909e-47
324 294 -2.9660415426959612e-64
289 295 -1.2105593030572634e-30
290 295 -1.0995182519225328e-15
291 295 3.8128665836966978e-16
292 295 2.8397789725556635
293 295 -4.5964181800425515e-16
294 295 42.029912426297763
295 295 82.500150999700551
296 295 3.5568769098902766e-15
297 295 -1.3747591645864754e-31
298 295 -5.7399899396986842e-32
299 295 2.5106936360035513e-16
300 295 -7.4789291665695067e-32
301 295 3.7159312281098232e-15
302 295 7.2939692167436483e-15
303 295 3.1446912974613325e-31
304 295 4.4681782020241476e-32
305 295 2.3531435294335006e-16
306 295 -2.6244613803803884e-32
307 295 3.4827505036278127e-15
308 295 6.8362607926900309e-15
309 295 2.9473568071275851e-31
310 295 9.1957296513127564e-32
311 295 8.8205065213385577e-17
312 295 9.797446067893383e-31
313 295 1.8699562143564485e-30
314 295 8.3182186110841811e-47
315 295 -2.0190334675054807e-32
316 295 1.3054717294205915e-15
317 295 2.562499148448036e-15
318 295 1.1047851358322818e-31
319 295 3.6352478836799449e-31
320 295 2.2209897660302897e-31
321 295 4.7489386291158992e-47
322 295 -7.8410496091562534e-31
323 295 2.6612575012215306e-47
324 295 3.080096150209418e-63
289 296 1.1029658072540615e-46
290 296 -6.0889270724904345e-31
291 296 1.9380574895924314e-30
292 296 -6.8849710434675402e-16
293 296 4.4085141807161366e-30
294 296 -3.4251673202712545e-16
295 296 3.5568769098902766e-15
296 296 127.3698423984912
297 296 -7.6131599277850429e-47
298 296 1.2089168573767004e-46
299 296 -6.0871121132874763e-32
300 296 3.7085119616788864e-46
301 296 -3.0282447600184922e-32
302 296 3.1446912974613312e-31
303 296 1.1260969808448276e-14
304 296 2.2711485018368548e-46
305 296 -5.7051359341153988e-32
306 296 4.2550253410960044e-46
307 296 -2.8382174791828484e-32
308 296 2.9473568071275838e-31
309 296 1.0554325649255991e-14
310 296 -2.2294809907640809e-47
311 296 -2.1385091084563997e-32
312 296 -1.2053532516815899e-47
313 296 8.60704000818064e-47
314 296 2.9164414989272148e-30
315 296 1.936494314526434e-46
316 296 -1.0638754275280541e-32
317 296 1.1047851358322814e-31
318 296 3.9561759430800627e-15
319 296 -2.9624930278168098e-48
320 296 2.4055411024689649e-47
321 296 7.7898152694178646e-31
322 296 -3.3805572434105402e-47
323 296 -8.559946922186085e-31
324 296 1.1029658072519441e-46
289 297 9.9560020362814551e-31
290 297 1.0315230189863006e-14
291 297 5.2551203396450631e-15
292 297 1.5194450192542797e-30
293 297 3.5506569909972596e-16
294 297 1.9229632999155734e-31
295 297 -1.3747591645864754e-31
296 297 -7.6131599277850429e-47
297 297 53.437099291511402
298 297 38.500078493371376
299 297 1.1131762686066866e-14
300 297 2.6012833964077249
301 297 1.4088019531751079e-15
302 297 -1.0071764740907155e-15
303 297 -5.5775555241064761e-31
304 297 13.869166400083348
305 297 5.6711049032274525e-15
306 297 1.325230463502121
307 297 7.1771774961820056e-16
308 297 -5.1310862454698264e-16
309 297 -2.8414998929481848e-31
310 297 1.1594579622037404e-30
311 297 3.8317197266472876e-16
312 297 2.0751811365016638e-31
313 297 -1.4835822845438107e-31
314 297 -8.2158020758917526e-47
315 297 0.063314395787460315
316 297 4.8493076857242884e-17
317 297 -3.4668525307486726e-17
318 297 -1.9198782915970043e-32
319 297 1.8570646326441014e-32
320 297 -1.8775765160511029e-32
321 297 -1.0397668669224883e-47
322 297 9.4915747994383466e-33
323 297 7.433470152019132e-48
324 297 2.91081720728941e-63
289 298 1.3196375673620902e-30
290 298 1.0552192020812544e-14
291 298 7.2993233310720019e-15
292 298 1.4738520109169794e-30
293 298 3.963780105856377e-15
294 298 5.1255870767396019e-31
295 298 -5.7399899396986842e-32
296 298 1.2089168573767004e-46
297 298 38.500078493371376
298 298 41.830153768697031
299 298 7.4304105883058706e-15
300 298 28.252576499667672
301 298 3.3289503254134441e-15
302 298 -1.158551245126913e-16
303 298 1.0543965969090012e-30
304 298 20.145184201576633
305 298 5.8611827252553186e-15
306 298 14.878408804199866
307 298 1.9586417023981816e-15
308 298 -2.4683100391334985e-16
309 298 4.3316029339458985e-31
310 298 7.1250770120322957e-31
311 298 4.1413364888075857e-15
312 298 4.7936415464496624e-31
313 298 -9.2058099835601694e-33
314 298 1.5966640547566641e-46
315 298 1.3297007114935966
316 298 6.0633343666116486e-16
317 298 -3.5554546512669166e-16
318 298 -1.5839210796059608e-31
319 298 7.4383909905277219e-32
320 298 -3.2998789327762378e-32
321 298 2.5779674012695653e-48
322 298 -4.6548151433103062e-33
323 298 -1.8552996566922821e-47
324 298 -1.3102549663538906e-62
289 299 3.6465103436233852e-46
290 299 2.9634509520337045e-30
291 299 1.4292398959960966e-30
292 299 7.2814346919479772e-15
293 299 1.0308779460800748e-31
294 299 3.7284657529104104e-15
295 299 2.5106936360035513e-16
296 299 -6.0871121132874763e-32
297 299 1.1131762686066866e-14
298 299 7.4304105883058706e-15
299 299 53.345268818057917
300 299 5.4980931293167581e-16
301 299 27.315497052269809
302 299 1.8393851293893151
303 299 -4.4595419136557455e-16
304 299 2.4642640341040398e-15
305 299 27.17688330986995
306 299 2.5980192261301729e-16
307 299 13.915949669059611
308 299 0.93707944737807425
309 299 -2.2719250064804622e-16
310 299 1.1112632998052252e-14
311 299 1.836224186718127
312 299 5.0180649784556139e-15
313 299 -4.400139466085221e-16
314 299 -4.5940453258061764e-31
315 299 1.3575007214708508e-17
316 299 0.94024039004499271
317 299 0.063314395787509845
318 299 -1.5350412332947997e-17
319 299 7.2013874461968999e-16
320 299 -3.2975667225578953e-16
321 299 -2.0991560926392052e-31
322 299 -3.4668525307513843e-17
323 299 -7.6321486755685705e-33
324 299 4.6546955141166538e-48
289 300 4.9465201009319071e-31
290 300 2.8135685120512438e-15
291 300 5.0339374823354026e-15
292 300 4.1552317594370477e-31
293 300 7.3696397571680347e-15
294 300 6.6220279233623681e-31
295 300 -7.4789291665695067e-32
296 300 3.7085119616788864e-46
297 300 2.6012833964077249
298 300 28.252576499667672
299 300 5.4980931293167581e-16
300 300 53.408583213894758
301 300 4.5357487097052932e-15
302 300 -3.2223411311366576e-16
303 300 2.841912638570358e-30
304 300 19.680124755300273
305 300 4.1656723658125773e-15
306 300 28.117123699940809
307 300 2.8024947251986157e-15
308 300 -5.157205490327612e-16
309 300 1.2531336241499889e-30
310 300 5.8092001426857888e-32
311 300 7.867417129423592e-15
312 300 6.6826857862441139e-31
313 300 -4.7571031992442736e-32
314 300 4.1855846026163124e-46
315 300 2.5968131484166861
316 300 1.1494084822460844e-15
317 300 -7.2120540778006108e-16
318 300 -2.9542478925434322e-31
319 300 1.1867530632451123e-31
320 300 -6.5543143175535477e-32
321 300 2.0008922309425051e-47
322 300 5.6113888277478769e-33
323 300 -3.5859110513497934e-47
324 300 -2.9804469839228599e-62
289 301 9.7398291600556281e-47
290 301 6.4053691181134234e-31
291 301 6.4216810368129533e-31
292 301 3.7284657529104104e-15
293 301 6.3180054179179681e-31
294 301 3.8165728274370934e-15
295 301 3.7159312281098232e-15
296 301 -3.0282447600184922e-32
297 301 1.4088019531751079e-15
298 301 3.3289503254134441e-15
299 301 27.315497052269809
300 301 4.5357487097052932e-15
301 301 27.960987368592964
302 301 27.223666578843904
303 301 -2.2185535900730044e-16
304 301 2.032781373948792e-15
305 301 13.915949669059611
306 301 2.390398182427515e-15
307 301 14.244796357176385
308 301 13.869166400066357
309 301 -1.1302477871257332e-16
310 301 5.690234591229372e-15
311 301 0.94024039004499271
312 301 4.6278999058189348e-15
313 301 3.6460302781453247e-15
314 301 -2.3428168362855844e-31
315 301 2.1912810612577324e-16
316 301 0.96245913512908698
317 301 0.9370794473761932
318 301 -7.636594307159513e-18
319 301 7.3715628541169833e-16
320 301 1.3485387945525299e-16
321 301 -2.105020069394636e-31
322 301 -5.1310862454635392e-16
323 301 -1.9796761375818606e-31
324 301 2.3156395081563038e-48
289 302 -1.0702746824889328e-46
290 302 -6.516560878038567e-31
291 302 -2.4875373798630841e-31
292 302 2.5106936360035469e-16
293 302 -5.9722523162796881e-32
294 302 3.7159312281098232e-15
295 302 7.2939692167436483e-15
296 302 3.1446912974613312e-31
297 302 -1.0071764740907155e-15
298 302 -1.158551245126913e-16
299 302 1.8393851293893151
300 302 -3.2223411311366576e-16
301 302 27.223666578843904
302 302 53.437099291447801
303 302 2.3038646874804101e-15
304 302 1.7793381100504083e-16
305 302 0.93707944737807591
306 302 -1.4317310267456037e-16
307 302 13.869166400066357
308 302 27.223666578844853
309 302 1.1737097433721068e-15
310 302 3.8317197266502917e-16
311 302 0.063314395787509956
312 302 4.044366517373881e-15
313 302 7.8468305325292084e-15
314 302 3.2578627243259331e-31
315 302 -1.4492805346338678e-17
316 302 0.9370794473761932
317 302 1.8393851293856869
318 302 7.9302479036802473e-17
319 302 7.1771774961732127e-16
320 302 6.3335082653575705e-16
321 302 -1.5797578150569451e-31
322 302 -1.0071764740895166e-15
323 302 -4.2509741986838147e-31
324 302 -2.4046838965924012e-47
289 303 9.7514956613335748e-63
290 303 -3.31644558962096e-48
291 303 1.9708261112588196e-46
292 303 -6.0871121132874796e-32
293 303 3.9150259322908003e-46
294 303 -3.028244760018484e-32
295 303 3.1446912974613325e-31
296 303 1.1260969808448276e-14
297 303 -5.5775555241064761e-31
298 303 1.0543965969090012e-30
299 303 -4.4595419136557455e-16
300 303 2.841912638570358e-30
301 303 -2.2185535900730044e-16
302 303 2.3038646874804101e-15
303 303 82.500150999640368
304 303 9.0442701704947936e-31
305 303 -2.2719250064804607e-16
306 303 1.4979457951794918e-30
307 303 -1.1302477871257364e-16
308 303 1.1737097433721062e-15
309 303 42.029912426268567
310 303 -9.2899058763466659e-32
311 303 -1.5350412332947988e-17
312 303 -4.0993013902686548e-32
313 303 3.4530530293786753e-31
314 303 1.2152365115981464e-14
315 303 1.3900331820352537e-31
316 303 -7.6365943071595346e-18
317 303 7.9302479036802424e-17
318 303 2.8397789725479901
319 303 -5.8489376714231333e-33
320 303 4.5905373344529175e-32
321 303 1.5379662856557681e-15
322 303 -4.3422984097691276e-32
323 303 -1.0995182519204218e-15
324 303 -8.611043246200148e-31
289 304 8.7456958267344825e-31
290 304 4.9253529965982146e-15
291 304 5.0587503531128155e-15
292 304 6.1881273598438391e-31
293 304 4.9419671251945093e-15
294 304 5.1046113008288082e-31
295 304 4.4681782020241476e-32
296 304 2.2711485018368548e-46
297 304 13.869166400083348
298 304 20.145184201576633
299 304 2.4642640341040398e-15
300 304 19.680124755300273
301 304 2.032781373948792e-15
302 304 1.7793381100504083e-16
303 304 9.0442701704947936e-31
304 304 14.630599808102099
305 304 2.5310057088896882e-15
306 304 20.213137641899021
307 304 2.0878368515651523e-15
308 304 1.8275293768266848e-16
309 304 9.2892235237226667e-31
310 304 2.1892437708953485e-31
311 304 2.4725764534547129e-15
312 304 2.5539509646113597e-31
313 304 2.2355292806059843e-32
314 304 1.1363062856715605e-46
315 304 13.96289074669459
316 304 2.0396383223092981e-15
317 304 1.7853401473048082e-16
318 304 9.0747781701804694e-31
319 304 1.4897074543169026e-31
320 304 1.8440971501599779e-32
321 304 9.3734365337759246e-47
322 304 1.1413966847563103e-33
323 304 8.2047745322888965e-48
324 304 2.9489451837714522e-62
289 305 3.4176858924804171e-46
290 305 1.9693657063392545e-30
291 305 1.4260083140997112e-30
292 305 6.8245128296990523e-15
293 305 1.0012986493583899e-30
294 305 3.4944984666233994e-15
295 305 2.3531435294335006e-16
296 305 -5.7051359341153988e-32
297 305 5.6711049032274525e-15
298 305 5.8611827252553186e-15
299 305 27.17688330986995
300 305 4.1656723658125773e-15
301 305 13.915949669059611
302 305 0.93707944737807591
303 305 -2.2719250064804607e-16
304 305 2.5310057088896882e-15
305 305 27.91293703013562
306 305 1.8942922450547929e-15
307 305 14.29284669563312
308 305 0.96245913513055303
309 305 -2.3334574063456559e-16
310 305 4.8287701054010243e-15
311 305 27.26855597464515
312 305 4.5649742202330703e-15
313 305 3.6427607806934753e-16
314 305 1.2246196714479822e-30
315 305 2.0159349101707178e-16
316 305 13.962890746684099
317 305 0.94024039004643467
318 305 -2.2795886306399642e-16
319 305 2.0396383223077657e-15
320 305 2.2336105943339528e-16
321 305 6.1813760064055968e-31
322 305 1.2022216222416661e-17
323 305 4.1148988235131929e-32
324 305 -1.4815528902724011e-47
289 306 4.6361179244667509e-31
290 306 1.5407860823653565e-15
291 306 4.8353273527494194e-15
292 306 1.9969276313303572e-31
293 306 8.1343881572466052e-15
294 306 7.1117451762497933e-31
295 306 -2.6244613803803884e-32
296 306 4.2550253410960044e-46
297 306 1.325230463502121
298 306 14.878408804199866
299 306 2.5980192261301729e-16
300 306 28.117123699940809
301 306 2.390398182427515e-15
302 306 -1.4317310267456037e-16
303 306 1.4979457951794918e-30
304 306 20.213137641899021
305 306 1.8942922450547929e-15
306 306 41.875827776856049
307 306 3.7976325917811782e-15
308 306 -2.9539394104928434e-17
309 306 2.1358192782416433e-30
310 306 2.5242705297843584e-32
311 306 3.5570042108643455e-15
312 306 3.0284760496716001e-31
313 306 -1.7767248173734756e-32
314 306 1.8932145078239679e-46
315 306 38.563561685708763
316 306 5.1176140360980936e-15
317 306 9.4357337144938519e-17
318 306 2.7128065968861916e-30
319 306 3.3612231601136376e-31
320 306 5.0847312272424226e-33
321 306 2.5651439527445419e-46
322 306 -1.9458955694494737e-33
323 306 6.2031589075874992e-48
324 306 9.4865278081944796e-62
289 307 9.1286390490298008e-47
290 307 3.8449228996212159e-31
291 307 6.2496328744836892e-31
292 307 3.4944984666233994e-15
293 307 8.33794001276016e-31
294 307 3.5770766790132627e-15
295 307 3.4827505036278127e-15
296 307 -2.8382174791828484e-32
297 307 7.1771774961820056e-16
298 307 1.9586417023981816e-15
299 307 13.915949669059611
300 307 2.8024947251986157e-15
301 307 14.244796357176385
302 307 13.869166400066357
303 307 -1.1302477871257364e-16
304 307 2.0878368515651523e-15
305 307 14.29284669563312
306 307 3.7976325917811782e-15
307 307 14.630599808091258
308 307 14.24479635716949
309 307 -1.1608592107360173e-16
310 307 2.4725764534528555e-15
311 307 13.962890746684099
312 307 3.2319333888482108e-15
313 307 1.8687404216352349e-15
314 307 6.2748348267374451e-31
315 307 3.2541271761528543e-15
316 307 14.292846695633267
317 307 13.915949669053017
318 307 -1.1340603224087788e-16
319 307 2.0878368515636049e-15
320 307 1.5666193357042182e-15
321 307 6.4513346281633593e-31
322 307 1.7793381100482257e-16
323 307 6.3850113946561505e-31
324 307 -7.3704980180406134e-48
289 308 -1.003113206525754e-46
290 308 -3.7357395395816413e-31
291 308 -2.585193055323486e-31
292 308 2.3531435294334967e-16
293 308 -3.2150428223593994e-31
294 308 3.4827505036278127e-15
295 308 6.8362607926900309e-15
296 308 2.9473568071275838e-31
297 308 -5.1310862454698264e-16
298 308 -2.4683100391334985e-16
299 308 0.93707944737807425
300 308 -5.157205490327612e-16
301 308 13.869166400066357
302 308 27.223666578844853
303 308 1.1737097433721062e-15
304 308 1.8275293768266848e-16
305 308 0.96245913513055303
306 308 -2.9539394104928434e-17
307 308 14.24479635716949
308 308 27.960987368580401
309 308 1.2054982826279545e-15
310 308 1.6649963758874523e-16
311 308 0.94024039004643634
312 308 1.8396162560920564e-15
313 308 3.4288348450251505e-15
314 308 1.9067287085772975e-31
315 308 -2.1522310656554831e-16
316 308 13.915949669053017
317 308 27.315497052257818
318 308 1.177668883889462e-15
319 308 2.0327813739463012e-15
320 308 2.9472654420409834e-15
321 308 7.6116916974357181e-31
322 308 3.4926473619029537e-16
323 308 1.2659686328512637e-30
324 308 7.653919287272818e-47
289 309 9.1395734583896882e-63
290 309 -2.4719176984498716e-47
291 309 1.8702735056798784e-46
292 309 -5.7051359341154021e-32
293 309 3.9112811016070247e-46
294 309 -2.8382174791828407e-32
295 309 2.9473568071275851e-31
296 309 1.0554325649255991e-14
297 309 -2.8414998929481848e-31
298 309 4.3316029339458985e-31
299 309 -2.2719250064804622e-16
300 309 1.2531336241499889e-30
301 309 -1.1302477871257332e-16
302 309 1.1737097433721068e-15
303 309 42.029912426268567
304 309 9.2892235237226667e-31
305 309 -2.3334574063456559e-16
306 309 2.1358192782416433e-30
307 309 -1.1608592107360173e-16
308 309 1.2054982826279545e-15
309 309 43.168242860859166
310 309 -4.0367408683031864e-32
311 309 -2.2795886306399627e-16
312 309 -3.7746353064383288e-32
313 309 1.4540179602389062e-31
314 309 5.2805646863578378e-15
315 309 2.0642467246163651e-30
316 309 -1.134060322408782e-16
317 309 1.1776688838894614e-15
318 309 42.171687111336482
319 309 -1.656585971599727e-32
320 309 1.2061735552274253e-31
321 309 4.3559591788072053e-15
322 309 1.5058053355729584e-32
323 309 3.8128665836893782e-16
324 309 2.7408271864351083e-30
289 310 6.6779002443428343e-62
290 310 3.9351606343593157e-46
291 310 1.709944532000268e-46
292 310 2.6669165819620004e-30
293 310 1.3941477407901616e-47
294 310 1.3655972431792912e-30
295 310 9.1957296513127564e-32
296 310 -2.2294809907640809e-47
297 310 1.1594579622037404e-30
298 310 7.1250770120322957e-31
299 310 1.1112632998052252e-14
300 310 5.8092001426857888e-32
301 310 5.690234591229372e-15
302 310 3.8317197266502917e-16
303 310 -9.2899058763466659e-32
304 310 2.1892437708953485e-31
305 310 4.8287701054010243e-15
306 310 2.5242705297843584e-32
307 310 2.4725764534528555e-15
308 310 1.6649963758874523e-16
309 310 -4.0367408683031864e-32
310 310 53.25359615324237
311 310 3.9369808828622968e-16
312 310 38.563561685644089
313 310 2.5968131484163135
314 310 -6.2959066550351544e-16
315 310 1.4552837359294965e-33
316 310 2.0159349101692035e-16
317 310 1.3575007214719127e-17
318 310 -3.2912255669000711e-33
319 310 13.962890746673608
320 310 1.3297007114936379
321 310 -3.2238251580801274e-16
322 310 0.063314395787559374
323 310 -2.1708761309291264e-17
324 310 3.721667969201256e-33
289 311 1.2810829567105765e-46
290 311 4.4248263722362408e-31
291 311 1.1296402558195593e-30
292 311 2.5580955503301039e-15
293 311 1.8991674084544685e-30
294 311 1.3098753275402506e-15
295 311 8.8205065213385577e-17
296 311 -2.1385091084563997e-32
297 311 3.8317197266472876e-16
298 311 4.1413364888075857e-15
299 311 1.836224186718127
300 311 7.867417129423592e-15
301 311 0.94024039004499271
302 311 0.063314395787509956
303 311 -1.5350412332947988e-17
304 311 2.4725764534547129e-15
305 311 27.26855597464515
306 311 3.5570042108643455e-15
307 311 13.962890746684099
308 311 0.94024039004643634
309 311 -2.2795886306399627e-16
310 311 3.9369808828622968e-16
311 311 53.253596153291674
312 311 4.6362713931380339e-15
313 311 -2.8760915928837647e-16
314 311 2.8482538868685282e-30
315 311 3.9369808828659418e-16
316 311 27.268555974649907
317 311 1.8362241867212636
318 311 -4.4518782894969929e-16
319 311 3.2541271761504093e-15
320 311 2.7612516698021826e-18
321 311 1.422076362913711e-30
322 311 -1.4492805346349913e-17
323 311 1.0077478066795451e-31
324 311 -3.3700996803868836e-47
289 312 2.5224862900828463e-62
290 312 1.0953814789159514e-46
291 312 1.3203566984678695e-46
292 312 1.4693188637593313e-30
293 312 1.6176301222709217e-46
294 312 1.2463595553233998e-30
295 312 9.797446067893383e-31
296 312 -1.2053532516815899e-47
297 312 2.0751811365016638e-31
298 312 4.7936415464496624e-31
299 312 5.0180649784556139e-15
300 312 6.6826857862441139e-31
301 312 4.6278999058189348e-15
302 312 4.044366517373881e-15
303 312 -4.0993013902686548e-32
304 312 2.5539509646113597e-31
305 312 4.5649742202330703e-15
306 312 3.0284760496716001e-31
307 312 3.2319333888482108e-15
308 312 1.8396162560920564e-15
309 312 -3.7746353064383288e-32
310 312 38.563561685644089
311 312 4.6362713931380339e-15
312 312 41.87582777678854
313 312 28.117123699882381
314 312 -4.4943296854265328e-16
315 312 3.3221611082868665e-32
316 312 2.4469320609140568e-15
317 312 2.9701586959905198e-16
318 312 -3.8724264188609001e-32
319 312 20.213137641868855
320 312 14.878408804172402
321 312 -3.4675177287518534e-16
322 312 1.3252304635015342
323 312 -2.3482909495493339e-16
324 312 2.618377715968385e-33
289 313 -2.7718691661175757e-62
290 313 -1.0684664783887271e-46
291 313 -2.6757786975628299e-47
292 313 -4.8846950400345288e-31
293 313 -1.3418035194320385e-47
294 313 6.7896009635625244e-31
295 313 1.8699562143564485e-30
296 313 8.60704000818064e-47
297 313 -1.4835822845438107e-31
298 313 -9.2058099835601694e-33
299 313 -4.400139466085221e-16
300 313 -4.7571031992442736e-32
301 313 3.6460302781453247e-15
302 313 7.8468305325292084e-15
303 313 3.4530530293786753e-31
304 313 2.2355292806059843e-32
305 313 3.6427607806934753e-16
306 313 -1.7767248173734756e-32
307 313 1.8687404216352349e-15
308 313 3.4288348450251505e-15
309 313 1.4540179602389062e-31
310 313 2.5968131484163135
311 313 -2.8760915928837647e-16
312 313 28.117123699882381
313 313 53.408583213781981
314 313 2.2845551346283525e-15
315 313 -2.1972276912731169e-33
316 313 -1.0116818311588738e-17
317 313 2.6861785176066699e-16
318 313 1.4507495452136736e-32
319 313 19.680124755261375
320 313 28.252576499614221
321 313 9.5047638324080929e-16
322 313 2.6012833964066635
323 313 -3.6665171232817923e-16
324 313 -2.7190634408369958e-32
289 314 2.5255077588420258e-78
290 314 -6.5009051144535632e-63
291 314 4.7609937534935282e-62
292 314 3.4665101377372703e-47
293 314 1.0120725137058788e-61
294 314 1.7979934663387495e-47
295 314 8.3182186110841811e-47
296 314 2.9164414989272148e-30
297 314 -8.2158020758917526e-47
298 314 1.5966640547566641e-46
299 314 -4.5940453258061764e-31
300 314 4.1855846026163124e-46
301 314 -2.3428168362855844e-31
302 314 3.2578627243259331e-31
303 314 1.2152365115981464e-14
304 314 1.1363062856715605e-46
305 314 1.2246196714479822e-30
306 314 1.8932145078239679e-46
307 314 6.2748348267374451e-31
308 314 1.9067287085772975e-31
309 314 5.2805646863578378e-15
310 314 -6.2959066550351544e-16
311 314 2.8482538868685282e-30
312 314 -4.4943296854265328e-16
313 314 2.2845551346283525e-15
314 314 82.358376314510053
315 314 2.107403864447771e-47
316 314 1.4584850869321865e-30
317 314 1.1031309260262429e-31
318 314 4.3053369216429082e-16
319 314 -1.6038034884984994e-16
320 314 1.1700322895814111e-15
321 314 42.171687111304799
322 314 1.1215064138374182e-16
323 314 2.8397789725502118
324 314 -9.7368194261991447e-16
289 315 1.2288095673221745e-31
290 315 1.2474079949467536e-16
291 315 1.8524434532267144e-15
292 315 1.8911724288803083e-32
293 315 3.6176934211264484e-15
294 315 3.0527352666804388e-31
295 315 -2.0190334675054807e-32
296 315 1.936494314526434e-46
297 315 0.063314395787460315
298 315 1.3297007114935966
299 315 1.3575007214708508e-17
300 315 2.5968131484166861
301 315 2.1912810612577324e-16
302 315 -1.4492805346338678e-17
303 315 1.3900331820352537e-31
304 315 13.96289074669459
305 315 2.0159349101707178e-16
306 315 38.563561685708763
307 315 3.2541271761528543e-15
308 315 -2.1522310656554831e-16
309 315 2.0642467246163651e-30
310 315 1.4552837359294965e-33
311 315 3.9369808828659418e-16
312 315 3.3221611082868665e-32
313 315 -2.1972276912731169e-33
314 315 2.107403864447771e-47
315 315 53.253596153340979
316 315 6.3550843920071768e-15
317 315 -4.2031578094345399e-16
318 315 4.031330501461989e-30
319 315 3.7919596560201347e-31
320 315 -3.5467704370285922e-32
321 315 3.4017765910151732e-46
322 315 1.6587176122784671e-33
323 315 -2.2498841813115745e-47
324 315 1.5258711886355263e-61
289 316 3.4217725886995715e-47
290 316 6.5137872707075811e-32
291 316 3.9321636259650939e-31
292 316 1.3098753275402506e-15
293 316 7.1955677356177241e-31
294 316 1.3408288861224007e-15
295 316 1.3054717294205915e-15
296 316 -1.0638754275280541e-32
297 316 4.8493076857242884e-17
298 316 6.0633343666116486e-16
299 316 0.94024039004499271
300 316 1.1494084822460844e-15
301 316 0.96245913512908698
302 316 0.9370794473761932
303 316 -7.6365943071595346e-18
304 316 2.0396383223092981e-15
305 316 13.962890746684099
306 316 5.1176140360980936e-15
307 316 14.292846695633267
308 316 13.915949669053017
309 316 -1.134060322408782e-16
310 316 2.0159349101692035e-16
311 316 27.268555974649907
312 316 2.4469320609140568e-15
313 316 -1.0116818311588738e-17
314 316 1.4584850869321865e-30
315 316 6.3550843920071768e-15
316 316 27.912937030140778
317 316 27.176883309861815
318 316 -2.2147410547903317e-16
319 316 3.3310251938952643e-15
320 316 2.1374977288864784e-15
321 316 1.4754468063684863e-30
322 316 -2.1449955979154189e-16
323 316 1.4559718098724255e-30
324 316 -1.6765728161296911e-47
289 317 -3.760062431011727e-47
290 317 -5.3236490343232831e-32
291 317 -2.7157373027179852e-31
292 317 8.8205065213385417e-17
293 317 -5.6776985451113678e-31
294 317 1.3054717294205915e-15
295 317 2.562499148448036e-15
296 317 1.1047851358322814e-31
297 317 -3.4668525307486726e-17
298 317 -3.5554546512669166e-16
299 317 0.063314395787509845
300 317 -7.2120540778006108e-16
301 317 0.9370794473761932
302 317 1.8393851293856869
303 317 7.9302479036802424e-17
304 317 1.7853401473048082e-16
305 317 0.94024039004643467
306 317 9.4357337144938519e-17
307 317 13.915949669053017
308 317 27.315497052257818
309 317 1.1776688838894614e-15
310 317 1.3575007214719127e-17
311 317 1.8362241867212636
312 317 2.9701586959905198e-16
313 317 2.6861785176066699e-16
314 317 1.1031309260262429e-31
315 317 -4.2031578094345399e-16
316 317 27.176883309861815
317 317 53.345268818043813
318 317 2.299905546963442e-15
319 317 3.2431873042307378e-15
320 317 4.3497848329234501e-15
321 317 1.6488097758922836e-30
322 317 -4.2103932771662422e-16
323 317 2.8426524631245923e-30
324 317 1.7410428688106102e-46
289 318 3.4258712349512557e-63
290 318 -1.7173674164349208e-47
291 318 8.6019796100522523e-47
292 318 -2.1385091084564011e-32
293 318 1.8736073880146057e-46
294 318 -1.0638754275280509e-32
295 318 1.1047851358322818e-31
296 318 3.9561759430800627e-15
297 318 -1.9198782915970043e-32
298 318 -1.5839210796059608e-31
299 318 -1.5350412332947997e-17
300 318 -2.9542478925434322e-31
301 318 -7.636594307159513e-18
302 318 7.9302479036802473e-17
303 318 2.8397789725479901
304 318 9.0747781701804694e-31
305 318 -2.2795886306399642e-16
306 318 2.7128065968861916e-30
307 318 -1.1340603224087788e-16
308 318 1.177668883889462e-15
309 318 42.171687111336482
310 318 -3.2912255669000711e-33
311 318 -4.4518782894969929e-16
312 318 -3.8724264188609001e-32
313 318 1.4507495452136736e-32
314 318 4.3053369216429082e-16
315 318 4.031330501461989e-30
316 318 -2.2147410547903317e-16
317 318 2.299905546963442e-15
318 318 82.358376314586309
319 318 -2.6429888921251506e-32
320 318 1.9531005847819994e-31
321 318 6.9496856314800477e-15
322 318 -1.8152512992789235e-32
323 318 -4.5964181800337281e-16
324 318 6.2345805442709052e-30
289 319 4.7641750032476646e-63
290 319 1.3302165915563028e-47
291 319 3.7675527908732223e-47
292 319 3.647510248604671e-31
293 319 6.0109166366760974e-47
294 319 3.7337042701160098e-31
295 319 3.6352478836799449e-31
296 319 -2.9624930278168098e-48
297 319 1.8570646326441014e-32
298 319 7.4383909905277219e-32
299 319 7.2013874461968999e-16
300 319 1.1867530632451123e-31
301 319 7.3715628541169833e-16
302 319 7.1771774961732127e-16
303 319 -5.8489376714231333e-33
304 319 1.4897074543169026e-31
305 319 2.0396383223077657e-15
306 319 3.3612231601136376e-31
307 319 2.0878368515636049e-15
308 319 2.0327813739463012e-15
309 319 -1.656585971599727e-32
310 319 13.962890746673608
311 319 3.2541271761504093e-15
312 319 20.213137641868855
313 319 19.680124755261375
314 319 -1.6038034884984994e-16
315 319 3.7919596560201347e-31
316 319 3.3310251938952643e-15
317 319 3.2431873042307378e-15
318 319 -2.6429888921251506e-32
319 319 14.630599808080417
320 319 20.145184201537024
321 319 -1.6417028398273861e-16
322 319 13.869166400049364
323 319 -1.5984117493934326e-16
324 319 9.2107919355192088e-34
289 320 -7.403662567205204e-63
290 320 -1.7060517177501142e-47
291 320 -2.6942505452258547e-47
292 320 -2.66048888270423e-31
293 320 -4.9516795967282681e-47
294 320 -3.3063253609732046e-32
295 320 2.2209897660302897e-31
296 320 2.4055411024689649e-47
297 320 -1.8775765160511029e-32
298 320 -3.2998789327762378e-32
299 320 -3.2975667225578953e-16
300 320 -6.5543143175535477e-32
301 320 1.3485387945525299e-16
302 320 6.3335082653575705e-16
303 320 4.5905373344529175e-32
304 320 1.8440971501599779e-32
305 320 2.2336105943339528e-16
306 320 5.0847312272424226e-33
307 320 1.5666193357042182e-15
308 320 2.9472654420409834e-15
309 320 1.2061735552274253e-31
310 320 1.3297007114936379
311 320 2.7612516698021826e-18
312 320 14.878408804172402
313 320 28.252576499614221
314 320 1.1700322895814111e-15
315 320 -3.5467704370285922e-32
316 320 2.1374977288864784e-15
317 320 4.3497848329234501e-15
318 320 1.9531005847819994e-31
319 320 20.145184201537024
320 320 41.830153768609044
321 320 1.0924735039146265e-15
322 320 38.50007849327838
323 320 9.5185438436363249e-16
324 320 -1.3526922888275031e-32
289 321 6.7456312461942119e-79
290 321 -2.7821965376711305e-63
291 321 1.4520223661575518e-62
292 321 2.1611904971383416e-47
293 321 3.1217493586668107e-62
294 321 2.4338100985730955e-47
295 321 4.7489386291158992e-47
296 321 7.7898152694178646e-31
297 321 -1.0397668669224883e-47
298 321 2.5779674012695653e-48
299 321 -2.0991560926392052e-31
300 321 2.0008922309425051e-47
301 321 -2.105020069394636e-31
302 321 -1.5797578150569451e-31
303 321 1.5379662856557681e-15
304 321 9.3734365337759246e-47
305 321 6.1813760064055968e-31
306 321 2.5651439527445419e-46
307 321 6.4513346281633593e-31
308 321 7.6116916974357181e-31
309 321 4.3559591788072053e-15
310 321 -3.2238251580801274e-16
311 321 1.422076362913711e-30
312 321 -3.4675177287518534e-16
313 321 9.5047638324080929e-16
314 321 42.171687111304799
315 321 3.4017765910151732e-46
316 321 1.4754468063684863e-30
317 321 1.6488097758922836e-30
318 321 6.9496856314800477e-15
319 321 -1.6417028398273861e-16
320 321 1.0924735039146265e-15
321 321 43.168242860827178
322 321 1.6598762373642443e-15
323 321 42.029912426217074
324 321 -4.8439180777154203e-16
289 322 5.7527504102672067e-63
290 322 1.0450135005974884e-47
291 322 -3.6238571292228103e-48
292 322 -2.699006914932611e-32
293 322 4.3685669102240827e-48
294 322 -3.9946427299058456e-31
295 322 -7.8410496091562534e-31
296 322 -3.3805572434105402e-47
297 322 9.4915747994383466e-33
298 322 -4.6548151433103062e-33
299 322 -3.4668525307513843e-17
300 322 5.6113888277478769e-33
301 322 -5.1310862454635392e-16
302 322 -1.0071764740895166e-15
303 322 -4.3422984097691276e-32
304 322 1.1413966847563103e-33
305 322 1.2022216222416661e-17
306 322 -1.9458955694494737e-33
307 322 1.7793381100482257e-16
308 322 3.4926473619029537e-16
309 322 1.5058053355729584e-32
310 322 0.063314395787559374
311 322 -1.4492805346349913e-17
312 322 1.3252304635015342
313 322 2.6012833964066635
314 322 1.1215064138374182e-16
315 322 1.6587176122784671e-33
316 322 -2.1449955979154189e-16
317 322 -4.2103932771662422e-16
318 322 -1.8152512992789235e-32
319 322 13.869166400049364
320 322 38.50007849327838
321 322 1.6598762373642443e-15
322 322 53.4370992913842
323 322 3.2581566869033706e-15
324 322 9.932785590331788e-32
289 323 -7.4125307760189703e-79
290 323 3.4188304184527476e-63
291 323 -1.2791331059283771e-62
292 323 6.3659368678105476e-48
293 323 -2.9909064846899727e-62
294 323 2.8037773137181909e-47
295 323 2.6612575012215306e-47
296 323 -8.559946922186085e-31
297 323 7.433470152019132e-48
298 323 -1.8552996566922821e-47
299 323 -7.6321486755685705e-33
300 323 -3.5859110513497934e-47
301 323 -1.9796761375818606e-31
302 323 -4.2509741986838147e-31
303 323 -1.0995182519204218e-15
304 323 8.2047745322888965e-48
305 323 4.1148988235131929e-32
306 323 6.2031589075874992e-48
307 323 6.3850113946561505e-31
308 323 1.2659686328512637e-30
309 323 3.8128665836893782e-16
310 323 -2.1708761309291264e-17
311 323 1.0077478066795451e-31
312 323 -2.3482909495493339e-16
313 323 -3.6665171232817923e-16
314 323 2.8397789725502118
315 323 -2.2498841813115745e-47
316 323 1.4559718098724255e-30
317 323 2.8426524631245923e-30
318 323 -4.5964181800337281e-16
319 323 -1.5984117493934326e-16
320 323 9.5185438436363249e-16
321 323 42.029912426217074
322 323 3.2581566869033706e-15
323 323 82.500150999542171
324 323 5.0301835656488777e-15
289 324 4.7755950273250477e-95
290 324 -5.2727382223249979e-79
291 324 1.6782710124096821e-78
292 324 -5.9620766595327218e-64
293 324 3.8175758959806891e-78
294 324 -2.9660415426959612e-64
295 324 3.080096150209418e-63
296 324 1.1029658072519441e-46
297 324 2.91081720728941e-63
298 324 -1.3102549663538906e-62
299 324 4.6546955141166538e-48
300 324 -2.9804469839228599e-62
301 324 2.3156395081563038e-48
302 324 -2.4046838965924012e-47
303 324 -8.611043246200148e-31
304 324 2.9489451837714522e-62
305 324 -1.4815528902724011e-47
306 324 9.4865278081944796e-62
307 324 -7.3704980180406134e-48
308 324 7.653919287272818e-47
309 324 2.7408271864351083e-30
310 324 3.721667969201256e-33
311 324 -3.3700996803868836e-47
312 324 2.618377715968385e-33
313 324 -2.7190634408369958e-32
314 324 -9.7368194261991447e-16
315 324 1.5258711886355263e-61
316 324 -1.6765728161296911e-47
317 324 1.7410428688106102e-46
318 324 6.2345805442709052e-30
319 324 9.2107919355192088e-34
320 324 -1.3526922888275031e-32
321 324 -4.8439180777154203e-16
322 324 9.932785590331788e-32
323 324 5.0301835656488777e-15
324 324 127.36984239824667
325 325 111.3405691584144
326 325 2.8982940908832975e-15
327 325 -2.7706186873296848e-15
328 325 -7.6860098925656025e-31
329 325 -5.689905150139646e-15
330 325 8.9501606091751001e-31
331 325 -3.1274773720183617e-31
332 325 4.4551008009515369e-46
333 325 3.7722587107368216e-32
334 325 -5.099772182077398e-32
335 325 -1.4147345363881748e-47
336 325 -1.0473191470208341e-31
337 325 1.6474219389528277e-47
338 325 -5.7566283569926316e-48
339 325 8.200334184182111e-63
340 325 3.447228610681699e-32
341 325 1.3524127715187081e-47
342 325 1.0011827334781496e-31
343 325 -1.5748498485150438e-47
344 325 5.5030378566706971e-48
345 325 -7.8390937636418848e-63
346 325 2.6528851305356558e-63
347 325 2.7773942437367474e-47
348 325 -4.3688117640822571e-63
349 325 1.5266049997771132e-63
350 325 -2.1746533541997782e-78
351 325 1.4538735010332816e-31
352 325 -3.234204080388533e-47
353 325 1.1301361528122165e-47
354 325 -1.6098823047051078e-62
355 325 3.5973129801759783e-63
356 325 -1.7776922129635757e-63
357 325 2.5323278347840394e-78
358 325 4.3924307134887381e-64
359 325 -8.8487775221603216e-79
360 325 8.913158652250931e-94
325 326 2.8982940908832975e-15
326 326 73.839342538979551
327 326 36.803568104706613
328 326 -1.2788446177503705e-14
329 326 0.69765851406685486
330 326 1.0735076263568043e-15
331 326 -1.8009084827054385e-15
332 326 1.3628020542671706e-30
333 326 1.9221037917451906e-15
334 326 -6.2183098508752649e-16
335 326 -5.9582154957612993e-31
336 326 -2.6553955327229977e-15
337 326 4.3947051356201734e-31
338 326 -1.798092712656926e-31
339 326 2.3400308841706791e-46
340 326 -9.1582658794519558e-16
341 326 4.5374564470014748e-32
342 326 -1.3421989033263237e-15
343 326 1.9030629559226734e-31
344 326 -4.141133722140705e-32
345 326 8.0151202840083869e-47
346 326 8.8280601199253669e-47
347 326 4.5871412513723379e-31
348 326 -7.7930998041459866e-47
349 326 3.4191287382664774e-47
350 326 -4.2835392055899153e-62
351 326 -3.565286941021017e-17
352 326 -3.4826393240571773e-32
353 326 6.3691408470950363e-32
354 326 -4.7271888650813235e-47
355 326 8.6294382575714655e-48
356 326 -1.2368774445853426e-47
357 326 1.0783661123349256e-62
358 326 5.0586237984594621e-48
359 326 -7.802243538709852e-63
360 326 5.4530173228414493e-78
325 327 -2.7706186873296848e-15
326 327 36.803568104706613
327 327 37.732436753128603
328 327 -5.7122930003522546e-15
329 327 36.804564299993309
330 327 -7.1478441031805797e-15
331 327 2.5693244014788891e-15
332 327 -4.1066345518102633e-30
333 327 9.5802962719262289e-16
334 327 4.6939386280840657e-17
335 327 -2.8479201718437878e-31
336 327 -6.5247548067266093e-16
337 327 7.762784981434273e-32
338 327 -2.5807137508238233e-32
339 327 2.8541500524127014e-47
340 327 -9.3894072192257383e-16
341 327 -8.3669868259836923e-32
342 327 -2.0110931108289101e-15
343 327 3.4024711620889719e-31
344 327 -1.20153888998045e-31
345 327 1.7901827115330516e-46
346 327 3.9432832831910282e-47
347 327 2.6764882622163778e-32
348 327 2.421234978149796e-48
349 327 -1.1957281358000888e-48
350 327 3.8834105076709238e-63
351 327 -1.8808461421021247e-15
352 327 4.6749357492539768e-31
353 327 -1.6594605222660096e-31
354 327 2.5252973073306226e-46
355 327 -5.7458259120594027e-47
356 327 2.8801458137439495e-47
357 327 -4.3566423883220744e-62
358 327 -7.2170494437110089e-48
359 327 1.5426208048759929e-62
360 327 -1.6431989722559118e-77
325 328 -7.6860098925656025e-31
326 328 -1.2788446177503705e-14
327 328 -5.7122930003522546e-15
328 328 73.838346343808837
329 328 3.9064909645910765e-15
330 328 36.804564299984605
331 328 0.69765851407455959
332 328 -2.8149001706946398e-15
333 328 -3.3289461446294526e-31
334 328 1.198785820538569e-31
335 328 1.3591142887027128e-15
336 328 5.3402484517325787e-31
337 328 6.7744758255218525e-16
338 328 1.2841534271523974e-17
339 328 -5.1812794201821728e-32
340 328 1.4214570697581893e-31
341 328 -1.2992427022300249e-15
342 328 1.3768001541172572e-31
343 328 -6.4760471955189895e-16
344 328 -1.2275840101452817e-17
345 328 4.9530341420454131e-32
346 328 -5.0971740555694963e-31
347 328 -2.6682010687746084e-15
348 328 2.4005232494549679e-31
349 328 -1.5006411381895707e-31
350 328 2.2265596942973056e-46
351 328 -1.9963579516981999e-31
352 328 -1.3299590614486545e-15
353 328 -2.521038572899645e-17
354 328 1.0171841618813203e-31
355 328 2.9585510845544166e-31
356 328 -6.9136123806934201e-32
357 328 8.8133376317791219e-47
358 328 -1.9596731296382465e-33
359 328 7.5649214396643227e-48
360 328 -1.1263337433932275e-62
325 329 -5.689905150139646e-15
326 329 0.69765851406685486
327 329 36.804564299993309
328 329 3.9064909645910765e-15
329 329 73.838346343840968
330 329 -1.4787684041066303e-14
331 329 6.4434315054505228e-15
332 329 -9.2395963571864047e-30
333 329 1.8160671928267325e-17
334 329 6.651717424510283e-16
335 329 6.8499834846429959e-32
336 329 1.3339039029745863e-15
337 329 -2.6822569502124858e-31
338 329 1.1721608886758865e-31
339 329 -1.6809579621442767e-46
340 329 -9.1585137744733686e-16
341 329 -2.4839060664480011e-31
342 329 -2.6292017636795587e-15
343 329 4.6940186925587886e-31
344 329 -1.8647884205483113e-31
345 329 2.6671140584205072e-46
346 329 -2.6967105796983991e-47
347 329 -5.0158846263047201e-31
348 329 9.4387545143451704e-47
349 329 -3.9211227223708637e-47
350 329 5.6153822876897405e-62
351 329 -3.7734061386010804e-15
352 329 9.540686672688638e-31
353 329 -3.7949662895423913e-31
354 329 5.4279506628733953e-46
355 329 -1.1887144839196764e-46
356 329 6.5996651661027744e-47
357 329 -9.4358639886150621e-62
358 329 -1.8099140667186697e-47
359 329 3.658262781821898e-62
360 329 -3.6970650898301886e-77
325 330 8.9501606091751001e-31
326 330 1.0735076263568043e-15
327 330 -7.1478441031805797e-15
328 330 36.804564299984605
329 330 -1.4787684041066303e-14
330 330 37.732436753148654
331 330 36.803568104772602
332 330 -9.6308384681044647e-15
333 330 2.7944287571671635e-32
334 330 -1.5045681234500986e-31
335 330 6.7744758255218516e-16
336 330 -3.1098311928482393e-31
337 330 6.9452657700819531e-16
338 330 6.7742924596673837e-16
339 330 -1.7727117172178262e-31
340 330 1.7786826674140804e-31
341 330 -6.4760471955189895e-16
342 330 5.1849318038719369e-31
343 330 -6.6393135160399707e-16
344 330 -6.4758719072814687e-16
345 330 1.6946203721773283e-31
346 330 -2.5406754019849635e-31
347 330 -1.3299590614486543e-15
348 330 2.50190803233414e-32
349 330 -2.5274970867230305e-31
350 330 1.5114426313501493e-46
351 330 7.5570404333660118e-31
352 330 -1.3634883912775822e-15
353 330 -1.3299230632273909e-15
354 330 3.480171857382691e-31
355 330 3.033138519615542e-31
356 330 1.3425084815013921e-31
357 330 5.2016131005024045e-47
358 330 -1.0337860433826255e-31
359 330 1.2325965007494181e-46
360 330 -3.8536138711870283e-62
325 331 -3.1274773720183617e-31
326 331 -1.8009084827054385e-15
327 331 2.5693244014788891e-15
328 331 0.69765851407455959
329 331 6.4434315054505228e-15
330 331 36.803568104772602
331 331 73.839342539098482
332 331 -1.5368860692080387e-14
333 331 -4.6879286227947391e-32
334 331 7.8980979373219964e-32
335 331 1.2841534271523791e-17
336 331 1.8367894463687292e-31
337 331 6.7742924596673827e-16
338 331 1.3591326252895888e-15
339 331 -2.8288875905631948e-31
340 331 -6.3935536579448996e-32
341 331 -1.2275840101452641e-17
342 331 -2.0622152460178203e-31
343 331 -6.4758719072814677e-16
344 331 -1.2992602310551432e-15
345 331 2.7042696762290121e-31
346 331 -4.8160434973423401e-33
347 331 -2.521038572899609e-17
348 331 -1.7568245085382087e-31
349 331 -3.6181519481153559e-31
350 331 7.6993433386910369e-47
351 331 -3.2928262124510362e-31
352 331 -1.3299230632273909e-15
353 331 -2.6682370669986776e-15
354 331 5.5536469267706832e-31
355 331 2.9584710049642631e-31
356 331 3.4661115582461745e-31
357 331 1.6772478325757618e-47
358 331 -2.0740945973261867e-31
359 331 2.3944433596657546e-46
360 331 -6.1495844773522413e-62
325 332 4.4551008009515369e-46
326 332 1.3628020542671706e-30
327 332 -4.1066345518102633e-30
328 332 -2.8149001706946398e-15
329 332 -9.2395963571864047e-30
330 332 -9.6308384681044647e-15
331 332 -1.5368860692080387e-14
332 332 111.34056915799061
333 332 3.5474942003838378e-47
334 332 -9.9568824061001154e-47
335 332 -5.1812794201821629e-32
336 332 -2.1931552906726088e-46
337 332 -1.7727117172178264e-31
338 332 -2.828887590563197e-31
339 332 2.0494034055286791e-15
340 332 1.0219025620203308e-46
341 332 4.9530341420454032e-32
342 332 3.1097401620558909e-46
343 332 1.6946203721773288e-31
344 332 2.7042696762290142e-31
345 332 -1.9591232618855341e-15
346 332 1.9431686690908946e-47
347 332 1.0171841618813183e-31
348 332 3.1010488294856321e-47
349 332 8.0610492544519216e-47
350 332 -5.4348297152793396e-31
351 332 4.721767205258371e-46
352 332 3.4801718573826919e-31
353 332 5.5536469267706867e-31
354 332 -4.0233705159566899e-15
355 332 -7.7417918502545041e-47
356 332 -6.8229385555921052e-47
357 332 6.3287192594323464e-31
358 332 4.3170036233808047e-47
359 332 -2.2114604577532491e-31
360 332 4.4551008009345807e-46
325 333 3.7722587107368216e-32
326 333 1.9221037917451906e-15
327 333 9.5802962719262289e-16
328 333 -3.3289461446294526e-31
329 333 1.8160671928267325e-17
330 333 2.7944287571671635e-32
331 333 -4.6879286227947391e-32
332 333 3.5474942003838378e-47
333 333 48.969109353518505
334 333 34.517497927788902
335 333 -1.1994086094472249e-14
336 333 0.65432314185121898
337 333 1.0068262175780133e-15
338 333 -1.6890442427502767e-15
339 333 1.2781509920538859e-30
340 333 12.165400585682017
341 333 -5.9781838415554055e-15
342 333 0.32613272932678905
343 333 5.0183000003253421e-16
344 333 -8.4186630979208317e-16
345 333 6.3706576287509667e-31
346 333 1.4688658129965951e-30
347 333 -1.1332408976902033e-16
348 333 -1.7437510209375674e-31
349 333 2.9253038620602892e-31
350 333 -2.2136661306534091e-46
351 333 0.0043715188985771385
352 333 9.5128268851762307e-18
353 333 -1.5958648277295155e-17
354 333 1.2076393034116392e-32
355 333 1.0350392786450727e-32
356 333 -2.4556040364441876e-32
357 333 1.8582300308262014e-47
358 333 2.9129286724725075e-32
359 333 -3.1173530053903962e-47
360 333 1.6680617435043383e-62
325 334 -5.099772182077398e-32
326 334 -6.2183098508752649e-16
327 334 4.6939386280840657e-17
328 334 1.198785820538569e-31
329 334 6.651717424510283e-16
330 334 -1.5045681234500986e-31
331 334 7.8980979373219964e-32
332 334 -9.9568824061001154e-47
333 334 34.517497927788902
334 334 37.188968754310132
335 334 -8.0155186571364436e-15
336 334 24.638828180104603
337 334 -4.3854922046872583e-15
338 334 1.1086468078304733e-15
339 334 -2.2729829661115169e-30
340 334 17.638690468189306
341 334 -6.2220986138818332e-15
342 334 12.402160820492936
343 334 -1.9989129777497232e-15
344 334 2.3897524841318041e-16
345 334 -8.9560312871584635e-31
346 334 9.2787573247738274e-31
347 334 -4.2631219067364582e-15
348 334 7.6591695322019593e-31
349 334 -2.0271451881044577e-31
350 334 4.0176505868047938e-46
351 334 0.32614155705476555
352 334 3.1006870565001716e-16
353 334 -5.7920613747598905e-16
354 334 4.2475359730149366e-31
355 334 -9.7463446922499252e-32
356 334 1.403873047922648e-31
357 334 -1.2708395730777885e-46
358 334 -5.8772226822626106e-32
359 334 9.7872263943020136e-47
360 334 -7.1085397648269442e-62
325 335 -1.4147345363881748e-47
326 335 -5.9582154957612993e-31
327 335 -2.8479201718437878e-31
328 335 1.3591142887027128e-15
329 335 6.8499834846429959e-32
330 335 6.7744758255218516e-16
331 335 1.2841534271523791e-17
332 335 -5.1812794201821629e-32
333 335 -1.1994086094472249e-14
334 335 -8.0155186571364436e-15
335 335 48.968448692296803
336 335 2.5105921294461041e-15
337 335 24.40821751562498
338 335 0.46267633069539382
339 335 -1.8667982343459884e-15
340 335 -2.6703114139032518e-15
341 335 24.407227562528721
342 335 1.2554954401116156e-15
343 335 12.16572987752089
344 335 0.23061066447639617
345 335 -9.3046380958985469e-16
346 335 -1.1993924277611023e-14
347 335 0.46267008854469627
348 335 -3.5154047144026341e-15
349 335 -1.2744507568899649e-15
350 335 1.2270931471033077e-30
351 335 3.461714790120035e-17
352 335 0.23061690662010945
353 335 0.0043715188986254159
354 335 -1.763812674207605e-17
355 335 5.0184358351647689e-16
356 335 -5.8857890534058112e-16
357 335 4.2334541120508158e-31
358 335 -1.5958648277471398e-17
359 335 5.4069671972121958e-32
360 335 -4.872561593916455e-47
325 336 -1.0473191470208341e-31
326 336 -2.6553955327229977e-15
327 336 -6.5247548067266093e-16
328 336 5.3402484517325787e-31
329 336 1.3339039029745863e-15
330 336 -3.1098311928482393e-31
331 336 1.8367894463687292e-31
332 336 -2.1931552906726088e-46
333 336 0.65432314185121898
334 336 24.638828180104603
335 336 2.5105921294461041e-15
336 336 48.972820211216693
337 336 -9.800236641269244e-15
338 336 4.2618995978372567e-15
339 336 -6.1190180275761495e-30
340 336 17.204940188961686
341 336 -2.9360401301026662e-15
342 336 24.637844469159504
343 336 -4.5332043843057152e-15
344 336 1.5345674939667491e-15
345 336 -2.6036581288480457e-30
346 336 -6.3455048108851343e-31
347 336 -8.4565071689962427e-15
348 336 1.7361609598167527e-30
349 336 -8.0327153529736135e-31
350 336 1.109064339421606e-45
351 336 0.65431431412455499
352 336 6.1926461094835259e-16
353 336 -1.1539440690888945e-15
354 336 8.4588185355356251e-31
355 336 -2.0163543550171119e-31
356 336 3.01312798596368e-31
357 336 -2.7008541065028897e-46
358 336 -1.4739081516386904e-31
359 336 2.2831560266814231e-46
360 336 -1.5993640848089841e-61
325 337 1.6474219389528277e-47
326 337 4.3947051356201734e-31
327 337 7.762784981434273e-32
328 337 6.7744758255218525e-16
329 337 -2.6822569502124858e-31
330 337 6.9452657700819531e-16
331 337 6.7742924596673827e-16
332 337 -1.7727117172178264e-31
333 337 1.0068262175780133e-15
334 337 -4.3854922046872583e-15
335 337 24.40821751562498
336 337 -9.800236641269244e-15
337 337 25.023568168641418
338 337 24.407556854375891
339 337 -6.3870230407113005e-15
340 337 -3.3413859127772905e-15
341 337 12.165729877520889
342 337 -4.9328496142068332e-15
343 337 12.472437641313803
344 337 12.165400585703829
345 337 -3.1834687225748525e-15
346 337 -5.9783456584340549e-15
347 337 0.23061690662010942
348 337 -3.9790460875387096e-15
349 337 -4.8225198232906679e-15
350 337 1.5566724379050973e-30
351 337 -1.3104022059503402e-16
352 337 0.23643094296929612
353 337 0.23061066447426282
354 337 -6.0346704761103075e-17
355 337 5.1449546094789705e-16
356 337 -2.5546622042376551e-16
357 337 3.6898557359204806e-31
358 337 -8.4186630979359256e-16
359 337 6.06250151415056e-31
360 337 -1.6670876688788127e-46
325 338 -5.7566283569926316e-48
326 338 -1.798092712656926e-31
327 338 -2.5807137508238233e-32
328 338 1.2841534271523974e-17
329 338 1.1721608886758865e-31
330 338 6.7742924596673837e-16
331 338 1.3591326252895888e-15
332 338 -2.828887590563197e-31
333 338 -1.6890442427502767e-15
334 338 1.1086468078304733e-15
335 338 0.46267633069539382
336 338 4.2618995978372567e-15
337 338 24.407556854375891
338 338 48.969109353597389
339 338 -1.0192390587267289e-14
340 338 1.2010759713705233e-15
341 338 0.23061066447639286
342 338 2.1459723585111576e-15
343 338 12.165400585703827
344 338 24.407556854371446
345 338 -5.0801690296107366e-15
346 338 -1.1332408977027023e-16
347 338 0.0043715188986253534
348 338 -4.2204877491524144e-15
349 338 -8.4923840799658315e-15
350 338 1.7737884736978513e-30
351 338 5.7098103029270326e-17
352 338 0.23061066447426279
353 338 0.46267633069102942
354 338 -9.6301075111068655e-17
355 338 5.0183000003343381e-16
356 338 1.1664426941941837e-16
357 338 3.0229223104290992e-31
358 338 -1.6890442427529973e-15
359 338 1.1523770738511574e-30
360 338 -2.6603330778868591e-46
325 339 8.200334184182111e-63
326 339 2.3400308841706791e-46
327 339 2.8541500524127014e-47
328 339 -5.1812794201821728e-32
329 339 -1.6809579621442767e-46
330 339 -1.7727117172178262e-31
331 339 -2.8288875905631948e-31
332 339 2.0494034055286791e-15
333 339 1.2781509920538859e-30
334 339 -2.2729829661115169e-30
335 339 -1.8667982343459884e-15
336 339 -6.1190180275761495e-30
337 339 -6.3870230407113005e-15
338 339 -1.0192390587267289e-14
339 339 73.839342538698503
340 339 -1.9197189512899419e-30
341 339 -9.3046380958985272e-16
342 339 -3.0798758452150972e-30
343 339 -3.1834687225748533e-15
344 339 -5.0801690296107398e-15
345 339 36.803568104566537
346 339 4.5723802290480008e-31
347 339 -1.7638126742076013e-17
348 339 1.0790464203847837e-30
349 339 1.8107795468563906e-30
350 339 -1.2788446177455029e-14
351 339 -8.1876155305928168e-32
352 339 -6.0346704761103088e-17
353 339 -9.6301075111068717e-17
354 339 0.69765851406419943
355 339 -1.3131997568855621e-31
356 339 7.5953404748268289e-33
357 339 1.0735076263527184e-15
358 339 3.515562947521842e-31
359 339 -1.8009084826985841e-15
360 339 1.927293147967212e-30
325 340 3.447228610681699e-32
326 340 -9.1582658794519558e-16
327 340 -9.3894072192257383e-16
328 340 1.4214570697581893e-31
329 340 -9.1585137744733686e-16
330 340 1.7786826674140804e-31
331 340 -6.3935536579448996e-32
332 340 1.0219025620203308e-46
333 340 12.165400585682017
334 340 17.638690468189306
335 340 -2.6703114139032518e-15
336 340 17.204940188961686
337 340 -3.3413859127772905e-15
338 340 1.2010759713705233e-15
339 340 -1.9197189512899419e-30
340 340 12.787223867625764
341 340 -2.7377065128620634e-15
342 340 17.639167910492123
343 340 -3.4257170199416319e-15
344 340 1.2313892419647267e-15
345 340 -1.9681693774710156e-30
346 340 2.9306740183571662e-31
347 340 -2.6703840000860283e-15
348 340 5.1861742942155028e-31
349 340 -1.864193450794657e-31
350 340 2.9796008755785157e-46
351 340 12.166059178278754
352 340 -3.3414757483668359e-15
353 340 1.2011083416618757e-15
354 340 -1.9197704320626301e-30
355 340 4.588774398228508e-31
356 340 -2.3326821932328661e-31
357 340 3.7284016325882165e-46
358 340 5.9290408967657491e-32
359 340 -1.340190574226437e-46
360 340 1.5146722771174951e-61
325 341 1.3524127715187081e-47
326 341 4.5374564470014748e-32
327 341 -8.3669868259836923e-32
328 341 -1.2992427022300249e-15
329 341 -2.4839060664480011e-31
330 341 -6.4760471955189895e-16
331 341 -1.2275840101452641e-17
332 341 4.9530341420454032e-32
333 341 -5.9781838415554055e-15
334 341 -6.2220986138818332e-15
335 341 24.407227562528721
336 341 -2.9360401301026662e-15
337 341 12.165729877520889
338 341 0.23061066447639286
339 341 -9.3046380958985272e-16
340 341 -2.7377065128620634e-15
341 341 25.023230565977482
342 341 -5.6436758079814203e-16
343 341 12.472775243994175
344 341 0.23643094297178158
345 341 -9.5394736579913181e-16
346 341 -5.357399073100378e-15
347 341 24.407888214914102
348 341 -6.6285222817878999e-15
349 341 1.6681200444939153e-15
350 341 -2.5790021729832396e-30
351 341 1.8262072634721916e-15
352 341 12.166059178275878
353 341 0.23061690662271084
354 341 -9.3048899529084182e-16
355 341 -3.3414757483660458e-15
356 341 8.0452355797862041e-16
357 341 -1.1767716729313355e-30
358 341 2.2767922316812618e-17
359 341 -9.0689497385990437e-32
360 341 1.4682858552162247e-46
325 342 1.0011827334781496e-31
326 342 -1.3421989033263237e-15
327 342 -2.0110931108289101e-15
328 342 1.3768001541172572e-31
329 342 -2.6292017636795587e-15
330 342 5.1849318038719369e-31
331 342 -2.0622152460178203e-31
332 342 3.1097401620558909e-46
333 342 0.32613272932678905
334 342 12.402160820492936
335 342 1.2554954401116156e-15
336 342 24.637844469159504
337 342 -4.9328496142068332e-15
338 342 2.1459723585111576e-15
339 342 -3.0798758452150972e-30
340 342 17.639167910492123
341 342 -5.6436758079814203e-16
342 342 37.189289744267121
343 342 -7.3742091216637019e-15
344 342 3.0329397401447437e-15
345 342 -4.4887086922900638e-30
346 342 -2.8343852108228656e-31
347 342 -2.496929636388367e-15
348 342 5.078885014046634e-31
349 342 -2.4043101302222712e-31
350 342 3.299493673620416e-46
351 342 34.517966542432973
352 342 -9.6284693418176351e-15
353 342 3.8338438307690432e-15
354 342 -5.7776462563668952e-30
355 342 1.3425695572693769e-30
356 342 -7.5490005102921597e-31
357 342 1.1385859576714566e-45
358 342 2.1027987906719949e-31
359 342 -4.5087194373747713e-46
360 342 4.8194848188226679e-61
325 343 -1.5748498485150438e-47
326 343 1.9030629559226734e-31
327 343 3.4024711620889719e-31
328 343 -6.4760471955189895e-16
329 343 4.6940186925587886e-31
330 343 -6.6393135160399707e-16
331 343 -6.4758719072814677e-16
332 343 1.6946203721773288e-31
333 343 5.0183000003253421e-16
334 343 -1.9989129777497232e-15
335 343 12.16572987752089
336 343 -4.5332043843057152e-15
337 343 12.472437641313803
338 343 12.165400585703827
339 343 -3.1834687225748533e-15
340 343 -3.4257170199416319e-15
341 343 12.472775243994175
342 343 -7.3742091216637019e-15
343 343 12.787223867632557
344 343 12.472437641329538
345 343 -3.2638148530922945e-15
346 343 -2.6703840000853964e-15
347 343 12.166059178275876
348 343 -4.2986310009843935e-15
349 343 -1.0388836720207127e-15
350 343 -8.6337554206189811e-31
351 343 -6.9129497132648378e-15
352 343 12.472775244003751
353 343 12.165729877545578
354 343 -3.1835548923866416e-15
355 343 -3.4257170199434514e-15
356 343 -1.4919925238058395e-15
357 343 -7.7342515121954932e-31
358 343 1.2010758310640118e-15
359 343 -1.579689721570381e-30
360 343 5.023561419267139e-46
325 344 5.5030378566706971e-48
326 344 -4.141133722140705e-32
327 344 -1.20153888998045e-31
328 344 -1.2275840101452817e-17
329 344 -1.8647884205483113e-31
330 344 -6.4758719072814687e-16
331 344 -1.2992602310551432e-15
332 344 2.7042696762290142e-31
333 344 -8.4186630979208317e-16
334 344 2.3897524841318041e-16
335 344 0.23061066447639617
336 344 1.5345674939667491e-15
337 344 12.165400585703829
338 344 24.407556854371446
339 344 -5.0801690296107398e-15
340 344 1.2313892419647267e-15
341 344 0.23643094297178158
342 344 3.0329397401447437e-15
343 344 12.472437641329538
344 344 25.023568168668433
345 344 -5.208385123272757e-15
346 344 -5.0619160121637662e-17
347 344 0.23061690662270753
348 344 -1.9329838206993715e-15
349 344 -3.7722049713351281e-15
350 344 7.6276246329787264e-31
351 344 3.0121768200008572e-15
352 344 12.165729877545576
353 344 24.408217515670067
354 344 -5.0803065391160243e-15
355 344 -3.3413853040908616e-15
356 344 -3.8910507358561135e-15
357 344 -3.7079551910770421e-31
358 344 2.4097296613114583e-15
359 344 -3.0781123784670188e-30
360 344 8.0165829679855507e-46
325 345 -7.8390937636418848e-63
326 345 8.0151202840083869e-47
327 345 1.7901827115330516e-46
328 345 4.9530341420454131e-32
329 345 2.6671140584205072e-46
330 345 1.6946203721773283e-31
331 345 2.7042696762290121e-31
332 345 -1.9591232618855341e-15
333 345 6.3706576287509667e-31
334 345 -8.9560312871584635e-31
335 345 -9.3046380958985469e-16
336 345 -2.6036581288480457e-30
337 345 -3.1834687225748525e-15
338 345 -5.0801690296107366e-15
339 345 36.803568104566537
340 345 -1.9681693774710156e-30
341 345 -9.5394736579913181e-16
342 345 -4.4887086922900638e-30
343 345 -3.2638148530922945e-15
344 345 -5.208385123272757e-15
345 345 37.732436752984988
346 345 2.0423728742969381e-31
347 345 -9.3048899529084004e-16
348 345 6.7481816667195166e-31
349 345 7.235372000350723e-31
350 345 -5.7122930003305128e-15
351 345 -4.319328384637908e-30
352 345 -3.1835548923866424e-15
353 345 -5.0803065391160275e-15
354 345 36.804564299853226
355 345 8.7438103913691305e-31
356 345 7.6440665457134214e-31
357 345 -7.1478441031533735e-15
358 345 -5.0155917153733097e-31
359 345 2.56932440146911e-15
360 345 -5.8076582788579267e-30
325 346 2.6528851305356558e-63
326 346 8.8280601199253669e-47
327 346 3.9432832831910282e-47
328 346 -5.0971740555694963e-31
329 346 -2.6967105796983991e-47
330 346 -2.5406754019849635e-31
331 346 -4.8160434973423401e-33
332 346 1.9431686690908946e-47
333 346 1.4688658129965951e-30
334 346 9.2787573247738274e-31
335 346 -1.1993924277611023e-14
336 346 -6.3455048108851343e-31
337 346 -5.9783456584340549e-15
338 346 -1.1332408977027023e-16
339 346 4.5723802290480008e-31
340 346 2.9306740183571662e-31
341 346 -5.357399073100378e-15
342 346 -2.8343852108228656e-31
343 346 -2.6703840000853964e-15
344 346 -5.0619160121637662e-17
345 346 2.0423728742969381e-31
346 346 48.967788039988342
347 346 3.663788092012201e-15
348 346 34.517966542409802
349 346 0.65431431413149632
350 346 -2.6400157632704771e-15
351 346 1.3706299304843713e-31
352 346 1.8262072634717601e-15
353 346 3.4617147901582652e-17
354 346 -1.3967265298322251e-31
355 346 12.166059178273002
356 346 0.32614155705829023
357 346 -1.3159101567789126e-15
358 346 0.0043715188986736941
359 346 -2.4944078053775e-17
360 346 7.1166000236393262e-32
325 347 2.7773942437367474e-47
326 347 4.5871412513723379e-31
327 347 2.6764882622163778e-32
328 347 -2.6682010687746084e-15
329 347 -5.0158846263047201e-31
330 347 -1.3299590614486543e-15
331 347 -2.521038572899609e-17
332 347 1.0171841618813183e-31
333 347 -1.1332408976902033e-16
334 347 -4.2631219067364582e-15
335 347 0.46267008854469627
336 347 -8.4565071689962427e-15
337 347 0.23061690662010942
338 347 0.0043715188986253534
339 347 -1.7638126742076013e-17
340 347 -2.6703840000860283e-15
341 347 24.407888214914102
342 347 -2.496929636388367e-15
343 347 12.166059178275876
344 347 0.23061690662270753
345 347 -9.3048899529084004e-16
346 347 3.663788092012201e-15
347 347 48.967788040009644
348 347 -8.5155073384037738e-15
349 347 4.2976044358157487e-15
350 347 -6.2262381407008081e-30
351 347 3.6637880920137945e-15
352 347 24.407888214918952
353 347 0.46267008855000719
354 347 -1.8667730486487456e-15
355 347 -6.9129498187761909e-15
356 347 2.0372712048876826e-15
357 347 -2.6803658914359101e-30
358 347 5.7098102476027826e-17
359 347 -2.207973220883989e-31
360 347 3.3035246910840666e-46
325 348 -4.3688117640822571e-63
326 348 -7.7930998041459866e-47
327 348 2.421234978149796e-48
328 348 2.4005232494549679e-31
329 348 9.4387545143451704e-47
330 348 2.50190803233414e-32
331 348 -1.7568245085382087e-31
332 348 3.1010488294856321e-47
333 348 -1.7437510209375674e-31
334 348 7.6591695322019593e-31
335 348 -3.5154047144026341e-15
336 348 1.7361609598167527e-30
337 348 -3.9790460875387096e-15
338 348 -4.2204877491524144e-15
339 348 1.0790464203847837e-30
340 348 5.1861742942155028e-31
341 348 -6.6285222817878999e-15
342 348 5.078885014046634e-31
343 348 -4.2986310009843935e-15
344 348 -1.9329838206993715e-15
345 348 6.7481816667195166e-31
346 348 34.517966542409802
347 348 -8.5155073384037738e-15
348 348 37.189289744263775
349 348 24.637844469195137
350 348 -7.3174258662001661e-15
351 348 -7.3375072106332406e-31
352 348 -3.5643147829155665e-15
353 348 1.198629158793828e-15
354 348 3.5953384011275023e-32
355 348 17.639167910497324
356 348 12.402160820514609
357 348 -4.1375022581855279e-15
358 348 0.32613272933097548
359 348 -9.9081051435329235e-16
360 348 3.4434093704190453e-31
325 349 1.5266049997771132e-63
326 349 3.4191287382664774e-47
327 349 -1.1957281358000888e-48
328 349 -1.5006411381895707e-31
329 349 -3.9211227223708637e-47
330 349 -2.5274970867230305e-31
331 349 -3.6181519481153559e-31
332 349 8.0610492544519216e-47
333 349 2.9253038620602892e-31
334 349 -2.0271451881044577e-31
335 349 -1.2744507568899649e-15
336 349 -8.0327153529736135e-31
337 349 -4.8225198232906679e-15
338 349 -8.4923840799658315e-15
339 349 1.8107795468563906e-30
340 349 -1.864193450794657e-31
341 349 1.6681200444939153e-15
342 349 -2.4043101302222712e-31
343 349 -1.0388836720207127e-15
344 349 -3.7722049713351281e-15
345 349 7.235372000350723e-31
346 349 0.65431431413149632
347 349 4.2976044358157487e-15
348 349 24.637844469195137
349 349 48.972820211274353
350 349 -1.0209891204520281e-14
351 349 3.1971690889127494e-31
352 349 3.4212192429408144e-15
353 349 2.6310988130076331e-15
354 349 -7.0213339703373251e-31
355 349 17.204940188988459
356 349 24.638828180141108
357 349 -6.0107703487063458e-15
358 349 0.65432314185949902
359 349 -1.9630993094611276e-15
360 349 5.4949814696861468e-31
325 350 -2.1746533541997782e-78
326 350 -4.2835392055899153e-62
327 350 3.8834105076709238e-63
328 350 2.2265596942973056e-46
329 350 5.6153822876897405e-62
330 350 1.5114426313501493e-46
331 350 7.6993433386910369e-47
332 350 -5.4348297152793396e-31
333 350 -2.2136661306534091e-46
334 350 4.0176505868047938e-46
335 350 1.2270931471033077e-30
336 350 1.109064339421606e-45
337 350 1.5566724379050973e-30
338 350 1.7737884736978513e-30
339 350 -1.2788446177455029e-14
340 350 2.9796008755785157e-46
341 350 -2.5790021729832396e-30
342 350 3.299493673620416e-46
343 350 -8.6337554206189811e-31
344 350 7.6276246329787264e-31
345 350 -5.7122930003305128e-15
346 350 -2.6400157632704771e-15
347 350 -6.2262381407008081e-30
348 350 -7.3174258662001661e-15
349 350 -1.0209891204520281e-14
350 350 73.838346343527803
351 350 -4.5845991193252157e-46
352 350 -3.3921336222638907e-30
353 350 -5.9712644493852915e-31
354 350 3.9064909645762081e-15
355 350 -4.5022265053713449e-15
356 350 -5.1406532438765956e-15
357 350 36.804564299844522
358 350 -1.3619028649468754e-16
359 350 0.69765851407190416
360 350 -3.9808699981075491e-15
325 351 1.4538735010332816e-31
326 351 -3.565286941021017e-17
327 351 -1.8808461421021247e-15
328 351 -1.9963579516981999e-31
329 351 -3.7734061386010804e-15
330 351 7.5570404333660118e-31
331 351 -3.2928262124510362e-31
332 351 4.721767205258371e-46
333 351 0.0043715188985771385
334 351 0.32614155705476555
335 351 3.461714790120035e-17
336 351 0.65431431412455499
337 351 -1.3104022059503402e-16
338 351 5.7098103029270326e-17
339 351 -8.1876155305928168e-32
340 351 12.166059178278754
341 351 1.8262072634721916e-15
342 351 34.517966542432973
343 351 -6.9129497132648378e-15
344 351 3.0121768200008572e-15
345 351 -4.319328384637908e-30
346 351 1.3706299304843713e-31
347 351 3.6637880920137945e-15
348 351 -7.3375072106332406e-31
349 351 3.1971690889127494e-31
350 351 -4.5845991193252157e-46
351 351 48.967788040030953
352 351 -1.3868953285494797e-14
353 351 6.0431133299312049e-15
354 351 -8.6655577640679736e-30
355 351 1.9640244427818697e-30
356 351 -1.2102607245895212e-30
357 351 1.735460456544615e-45
358 351 3.7289022213218709e-31
359 351 -7.5619147333072118e-46
360 351 7.6674783944237918e-61
325 352 -3.234204080388533e-47
326 352 -3.4826393240571773e-32
327 352 4.6749357492539768e-31
328 352 -1.3299590614486545e-15
329 352 9.540686672688638e-31
330 352 -1.3634883912775822e-15
331 352 -1.3299230632273909e-15
332 352 3.4801718573826919e-31
333 352 9.5128268851762307e-18
334 352 3.1006870565001716e-16
335 352 0.23061690662010945
336 352 6.1926461094835259e-16
337 352 0.23643094296929612
338 352 0.23061066447426279
339 352 -6.0346704761103088e-17
340 352 -3.3414757483668359e-15
341 352 12.166059178275878
342 352 -9.6284693418176351e-15
343 352 12.472775244003751
344 352 12.165729877545576
345 352 -3.1835548923866424e-15
346 352 1.8262072634717601e-15
347 352 24.407888214918952
348 352 -3.5643147829155665e-15
349 352 3.4212192429408144e-15
350 352 -3.3921336222638907e-30
351 352 -1.3868953285494797e-14
352 352 25.023230566001665
353 352 24.407227562583099
354 352 -6.3869368709123225e-15
355 352 -7.0872308032691268e-15
356 352 -2.7044334984969579e-15
357 352 -1.8521073711640085e-30
358 352 3.0120952596949099e-15
359 352 -3.6114936796587304e-30
360 352 1.1302607817659871e-45
325 353 1.1301361528122165e-47
326 353 6.3691408470950363e-32
327 353 -1.6594605222660096e-31
328 353 -2.521038572899645e-17
329 353 -3.7949662895423913e-31
330 353 -1.3299230632273909e-15
331 353 -2.6682370669986776e-15
332 353 5.5536469267706867e-31
333 353 -1.5958648277295155e-17
334 353 -5.7920613747598905e-16
335 353 0.0043715188986254159
336 353 -1.1539440690888945e-15
337 353 0.23061066447426282
338 353 0.46267633069102942
339 353 -9.6301075111068717e-17
340 353 1.2011083416618757e-15
341 353 0.23061690662271084
342 353 3.8338438307690432e-15
343 353 12.165729877545578
344 353 24.408217515670067
345 353 -5.0803065391160275e-15
346 353 3.4617147901582652e-17
347 353 0.46267008855000719
348 353 1.198629158793828e-15
349 353 2.6310988130076331e-15
350 353 -5.9712644493852915e-31
351 353 6.0431133299312049e-15
352 353 24.407227562583099
353 353 48.96844869239699
354 353 -1.0192253077782446e-14
355 353 -6.9127627048233072e-15
356 353 -7.6770902419736766e-15
357 353 -1.0129304947886556e-30
358 353 6.043194861020918e-15
359 353 -7.0169743825695012e-30
360 353 1.8036664780758436e-45
325 354 -1.6098823047051078e-62
326 354 -4.7271888650813235e-47
327 354 2.5252973073306226e-46
328 354 1.0171841618813203e-31
329 354 5.4279506628733953e-46
330 354 3.480171857382691e-31
331 354 5.5536469267706832e-31
332 354 -4.0233705159566899e-15
333 354 1.2076393034116392e-32
334 354 4.2475359730149366e-31
335 354 -1.763812674207605e-17
336 354 8.4588185355356251e-31
337 354 -6.0346704761103075e-17
338 354 -9.6301075111068655e-17
339 354 0.69765851406419943
340 354 -1.9197704320626301e-30
341 354 -9.3048899529084182e-16
342 354 -5.7776462563668952e-30
343 354 -3.1835548923866416e-15
344 354 -5.0803065391160243e-15
345 354 36.804564299853226
346 354 -1.3967265298322251e-31
347 354 -1.8667730486487456e-15
348 354 3.5953384011275023e-32
349 354 -7.0213339703373251e-31
350 354 3.9064909645762081e-15
351 354 -8.6655577640679736e-30
352 354 -6.3869368709123225e-15
353 354 -1.0192253077782446e-14
354 354 73.83834634355992
355 354 1.8089469148470096e-30
356 354 1.4838635119852661e-30
357 354 -1.4787684041010019e-14
358 354 -1.2578256626026348e-30
359 354 6.4434315054259987e-15
360 354 -1.3066762479136325e-29
325 355 3.5973129801759783e-63
326 355 8.6294382575714655e-48
327 355 -5.7458259120594027e-47
328 355 2.9585510845544166e-31
329 355 -1.1887144839196764e-46
330 355 3.033138519615542e-31
331 355 2.9584710049642631e-31
332 355 -7.7417918502545041e-47
333 355 1.0350392786450727e-32
334 355 -9.7463446922499252e-32
335 355 5.0184358351647689e-16
336 355 -2.0163543550171119e-31
337 355 5.1449546094789705e-16
338 355 5.0183000003343381e-16
339 355 -1.3131997568855621e-31
340 355 4.588774398228508e-31
341 355 -3.3414757483660458e-15
342 355 1.3425695572693769e-30
343 355 -3.4257170199434514e-15
344 355 -3.3413853040908616e-15
345 355 8.7438103913691305e-31
346 355 12.166059178273002
347 355 -6.9129498187761909e-15
348 355 17.639167910497324
349 355 17.204940188988459
350 355 -4.5022265053713449e-15
351 355 1.9640244427818697e-30
352 355 -7.0872308032691268e-15
353 355 -6.9127627048233072e-15
354 355 1.8089469148470096e-30
355 355 12.787223867639351
356 355 17.638690468230301
357 355 -4.615731230320326e-15
358 355 12.165400585725639
359 355 -4.5021046428639803e-15
360 355 8.3305708153499356e-31
325 356 -1.7776922129635757e-63
326 356 -1.2368774445853426e-47
327 356 2.8801458137439495e-47
328 356 -6.9136123806934201e-32
329 356 6.5996651661027744e-47
330 356 1.3425084815013921e-31
331 356 3.4661115582461745e-31
332 356 -6.8229385555921052e-47
333 356 -2.4556040364441876e-32
334 356 1.403873047922648e-31
335 356 -5.8857890534058112e-16
336 356 3.01312798596368e-31
337 356 -2.5546622042376551e-16
338 356 1.1664426941941837e-16
339 356 7.5953404748268289e-33
340 356 -2.3326821932328661e-31
341 356 8.0452355797862041e-16
342 356 -7.5490005102921597e-31
343 356 -1.4919925238058395e-15
344 356 -3.8910507358561135e-15
345 356 7.6440665457134214e-31
346 356 0.32614155705829023
347 356 2.0372712048876826e-15
348 356 12.402160820514609
349 356 24.638828180141108
350 356 -5.1406532438765956e-15
351 356 -1.2102607245895212e-30
352 356 -2.7044334984969579e-15
353 356 -7.6770902419736766e-15
354 356 1.4838635119852661e-30
355 356 17.638690468230301
356 356 37.188968754407362
357 356 -8.3918538458560839e-15
358 356 34.517497927906383
359 356 -1.1467192070341434e-14
360 356 1.8800410568988326e-30
325 357 2.5323278347840394e-78
326 357 1.0783661123349256e-62
327 357 -4.3566423883220744e-62
328 357 8.8133376317791219e-47
329 357 -9.4358639886150621e-62
330 357 5.2016131005024045e-47
331 357 1.6772478325757618e-47
332 357 6.3287192594323464e-31
333 357 1.8582300308262014e-47
334 357 -1.2708395730777885e-46
335 357 4.2334541120508158e-31
336 357 -2.7008541065028897e-46
337 357 3.6898557359204806e-31
338 357 3.0229223104290992e-31
339 357 1.0735076263527184e-15
340 357 3.7284016325882165e-46
341 357 -1.1767716729313355e-30
342 357 1.1385859576714566e-45
343 357 -7.7342515121954932e-31
344 357 -3.7079551910770421e-31
345 357 -7.1478441031533735e-15
346 357 -1.3159101567789126e-15
347 357 -2.6803658914359101e-30
348 357 -4.1375022581855279e-15
349 357 -6.0107703487063458e-15
350 357 36.804564299844522
351 357 1.735460456544615e-45
352 357 -1.8521073711640085e-30
353 357 -1.0129304947886556e-30
354 357 -1.4787684041010019e-14
355 357 -4.615731230320326e-15
356 357 -8.3918538458560839e-15
357 357 37.73243675300504
358 357 -7.1844439408361552e-15
359 357 36.803568104632518
360 357 -1.3620062378566019e-14
325 358 4.3924307134887381e-64
326 358 5.0586237984594621e-48
327 358 -7.2170494437110089e-48
328 358 -1.9596731296382465e-33
329 358 -1.8099140667186697e-47
330 358 -1.0337860433826255e-31
331 358 -2.0740945973261867e-31
332 358 4.3170036233808047e-47
333 358 2.9129286724725075e-32
334 358 -5.8772226822626106e-32
335 358 -1.5958648277471398e-17
336 358 -1.4739081516386904e-31
337 358 -8.4186630979359256e-16
338 358 -1.6890442427529973e-15
339 358 3.515562947521842e-31
340 358 5.9290408967657491e-32
341 358 2.2767922316812618e-17
342 358 2.1027987906719949e-31
343 358 1.2010758310640118e-15
344 358 2.4097296613114583e-15
345 358 -5.0155917153733097e-31
346 358 0.0043715188986736941
347 358 5.7098102476027826e-17
348 358 0.32613272933097548
349 358 0.65432314185949902
350 358 -1.3619028649468754e-16
351 358 3.7289022213218709e-31
352 358 3.0120952596949099e-15
353 358 6.043194861020918e-15
354 358 -1.2578256626026348e-30
355 358 12.165400585725639
356 358 34.517497927906383
357 358 -7.1844439408361552e-15
358 358 48.969109353676266
359 358 -1.4414217001540494e-14
360 358 2.121435885949434e-30
325 359 -8.8487775221603216e-79
326 359 -7.802243538709852e-63
327 359 1.5426208048759929e-62
328 359 7.5649214396643227e-48
329 359 3.658262781821898e-62
330 359 1.2325965007494181e-46
331 359 2.3944433596657546e-46
332 359 -2.2114604577532491e-31
333 359 -3.1173530053903962e-47
334 359 9.7872263943020136e-47
335 359 5.4069671972121958e-32
336 359 2.2831560266814231e-46
337 359 6.06250151415056e-31
338 359 1.1523770738511574e-30
339 359 -1.8009084826985841e-15
340 359 -1.340190574226437e-46
341 359 -9.0689497385990437e-32
342 359 -4.5087194373747713e-46
343 359 -1.579689721570381e-30
344 359 -3.0781123784670188e-30
345 359 2.56932440146911e-15
346 359 -2.4944078053775e-17
347 359 -2.207973220883989e-31
348 359 -9.9081051435329235e-16
349 359 -1.9630993094611276e-15
350 359 0.69765851407190416
351 359 -7.5619147333072118e-46
352 359 -3.6114936796587304e-30
353 359 -7.0169743825695012e-30
354 359 6.4434315054259987e-15
355 359 -4.5021046428639803e-15
356 359 -1.1467192070341434e-14
357 359 36.803568104632518
358 359 -1.4414217001540494e-14
359 359 73.839342538817448
360 359 -2.1734851228880112e-14
325 360 8.913158652250931e-94
326 360 5.4530173228414493e-78
327 360 -1.6431989722559118e-77
328 360 -1.1263337433932275e-62
329 360 -3.6970650898301886e-77
330 360 -3.8536138711870283e-62
331 360 -6.1495844773522413e-62
332 360 4.4551008009345807e-46
333 360 1.6680617435043383e-62
334 360 -7.1085397648269442e-62
335 360 -4.872561593916455e-47
336 360 -1.5993640848089841e-61
337 360 -1.6670876688788127e-46
338 360 -2.6603330778868591e-46
339 360 1.927293147967212e-30
340 360 1.5146722771174951e-61
341 360 1.4682858552162247e-46
342 360 4.8194848188226679e-61
343 360 5.023561419267139e-46
344 360 8.0165829679855507e-46
345 360 -5.8076582788579267e-30
346 360 7.1166000236393262e-32
347 360 3.3035246910840666e-46
348 360 3.4434093704190453e-31
349 360 5.4949814696861468e-31
350 360 -3.9808699981075491e-15
351 360 7.6674783944237918e-61
352 360 1.1302607817659871e-45
353 360 1.8036664780758436e-45
354 360 -1.3066762479136325e-29
355 360 8.3305708153499356e-31
356 360 1.8800410568988326e-30
357 360 -1.3620062378566019e-14
358 360 2.121435885949434e-30
359 360 -2.1734851228880112e-14
360 360 111.34056915756685
