%%MatrixMarket matrix coordinate real general
24 24 24
1 1 1.0859112359324872
2 2 1.0693889195961579
3 3 1.0634242228261905
4 4 1.0808858487257877
5 5 1.0576545723343322
6 6 1.0534521898134088
7 7 1.0638158693628268
8 8 1.0455828190379588
9 9 1.0578125402892313
10 10 1.0412064290593579
11 11 1.1244621414786662
12 12 1.0801416585116579
13 13 1.1656258217508884
14 14 1.0737466761408543
15 15 1.058019122726594
16 16 1.1339173795369806
17 17 1.0735855874880191
18 18 1.1437813924581035
19 19 1.1063976144435799
20 20 1.0088985042400915
21 21 1.0170298203533827
22 22 1.118091628366978
23 23 1.1215191657529118
24 24 1.0354493768437074
