%%MatrixMarket matrix coordinate real general
24 24 24
1 1 1.3486469048464285
2 2 1.539726648521166
3 3 1.5932417780767498
4 4 1.4047256637123178
5 5 1.4195550943412036
6 6 1.2800581494293977
7 7 1.4450020371057812
8 8 1.4880837069870323
9 9 1.4973560891976443
10 10 1.2634137884274765
11 11 2.0103764059330436
12 12 1.7675010626302967
13 13 2.0898876184504633
14 14 2.1019045556797407
15 15 1.2860839032704481
16 16 1.7536181638687163
17 17 1.3059388464365378
18 18 2.1339904080584944
19 19 1.3602083665036309
20 20 1.2185269046718048
21 21 1.2281790418027969
22 22 1.3581717925073007
23 23 1.3619612034158364
24 24 1.2553502331991424
