%%MatrixMarket matrix coordinate real general
12 24 57
4 1 -0.57875733507867444
5 1 0.81629149667481637
6 2 0.46813310200862207
7 2 0.99930936253772618
8 3 -0.030320025024189075
9 3 0.99994544129536955
7 4 0.43572023333012344
8 4 0.81326472727075216
6 5 0.13585864479159268
8 5 0.13234200174101915
10 5 0.19879117862978191
8 6 3.8217357392781786e-08
10 6 9.4405929915322622e-08
9 7 0.12527380243437253
10 7 0.99975416776922577
11 8 0.18212374398903597
12 8 0.87489925474609243
1 9 -0.066239624975110101
2 9 0.99960734185180633
1 10 4.04571473349713e-05
11 10 7.8291555141072732e-05
1 11 0.9997349257115602
12 11 0.99983481902084637
2 12 0.5014233827793686
3 12 0.99977913806686669
5 13 -0.99994897653732151
6 13 0.99974857118820593
5 14 0.67865910259907503
8 14 0.99981422659044883
10 14 0.92385171569306967
4 15 1.1807165667334362e-06
7 15 1.6750901896628384e-06
10 15 1.4910307387799627e-06
3 16 -0.39386186229366565
4 16 0.99992471643131975
3 17 1.1449521916105938e-08
5 17 1.7817268825832255e-08
10 18 -0.30202306989382399
11 18 0.99966928686507073
1 19 0.03294794829343569
3 19 0.02536788068882596
10 19 0.030898294832503188
1 20 0.0064405229000551777
3 20 0.0046574549400530216
6 20 0.0047960226701416952
2 21 0.0013824306125246996
4 21 0.00097786896797544937
9 21 0.0010675500747520379
4 22 7.2674945835883328e-06
5 22 7.3253661307774635e-06
11 22 8.5600657772334993e-06
3 23 3.1160530170849396e-07
5 23 1.9214809070024787e-07
10 23 2.6830485358382002e-07
2 24 0.00019388552583215026
3 24 0.0002290727576611674
5 24 0.00020383532586056041
