%%MatrixMarket matrix coordinate real general
255 255 639
1 1 33142248039.481094
2 1 1043803574.3486576
3 1 -19780115644.32674
1 2 1043803574.3486576
2 2 32874230.619322382
3 2 -622967862.88906229
1 3 -19780115644.32674
2 3 -622967862.88906229
3 3 11805263619.272163
4 4 27390337453.779678
5 4 1923567.8493564664
6 4 -2135675915.0054104
4 5 1923567.8493564664
5 5 135.08867727379402
6 5 -149984.33930827631
4 6 -2135675915.0054104
5 6 -149984.33930827631
6 6 166522707.27549753
7 7 0.125
8 8 27378566365.170662
9 8 1928995.3131952251
10 8 -2137070180.637156
8 9 1928995.3131952251
9 9 135.91048140224228
10 9 -150570.42978631589
8 10 -2137070180.637156
9 10 -150570.42978631589
10 10 166811893.13192105
11 11 0.125
12 12 27355708454.873283
13 12 1939936.8385259898
14 12 -2139911269.6498389
12 13 1939936.8385259898
13 13 137.57151350451002
14 13 -151752.48912855561
12 14 -2139911269.6498389
13 14 -151752.48912855561
14 14 167395473.38950229
15 15 0.125
16 16 27323460235.644531
17 16 1956591.8971992019
18 16 -2144330913.8075318
16 17 1956591.8971992019
17 17 140.10901951285047
18 17 -153552.46402755726
16 18 -2144330913.8075318
17 18 -153552.46402755726
18 18 168286027.67784455
19 19 0.125
20 20 27284385026.7733
21 20 1979269.3975638063
22 20 -2150530837.1998177
20 21 1979269.3975638063
21 21 143.58098388220577
22 21 -156004.39720152415
20 22 -2150530837.1998177
21 22 -156004.39720152415
22 22 169502973.42255768
23 23 0.125
24 24 27242192812.503922
25 24 2008418.9222528499
26 24 -2158808244.0839691
24 25 2008418.9222528499
25 25 148.07024748571908
26 25 -159157.3606464508
24 26 -2158808244.0839691
25 26 -159157.3606464508
26 26 171074867.73290697
27 27 0.125
28 28 27201345320.968056
29 28 2044617.74665049
30 28 -2169529481.2431993
28 29 2044617.74665049
29 29 153.68628104446128
30 29 -163075.12095241138
28 30 -2169529481.2431993
29 30 -163075.12095241138
30 30 173037752.34804854
31 31 0.125
32 32 27167789065.444176
33 32 2088646.4785285653
34 32 -2183194533.6264958
32 33 2088646.4785285653
33 33 160.57457706783327
34 33 -167843.09495571951
32 34 -2183194533.6264958
33 34 -167843.09495571951
34 34 175440844.02122673
35 35 0.125
36 36 27148694456.424095
37 36 2141500.0694004879
38 36 -2200425093.2268667
36 37 2141500.0694004879
37 37 168.9228552647661
38 37 -173570.58392535115
36 38 -2200425093.2268667
37 38 -173570.58392535115
38 38 178346404.74765459
39 39 0.125
40 40 27152432905.449497
41 40 2204423.8516000751
42 40 -2221973071.7050443
40 41 2204423.8516000751
41 41 178.9709726928416
42 41 -180395.4274786546
40 42 -2221973071.7050443
41 42 -180395.4274786546
42 42 181831432.73859364
43 43 0.125
44 44 27189025936.722733
45 44 2278998.552124924
46 44 -2248770008.5503216
44 45 2278998.552124924
45 45 191.0273531835777
46 45 -188493.25337240996
44 46 -2248770008.5503216
45 46 -188493.25337240996
46 46 185992981.0508759
47 47 0.125
48 48 27270083831.984653
49 48 2367200.4737232337
50 48 -2281938416.6392889
48 49 2367200.4737232337
49 49 205.48715284837306
50 49 -198085.57131861517
48 50 -2281938416.6392889
49 50 -198085.57131861517
50 50 190950801.41563803
51 51 0.125
52 52 27408163983.941757
53 52 2471424.45492665
54 52 -2322756410.5667186
52 53 2471424.45492665
53 53 222.85160336862202
54 53 -209445.67929016333
52 54 -2322756410.5667186
53 54 -209445.67929016333
54 54 196846412.78673622
55 55 0.125
56 56 27617292907.401985
57 56 2594621.2177394852
58 56 -2372720871.618216
56 57 2594621.2177394852
57 57 243.76301204070739
58 57 -222915.27933062823
56 58 -2372720871.618216
57 58 -222915.27933062823
58 58 203850745.60240558
59 59 0.125
60 60 27910701891.432102
61 60 2740193.4929297431
62 60 -2433373871.0360031
60 61 2740193.4929297431
61 61 269.02499963269133
62 61 -238901.91170561162
60 62 -2433373871.0360031
61 62 -238901.91170561162
62 62 212151949.37220418
63 63 0.125
64 64 28298694320.527824
65 64 2911869.2084840424
66 64 -2506125476.072648
64 65 2911869.2084840424
65 65 299.62511776338772
66 65 -257874.60353280284
64 66 -2506125476.072648
65 66 -257874.60353280284
66 66 221941912.12818027
67 67 0.125
68 68 28781859169.483723
69 68 3113019.0055828765
70 68 -2591638430.0845242
68 69 3113019.0055828765
69 69 336.70187776591047
70 69 -280309.37230175367
68 70 -2591638430.0845242
69 70 -280309.37230175367
70 70 233361964.30963326
71 71 0.125
72 72 29343278532.462944
73 72 3345619.9719769047
74 72 -2689052108.0154524
72 73 3345619.9719769047
73 73 381.45680563016276
74 73 -306596.68334998231
72 74 -2689052108.0154524
73 74 -306596.68334998231
74 74 246427906.43409777
75 75 0.125
76 76 29943508619.648552
77 76 3609180.4179430278
78 76 -2795369658.4029274
76 77 3609180.4179430278
77 77 435.02602093502009
78 77 -336934.43445494003
76 78 -2795369658.4029274
77 78 -336934.43445494003
78 78 260961168.60005841
79 79 0.125
80 80 30528985803.78157
81 80 3900989.7828251584
82 80 -2906036826.4282436
80 81 3900989.7828251584
81 81 498.46875025547308
82 81 -371333.19885799638
80 82 -2906036826.4282436
81 82 -371333.19885799638
82 82 276624044.36724746
83 83 0.125
84 84 31056468365.629372
85 84 4218673.3084468786
86 84 -3017134018.1953506
84 85 4218673.3084468786
85 85 573.06035348852618
86 85 -409844.05760735611
84 86 -3017134018.1953506
85 86 -409844.05760735611
86 86 293114434.93115586
87 87 0.125
88 88 31506607555.602348
89 88 4562244.3297379464
90 88 -3126764700.3745995
88 89 4562244.3297379464
89 89 660.62656342117202
90 89 -452764.42479197634
88 90 -3126764700.3745995
89 90 -452764.42479197634
90 90 310305035.67532277
91 91 0.125
92 92 31867874236.706261
93 92 4932445.112077049
94 92 -3233633098.2466774
92 93 4932445.112077049
93 93 763.43484926189956
94 93 -500495.40240158082
92 94 -3233633098.2466774
93 94 -500495.40240158082
94 94 328116786.7005325
95 95 0.125
96 96 32128651390.753551
97 96 5329683.3508437844
98 96 -3336286908.5119634
96 97 5329683.3508437844
97 97 884.11921922270005
98 97 -553442.45784586901
96 98 -3336286908.5119634
97 98 -553442.45784586901
98 98 346445036.29444653
99 99 0.125
100 100 32264662147.796432
101 100 5751650.7841747766
102 100 -3431759482.9597034
100 101 5751650.7841747766
101 101 1025.3175091941762
102 101 -611761.84791347047
100 102 -3431759482.9597034
101 102 -611761.84791347047
102 102 365011557.54249829
103 103 0.125
104 104 32244641450.245209
105 104 6193363.5466351518
106 104 -3515996903.1516266
104 105 6193363.5466351518
105 105 1189.5865290765951
106 105 -675332.5038376986
104 106 -3515996903.1516266
105 106 -675332.5038376986
106 106 383388838.16085708
107 107 0.125
108 108 32043990788.340889
109 108 6649025.986512376
110 108 -3585240828.6739869
108 109 6649025.986512376
109 109 1379.653014395878
110 109 -743926.28336780868
108 110 -3585240828.6739869
109 110 -743926.28336780868
110 110 401134591.46134871
111 111 0.125
112 112 31644284993.405251
113 112 7111823.1300408281
114 112 -3636010246.662241
112 113 7111823.1300408281
113 113 1598.3319871726824
114 113 -817167.12491959555
112 114 -3636010246.662241
113 114 -817167.12491959555
114 114 417787028.97933865
115 115 0.125
116 116 31028914530.210785
117 116 7572734.4249107726
118 116 -3664627942.5868082
116 117 7572734.4249107726
117 117 1848.1585600269561
118 117 -894367.79306343303
116 118 -3664627942.5868082
117 118 -894367.79306343303
118 118 432805961.54824853
119 119 0.125
120 120 30172847074.415089
121 120 8017246.0346619543
122 120 -3665955504.1847897
120 121 8017246.0346619543
121 121 2130.2690928625861
122 121 -974083.57635422563
120 122 -3665955504.1847897
121 122 -974083.57635422563
122 122 445408114.03984058
123 123 0.125
124 124 29115194588.400826
125 124 8444444.6781593077
126 124 -3642263995.0955935
124 125 8444444.6781593077
125 125 2449.1918567751527
126 125 -1056386.6963386454
124 126 -3642263995.0955935
125 126 -1056386.6963386454
126 126 455641401.80216581
127 127 0.125
128 128 27988899607.09362
129 128 8883799.9552019667
130 128 -3608206607.8855505
128 129 8883799.9552019667
129 129 2819.7591226978839
130 129 -1145260.9204101246
128 130 -3608206607.8855505
129 130 -1145260.9204101246
130 130 465154260.65141642
131 131 0.125
132 132 26950320322.953632
133 132 9385536.1860812623
134 132 -3583413357.3264246
132 133 9385536.1860812623
133 133 3268.5453806291689
134 133 -1247935.5493702593
132 134 -3583413357.3264246
133 134 -1247935.5493702593
134 134 476463805.79102063
135 135 0.125
136 136 26050008559.920753
137 136 9979522.1076330692
138 136 -3575551898.9272709
136 137 9979522.1076330692
137 137 3823.0666813669668
138 137 -1369761.7833937893
136 138 -3575551898.9272709
137 138 -1369761.7833937893
138 138 490770365.15213883
139 139 0.125
140 140 25254873738.010796
141 140 10670490.352772485
142 140 -3581455158.5857983
140 141 10670490.352772485
141 141 4508.4139869805622
142 141 -1513208.5002821861
140 142 -3581455158.5857983
141 142 -1513208.5002821861
142 142 507894910.00736511
143 143 0.125
144 144 24506493736.617126
145 144 11449766.633002851
146 144 -3593802905.404376
144 145 11449766.633002851
145 145 5349.4891105951356
146 145 -1679073.7948904969
144 146 -3593802905.404376
145 146 -1679073.7948904969
146 146 527020314.61364043
147 147 0.125
148 148 23768747156.754459
149 148 12312545.105236083
150 148 -3607625071.2825255
148 149 12312545.105236083
149 149 6378.0743548686105
150 149 -1868800.7798376135
148 150 -3607625071.2825255
149 150 -1868800.7798376135
150 150 547566063.71258259
151 151 0.125
152 152 23045562462.297932
153 152 13271436.907577649
154 152 -3623532114.7937059
152 153 13271436.907577649
153 153 7642.734353850301
154 153 -2086713.4264448755
152 154 -3623532114.7937059
153 154 -2086713.4264448755
154 154 569740297.03984165
155 155 0.125
156 156 22411897877.151947
157 156 14387230.855424676
158 156 -3653811051.2848749
156 157 14387230.855424676
157 157 9235.8305685860742
158 157 -2345550.1244351696
156 158 -3653811051.2848749
157 158 -2345550.1244351696
158 158 595680733.67691779
159 159 0.125
160 160 21980213025.052559
161 160 15772327.406538438
162 160 -3718956658.2488317
160 161 15772327.406538438
161 161 11317.742847541396
162 161 -2668609.6622628402
160 162 -3718956658.2488317
161 162 -2668609.6622628402
162 162 629231352.17986822
163 163 0.125
164 164 21866899069.653912
165 164 17588760.464323465
166 164 -3843301623.7423754
164 165 17588760.464323465
165 165 14147.620578355145
166 165 -3091381.1085963086
164 166 -3843301623.7423754
165 166 -3091381.1085963086
166 166 675494400.75797749
167 167 0.125
168 168 22183517462.597836
169 168 20058868.726541184
170 168 -4054061596.3576212
168 169 20058868.726541184
169 169 18137.715368998841
170 169 -3665780.0994756119
168 170 -4054061596.3576212
169 170 -3665780.0994756119
170 170 740884125.28371596
171 171 0.125
172 172 23088379763.191055
173 172 23538003.488293603
174 172 -4391572970.7599382
172 173 23538003.488293603
173 173 23996.388958598953
174 173 -4477094.9385320116
172 174 -4391572970.7599382
173 174 -4477094.9385320116
174 174 835308231.66261911
175 175 0.125
176 176 25035710082.651474
177 176 28862912.140432842
178 176 -4961213490.3376217
176 177 28862912.140432842
177 177 33275.184282738897
178 177 -5719633.2085700175
176 178 -4961213490.3376217
177 178 -5719633.2085700175
178 178 983141271.87300348
179 179 0.125
180 180 27755668078.468849
181 180 36297347.74677778
182 180 -5736240417.9439249
180 181 36297347.74677778
181 181 47467.698206294648
182 181 -7501542.5439185249
180 182 -5736240417.9439249
181 182 -7501542.5439185249
182 182 1185503971.895803
183 183 0.125
184 184 29882776868.287426
185 184 44469937.872676879
186 184 -6447688779.8301277
184 185 44469937.872676879
185 185 66177.773999766563
186 185 -9595103.368133029
184 186 -6447688779.8301277
185 186 -9595103.368133029
186 186 1391192372.7183733
187 187 0.125
188 188 31697874185.855042
189 188 53854455.911597356
190 188 -7148175885.4116135
188 189 53854455.911597356
189 189 91498.336728866052
190 189 -12144698.917212654
188 190 -7148175885.4116135
189 190 -12144698.917212654
190 190 1611982521.7040811
191 191 0.125
192 192 33480855407.669281
193 192 65163618.97101935
194 192 -7900126032.4648361
192 193 65163618.97101935
193 193 126827.63389424823
194 193 -15375975.730057344
192 194 -7900126032.4648361
193 194 -15375975.730057344
194 194 1864109840.648068
195 195 0.125
196 196 35034428522.967232
197 196 78387493.177893311
198 196 -8659913248.7039471
196 197 78387493.177893311
197 197 175387.46459601255
198 197 -19376052.013350099
196 198 -8659913248.7039471
197 198 -19376052.013350099
198 198 2140582887.2424164
199 199 0.125
200 200 35954844138.254097
201 200 92818593.273970634
202 200 -9321472556.9072342
200 201 92818593.273970634
201 201 239614.21809062903
202 201 -24063683.518697757
200 202 -9321472556.9072342
201 202 -24063683.518697757
202 202 2416638241.4486904
203 203 0.125
204 204 35343347380.607048
205 204 105671660.56408179
206 204 -9622602691.7301369
204 205 105671660.56408179
205 205 315943.49378079979
206 205 -28770235.567325708
204 206 -9622602691.7301369
205 206 -28770235.567325708
206 206 2619856073.8814244
207 207 0.125
208 208 33189788872.271065
209 208 115384577.50579362
210 208 -9502112592.6988163
208 209 115384577.50579362
209 209 401135.46307102934
210 209 -33034174.08511921
208 210 -9502112592.6988163
209 210 -33034174.08511921
210 210 2720419359.2693853
211 211 0.125
212 212 31737068517.952152
213 212 128823544.33746852
214 212 -9567773344.2937202
212 213 128823544.33746852
213 213 522906.09534193878
214 213 -38836431.843259215
212 214 -9567773344.2937202
213 214 -38836431.843259215
214 214 2884396437.852726
215 215 0.125
216 216 29975204605.264805
217 216 142677357.21514979
218 216 -9529301046.3765774
216 217 142677357.21514979
217 217 679122.28402556467
218 217 -45358006.158591367
216 218 -9529301046.3765774
217 218 -45358006.158591367
218 218 3029423158.2449465
219 219 0.125
220 220 27602900439.122879
221 220 154769550.3658146
222 220 -9267577871.2127228
220 221 154769550.3658146
221 221 867793.39236458554
222 221 -51963339.180609494
220 222 -9267577871.2127228
221 222 -51963339.180609494
222 222 3111557067.8263273
223 223 0.125
224 224 25832978770.247578
225 224 171440574.27947378
226 224 -9174634812.3672123
224 225 171440574.27947378
225 225 1137765.4822018584
226 225 -60887468.438745879
224 226 -9174634812.3672123
225 226 -60887468.438745879
226 226 3258390177.1146765
227 227 0.125
228 228 24984036098.980232
229 228 197238859.96121353
230 228 -9401716501.063755
228 229 197238859.96121353
229 229 1557121.0812991571
230 229 -74222750.066197991
228 230 -9401716501.063755
229 230 -74222750.066197991
230 230 3537950120.4851208
231 231 0.125
232 232 24003509499.668907
233 232 226621742.22789526
234 232 -9587784808.1451645
232 233 226621742.22789526
233 233 2139579.4115480636
234 233 -90520117.77475442
232 234 -9587784808.1451645
233 234 -90520117.77475442
234 234 3829674059.2788119
235 235 0.125
236 236 24106685837.594559
237 236 273718247.414819
238 236 -10239863793.876747
236 237 273718247.414819
237 237 3107921.2084441925
238 237 -116268059.63392042
236 238 -10239863793.876747
237 238 -116268059.63392042
238 238 4349615347.8763885
239 239 0.125
240 240 26879493120.322746
241 240 369245642.71950221
242 240 -12166166821.481869
240 241 369245642.71950221
241 241 5072355.590568779
242 241 -167127560.59584805
240 242 -12166166821.481869
241 242 -167127560.59584805
242 242 5506637151.6424961
243 243 0.125
244 244 35177684279.09993
245 244 588351243.85661852
246 244 -17001672549.117966
244 245 588351243.85661852
245 245 9840249.4828821737
246 245 -284355136.77349943
244 246 -17001672549.117966
245 246 -284355136.77349943
246 246 8217052250.7528467
247 247 0.125
248 248 67039413129.368309
249 248 1374405341.8020318
250 248 -34675787933.547493
248 249 1374405341.8020318
249 249 28177306.228555508
250 249 -710904021.8422817
248 250 -34675787933.547493
249 250 -710904021.8422817
250 250 17935871076.053558
251 251 0.125
252 252 0.125
253 253 68712214688.992668
254 253 1739200926.4369519
255 253 -38127688333.754089
253 254 1739200926.4369519
254 254 44021639.946680576
255 254 -965064860.00240529
253 255 -38127688333.754089
254 255 -965064860.00240529
255 255 21156658466.641491
