%%MatrixMarket matrix coordinate real general
240 576 69120
1 1 0
2 1 0
3 1 0
4 1 0
5 1 0
6 1 0
7 1 0
8 1 0
9 1 0
10 1 0
11 1 0
12 1 0
13 1 0
14 1 0
15 1 0
16 1 0
17 1 0
18 1 0
19 1 0
20 1 0
21 1 0
22 1 0
23 1 0
24 1 0
25 1 0
26 1 0
27 1 0
28 1 0
29 1 0
30 1 0
31 1 0
32 1 0
33 1 0
34 1 0
35 1 0
36 1 0
37 1 0
38 1 0
39 1 0
40 1 0
41 1 0
42 1 0
43 1 0
44 1 0
45 1 0
46 1 0
47 1 0
48 1 0
49 1 0
50 1 0
51 1 0
52 1 0
53 1 0
54 1 0
55 1 0
56 1 0
57 1 0
58 1 0
59 1 0
60 1 0
61 1 0
62 1 0
63 1 0
64 1 0
65 1 0
66 1 0
67 1 0
68 1 0
69 1 0
70 1 0
71 1 0
72 1 0
73 1 0
74 1 0
75 1 0
76 1 0
77 1 0
78 1 0
79 1 0
80 1 0
81 1 0
82 1 0
83 1 0
84 1 0
85 1 0
86 1 0
87 1 0
88 1 0
89 1 0
90 1 0
91 1 0
92 1 0
93 1 0
94 1 0
95 1 0
96 1 0
97 1 0
98 1 0
99 1 0
100 1 0
101 1 0
102 1 0
103 1 0
104 1 0
105 1 0
106 1 0
107 1 0
108 1 0
109 1 0
110 1 0
111 1 0
112 1 0
113 1 0
114 1 0
115 1 0
116 1 0
117 1 0
118 1 0
119 1 0
120 1 0
1 2 0
2 2 0
3 2 0
4 2 0
5 2 0
6 2 0
7 2 0
8 2 0
9 2 0
10 2 0
11 2 0
12 2 0
13 2 0
14 2 0
15 2 0
16 2 0
17 2 0
18 2 0
19 2 0
20 2 0
21 2 0
22 2 0
23 2 0
24 2 0
25 2 0
26 2 0
27 2 0
28 2 0
29 2 0
30 2 0
31 2 0
32 2 0
33 2 0
34 2 0
35 2 0
36 2 0
37 2 0
38 2 0
39 2 0
40 2 0
41 2 0
42 2 0
43 2 0
44 2 0
45 2 0
46 2 0
47 2 0
48 2 0
49 2 0
50 2 0
51 2 0
52 2 0
53 2 0
54 2 0
55 2 0
56 2 0
57 2 0
58 2 0
59 2 0
60 2 0
61 2 0
62 2 0
63 2 0
64 2 0
65 2 0
66 2 0
67 2 0
68 2 0
69 2 0
70 2 0
71 2 0
72 2 0
73 2 0
74 2 0
75 2 0
76 2 0
77 2 0
78 2 0
79 2 0
80 2 0
81 2 0
82 2 0
83 2 0
84 2 0
85 2 0
86 2 0
87 2 0
88 2 0
89 2 0
90 2 0
91 2 0
92 2 0
93 2 0
94 2 0
95 2 0
96 2 0
97 2 0
98 2 0
99 2 0
100 2 0
101 2 0
102 2 0
103 2 0
104 2 0
105 2 0
106 2 0
107 2 0
108 2 0
109 2 0
110 2 0
111 2 0
112 2 0
113 2 0
114 2 0
115 2 0
116 2 0
117 2 0
118 2 0
119 2 0
120 2 0
1 3 0
2 3 0
3 3 0
4 3 0
5 3 0
6 3 0
7 3 0
8 3 0
9 3 0
10 3 0
11 3 0
12 3 0
13 3 0
14 3 0
15 3 0
16 3 0
17 3 0
18 3 0
19 3 0
20 3 0
21 3 0
22 3 0
23 3 0
24 3 0
25 3 0
26 3 0
27 3 0
28 3 0
29 3 0
30 3 0
31 3 0
32 3 0
33 3 0
34 3 0
35 3 0
36 3 0
37 3 0
38 3 0
39 3 0
40 3 0
41 3 0
42 3 0
43 3 0
44 3 0
45 3 0
46 3 0
47 3 0
48 3 0
49 3 0
50 3 0
51 3 0
52 3 0
53 3 0
54 3 0
55 3 0
56 3 0
57 3 0
58 3 0
59 3 0
60 3 0
61 3 0
62 3 0
63 3 0
64 3 0
65 3 0
66 3 0
67 3 0
68 3 0
69 3 0
70 3 0
71 3 0
72 3 0
73 3 0
74 3 0
75 3 0
76 3 0
77 3 0
78 3 0
79 3 0
80 3 0
81 3 0
82 3 0
83 3 0
84 3 0
85 3 0
86 3 0
87 3 0
88 3 0
89 3 0
90 3 0
91 3 0
92 3 0
93 3 0
94 3 0
95 3 0
96 3 0
97 3 0
98 3 0
99 3 0
100 3 0
101 3 0
102 3 0
103 3 0
104 3 0
105 3 0
106 3 0
107 3 0
108 3 0
109 3 0
110 3 0
111 3 0
112 3 0
113 3 0
114 3 0
115 3 0
116 3 0
117 3 0
118 3 0
119 3 0
120 3 0
1 4 0
2 4 0
3 4 0
4 4 0
5 4 0
6 4 0
7 4 0
8 4 0
9 4 0
10 4 0
11 4 0
12 4 0
13 4 0
14 4 0
15 4 0
16 4 0
17 4 0
18 4 0
19 4 0
20 4 0
21 4 0
22 4 0
23 4 0
24 4 0
25 4 0
26 4 0
27 4 0
28 4 0
29 4 0
30 4 0
31 4 0
32 4 0
33 4 0
34 4 0
35 4 0
36 4 0
37 4 0
38 4 0
39 4 0
40 4 0
41 4 0
42 4 0
43 4 0
44 4 0
45 4 0
46 4 0
47 4 0
48 4 0
49 4 0
50 4 0
51 4 0
52 4 0
53 4 0
54 4 0
55 4 0
56 4 0
57 4 0
58 4 0
59 4 0
60 4 0
61 4 0
62 4 0
63 4 0
64 4 0
65 4 0
66 4 0
67 4 0
68 4 0
69 4 0
70 4 0
71 4 0
72 4 0
73 4 0
74 4 0
75 4 0
76 4 0
77 4 0
78 4 0
79 4 0
80 4 0
81 4 0
82 4 0
83 4 0
84 4 0
85 4 0
86 4 0
87 4 0
88 4 0
89 4 0
90 4 0
91 4 0
92 4 0
93 4 0
94 4 0
95 4 0
96 4 0
97 4 0
98 4 0
99 4 0
100 4 0
101 4 0
102 4 0
103 4 0
104 4 0
105 4 0
106 4 0
107 4 0
108 4 0
109 4 0
110 4 0
111 4 0
112 4 0
113 4 0
114 4 0
115 4 0
116 4 0
117 4 0
118 4 0
119 4 0
120 4 0
1 5 0
2 5 0
3 5 0
4 5 0
5 5 0
6 5 0
7 5 0
8 5 0
9 5 0
10 5 0
11 5 0
12 5 0
13 5 0
14 5 0
15 5 0
16 5 0
17 5 0
18 5 0
19 5 0
20 5 0
21 5 0
22 5 0
23 5 0
24 5 0
25 5 0
26 5 0
27 5 0
28 5 0
29 5 0
30 5 0
31 5 0
32 5 0
33 5 0
34 5 0
35 5 0
36 5 0
37 5 0
38 5 0
39 5 0
40 5 0
41 5 0
42 5 0
43 5 0
44 5 0
45 5 0
46 5 0
47 5 0
48 5 0
49 5 0
50 5 0
51 5 0
52 5 0
53 5 0
54 5 0
55 5 0
56 5 0
57 5 0
58 5 0
59 5 0
60 5 0
61 5 0
62 5 0
63 5 0
64 5 0
65 5 0
66 5 0
67 5 0
68 5 0
69 5 0
70 5 0
71 5 0
72 5 0
73 5 0
74 5 0
75 5 0
76 5 0
77 5 0
78 5 0
79 5 0
80 5 0
81 5 0
82 5 0
83 5 0
84 5 0
85 5 0
86 5 0
87 5 0
88 5 0
89 5 0
90 5 0
91 5 0
92 5 0
93 5 0
94 5 0
95 5 0
96 5 0
97 5 0
98 5 0
99 5 0
100 5 0
101 5 0
102 5 0
103 5 0
104 5 0
105 5 0
106 5 0
107 5 0
108 5 0
109 5 0
110 5 0
111 5 0
112 5 0
113 5 0
114 5 0
115 5 0
116 5 0
117 5 0
118 5 0
119 5 0
120 5 0
1 6 0
2 6 0
3 6 0
4 6 0
5 6 0
6 6 0
7 6 0
8 6 0
9 6 0
10 6 0
11 6 0
12 6 0
13 6 0
14 6 0
15 6 0
16 6 0
17 6 0
18 6 0
19 6 0
20 6 0
21 6 0
22 6 0
23 6 0
24 6 0
25 6 0
26 6 0
27 6 0
28 6 0
29 6 0
30 6 0
31 6 0
32 6 0
33 6 0
34 6 0
35 6 0
36 6 0
37 6 0
38 6 0
39 6 0
40 6 0
41 6 0
42 6 0
43 6 0
44 6 0
45 6 0
46 6 0
47 6 0
48 6 0
49 6 0
50 6 0
51 6 0
52 6 0
53 6 0
54 6 0
55 6 0
56 6 0
57 6 0
58 6 0
59 6 0
60 6 0
61 6 0
62 6 0
63 6 0
64 6 0
65 6 0
66 6 0
67 6 0
68 6 0
69 6 0
70 6 0
71 6 0
72 6 0
73 6 0
74 6 0
75 6 0
76 6 0
77 6 0
78 6 0
79 6 0
80 6 0
81 6 0
82 6 0
83 6 0
84 6 0
85 6 0
86 6 0
87 6 0
88 6 0
89 6 0
90 6 0
91 6 0
92 6 0
93 6 0
94 6 0
95 6 0
96 6 0
97 6 0
98 6 0
99 6 0
100 6 0
101 6 0
102 6 0
103 6 0
104 6 0
105 6 0
106 6 0
107 6 0
108 6 0
109 6 0
110 6 0
111 6 0
112 6 0
113 6 0
114 6 0
115 6 0
116 6 0
117 6 0
118 6 0
119 6 0
120 6 0
1 7 0
2 7 0
3 7 0
4 7 0
5 7 0
6 7 0
7 7 0
8 7 0
9 7 0
10 7 0
11 7 0
12 7 0
13 7 0
14 7 0
15 7 0
16 7 0
17 7 0
18 7 0
19 7 0
20 7 0
21 7 0
22 7 0
23 7 0
24 7 0
25 7 0
26 7 0
27 7 0
28 7 0
29 7 0
30 7 0
31 7 0
32 7 0
33 7 0
34 7 0
35 7 0
36 7 0
37 7 0
38 7 0
39 7 0
40 7 0
41 7 0
42 7 0
43 7 0
44 7 0
45 7 0
46 7 0
47 7 0
48 7 0
49 7 0
50 7 0
51 7 0
52 7 0
53 7 0
54 7 0
55 7 0
56 7 0
57 7 0
58 7 0
59 7 0
60 7 0
61 7 0
62 7 0
63 7 0
64 7 0
65 7 0
66 7 0
67 7 0
68 7 0
69 7 0
70 7 0
71 7 0
72 7 0
73 7 0
74 7 0
75 7 0
76 7 0
77 7 0
78 7 0
79 7 0
80 7 0
81 7 0
82 7 0
83 7 0
84 7 0
85 7 0
86 7 0
87 7 0
88 7 0
89 7 0
90 7 0
91 7 0
92 7 0
93 7 0
94 7 0
95 7 0
96 7 0
97 7 0
98 7 0
99 7 0
100 7 0
101 7 0
102 7 0
103 7 0
104 7 0
105 7 0
106 7 0
107 7 0
108 7 0
109 7 0
110 7 0
111 7 0
112 7 0
113 7 0
114 7 0
115 7 0
116 7 0
117 7 0
118 7 0
119 7 0
120 7 0
1 8 0.99722501540774111
2 8 0
3 8 0
4 8 0
5 8 0
6 8 0
7 8 0
8 8 0
9 8 0
10 8 0
11 8 0
12 8 0
13 8 0
14 8 0
15 8 0
16 8 0
17 8 0
18 8 0
19 8 0
20 8 0
21 8 0
22 8 0
23 8 0
24 8 0
25 8 0
26 8 0
27 8 0
28 8 0
29 8 0
30 8 0
31 8 0
32 8 0
33 8 0
34 8 0
35 8 0
36 8 0
37 8 0
38 8 0
39 8 0
40 8 0
41 8 0
42 8 0
43 8 0
44 8 0
45 8 0
46 8 0
47 8 0
48 8 0
49 8 0
50 8 0
51 8 0
52 8 0
53 8 0
54 8 0
55 8 0
56 8 0
57 8 0
58 8 0
59 8 0
60 8 0
61 8 0
62 8 0
63 8 0
64 8 0
65 8 0
66 8 0
67 8 0
68 8 0
69 8 0
70 8 0
71 8 0
72 8 0
73 8 0
74 8 0
75 8 0
76 8 0
77 8 0
78 8 0
79 8 0
80 8 0
81 8 0
82 8 0
83 8 0
84 8 0
85 8 0
86 8 0
87 8 0
88 8 0
89 8 0
90 8 0
91 8 0
92 8 0
93 8 0
94 8 0
95 8 0
96 8 0
97 8 0
98 8 0
99 8 0
100 8 0
101 8 0
102 8 0
103 8 0
104 8 0
105 8 0
106 8 0
107 8 0
108 8 0
109 8 0
110 8 0
111 8 0
112 8 0
113 8 0
114 8 0
115 8 0
116 8 0
117 8 0
118 8 0
119 8 0
120 8 0
1 9 0
2 9 0.99722501540774111
3 9 0
4 9 0
5 9 0
6 9 0
7 9 0
8 9 0
9 9 0
10 9 0
11 9 0
12 9 0
13 9 0
14 9 0
15 9 0
16 9 0
17 9 0
18 9 0
19 9 0
20 9 0
21 9 0
22 9 0
23 9 0
24 9 0
25 9 0
26 9 0
27 9 0
28 9 0
29 9 0
30 9 0
31 9 0
32 9 0
33 9 0
34 9 0
35 9 0
36 9 0
37 9 0
38 9 0
39 9 0
40 9 0
41 9 0
42 9 0
43 9 0
44 9 0
45 9 0
46 9 0
47 9 0
48 9 0
49 9 0
50 9 0
51 9 0
52 9 0
53 9 0
54 9 0
55 9 0
56 9 0
57 9 0
58 9 0
59 9 0
60 9 0
61 9 0
62 9 0
63 9 0
64 9 0
65 9 0
66 9 0
67 9 0
68 9 0
69 9 0
70 9 0
71 9 0
72 9 0
73 9 0
74 9 0
75 9 0
76 9 0
77 9 0
78 9 0
79 9 0
80 9 0
81 9 0
82 9 0
83 9 0
84 9 0
85 9 0
86 9 0
87 9 0
88 9 0
89 9 0
90 9 0
91 9 0
92 9 0
93 9 0
94 9 0
95 9 0
96 9 0
97 9 0
98 9 0
99 9 0
100 9 0
101 9 0
102 9 0
103 9 0
104 9 0
105 9 0
106 9 0
107 9 0
108 9 0
109 9 0
110 9 0
111 9 0
112 9 0
113 9 0
114 9 0
115 9 0
116 9 0
117 9 0
118 9 0
119 9 0
120 9 0
1 10 0
2 10 0
3 10 0.99722501540774111
4 10 0
5 10 0
6 10 0
7 10 0
8 10 0
9 10 0
10 10 0
11 10 0
12 10 0
13 10 0
14 10 0
15 10 0
16 10 0
17 10 0
18 10 0
19 10 0
20 10 0
21 10 0
22 10 0
23 10 0
24 10 0
25 10 0
26 10 0
27 10 0
28 10 0
29 10 0
30 10 0
31 10 0
32 10 0
33 10 0
34 10 0
35 10 0
36 10 0
37 10 0
38 10 0
39 10 0
40 10 0
41 10 0
42 10 0
43 10 0
44 10 0
45 10 0
46 10 0
47 10 0
48 10 0
49 10 0
50 10 0
51 10 0
52 10 0
53 10 0
54 10 0
55 10 0
56 10 0
57 10 0
58 10 0
59 10 0
60 10 0
61 10 0
62 10 0
63 10 0
64 10 0
65 10 0
66 10 0
67 10 0
68 10 0
69 10 0
70 10 0
71 10 0
72 10 0
73 10 0
74 10 0
75 10 0
76 10 0
77 10 0
78 10 0
79 10 0
80 10 0
81 10 0
82 10 0
83 10 0
84 10 0
85 10 0
86 10 0
87 10 0
88 10 0
89 10 0
90 10 0
91 10 0
92 10 0
93 10 0
94 10 0
95 10 0
96 10 0
97 10 0
98 10 0
99 10 0
100 10 0
101 10 0
102 10 0
103 10 0
104 10 0
105 10 0
106 10 0
107 10 0
108 10 0
109 10 0
110 10 0
111 10 0
112 10 0
113 10 0
114 10 0
115 10 0
116 10 0
117 10 0
118 10 0
119 10 0
120 10 0
1 11 0
2 11 0
3 11 0
4 11 0.99722501540774111
5 11 0
6 11 0
7 11 0
8 11 0
9 11 0
10 11 0
11 11 0
12 11 0
13 11 0
14 11 0
15 11 0
16 11 0
17 11 0
18 11 0
19 11 0
20 11 0
21 11 0
22 11 0
23 11 0
24 11 0
25 11 0
26 11 0
27 11 0
28 11 0
29 11 0
30 11 0
31 11 0
32 11 0
33 11 0
34 11 0
35 11 0
36 11 0
37 11 0
38 11 0
39 11 0
40 11 0
41 11 0
42 11 0
43 11 0
44 11 0
45 11 0
46 11 0
47 11 0
48 11 0
49 11 0
50 11 0
51 11 0
52 11 0
53 11 0
54 11 0
55 11 0
56 11 0
57 11 0
58 11 0
59 11 0
60 11 0
61 11 0
62 11 0
63 11 0
64 11 0
65 11 0
66 11 0
67 11 0
68 11 0
69 11 0
70 11 0
71 11 0
72 11 0
73 11 0
74 11 0
75 11 0
76 11 0
77 11 0
78 11 0
79 11 0
80 11 0
81 11 0
82 11 0
83 11 0
84 11 0
85 11 0
86 11 0
87 11 0
88 11 0
89 11 0
90 11 0
91 11 0
92 11 0
93 11 0
94 11 0
95 11 0
96 11 0
97 11 0
98 11 0
99 11 0
100 11 0
101 11 0
102 11 0
103 11 0
104 11 0
105 11 0
106 11 0
107 11 0
108 11 0
109 11 0
110 11 0
111 11 0
112 11 0
113 11 0
114 11 0
115 11 0
116 11 0
117 11 0
118 11 0
119 11 0
120 11 0
1 12 0
2 12 0
3 12 0
4 12 0
5 12 0.99722501540774111
6 12 0
7 12 0
8 12 0
9 12 0
10 12 0
11 12 0
12 12 0
13 12 0
14 12 0
15 12 0
16 12 0
17 12 0
18 12 0
19 12 0
20 12 0
21 12 0
22 12 0
23 12 0
24 12 0
25 12 0
26 12 0
27 12 0
28 12 0
29 12 0
30 12 0
31 12 0
32 12 0
33 12 0
34 12 0
35 12 0
36 12 0
37 12 0
38 12 0
39 12 0
40 12 0
41 12 0
42 12 0
43 12 0
44 12 0
45 12 0
46 12 0
47 12 0
48 12 0
49 12 0
50 12 0
51 12 0
52 12 0
53 12 0
54 12 0
55 12 0
56 12 0
57 12 0
58 12 0
59 12 0
60 12 0
61 12 0
62 12 0
63 12 0
64 12 0
65 12 0
66 12 0
67 12 0
68 12 0
69 12 0
70 12 0
71 12 0
72 12 0
73 12 0
74 12 0
75 12 0
76 12 0
77 12 0
78 12 0
79 12 0
80 12 0
81 12 0
82 12 0
83 12 0
84 12 0
85 12 0
86 12 0
87 12 0
88 12 0
89 12 0
90 12 0
91 12 0
92 12 0
93 12 0
94 12 0
95 12 0
96 12 0
97 12 0
98 12 0
99 12 0
100 12 0
101 12 0
102 12 0
103 12 0
104 12 0
105 12 0
106 12 0
107 12 0
108 12 0
109 12 0
110 12 0
111 12 0
112 12 0
113 12 0
114 12 0
115 12 0
116 12 0
117 12 0
118 12 0
119 12 0
120 12 0
1 13 0
2 13 0
3 13 0
4 13 0
5 13 0
6 13 0
7 13 0
8 13 0
9 13 0
10 13 0
11 13 0
12 13 0
13 13 0
14 13 0
15 13 0
16 13 0
17 13 0
18 13 0
19 13 0
20 13 0
21 13 0
22 13 0
23 13 0
24 13 0
25 13 0
26 13 0
27 13 0
28 13 0
29 13 0
30 13 0
31 13 0
32 13 0
33 13 0
34 13 0
35 13 0
36 13 0
37 13 0
38 13 0
39 13 0
40 13 0
41 13 0
42 13 0
43 13 0
44 13 0
45 13 0
46 13 0
47 13 0
48 13 0
49 13 0
50 13 0
51 13 0
52 13 0
53 13 0
54 13 0
55 13 0
56 13 0
57 13 0
58 13 0
59 13 0
60 13 0
61 13 0
62 13 0
63 13 0
64 13 0
65 13 0
66 13 0
67 13 0
68 13 0
69 13 0
70 13 0
71 13 0
72 13 0
73 13 0
74 13 0
75 13 0
76 13 0
77 13 0
78 13 0
79 13 0
80 13 0
81 13 0
82 13 0
83 13 0
84 13 0
85 13 0
86 13 0
87 13 0
88 13 0
89 13 0
90 13 0
91 13 0
92 13 0
93 13 0
94 13 0
95 13 0
96 13 0
97 13 0
98 13 0
99 13 0
100 13 0
101 13 0
102 13 0
103 13 0
104 13 0
105 13 0
106 13 0
107 13 0
108 13 0
109 13 0
110 13 0
111 13 0
112 13 0
113 13 0
114 13 0
115 13 0
116 13 0
117 13 0
118 13 0
119 13 0
120 13 0
1 14 0
2 14 0
3 14 0
4 14 0
5 14 0
6 14 0
7 14 0
8 14 0
9 14 0
10 14 0
11 14 0
12 14 0
13 14 0
14 14 0
15 14 0
16 14 0
17 14 0
18 14 0
19 14 0
20 14 0
21 14 0
22 14 0
23 14 0
24 14 0
25 14 0
26 14 0
27 14 0
28 14 0
29 14 0
30 14 0
31 14 0
32 14 0
33 14 0
34 14 0
35 14 0
36 14 0
37 14 0
38 14 0
39 14 0
40 14 0
41 14 0
42 14 0
43 14 0
44 14 0
45 14 0
46 14 0
47 14 0
48 14 0
49 14 0
50 14 0
51 14 0
52 14 0
53 14 0
54 14 0
55 14 0
56 14 0
57 14 0
58 14 0
59 14 0
60 14 0
61 14 0
62 14 0
63 14 0
64 14 0
65 14 0
66 14 0
67 14 0
68 14 0
69 14 0
70 14 0
71 14 0
72 14 0
73 14 0
74 14 0
75 14 0
76 14 0
77 14 0
78 14 0
79 14 0
80 14 0
81 14 0
82 14 0
83 14 0
84 14 0
85 14 0
86 14 0
87 14 0
88 14 0
89 14 0
90 14 0
91 14 0
92 14 0
93 14 0
94 14 0
95 14 0
96 14 0
97 14 0
98 14 0
99 14 0
100 14 0
101 14 0
102 14 0
103 14 0
104 14 0
105 14 0
106 14 0
107 14 0
108 14 0
109 14 0
110 14 0
111 14 0
112 14 0
113 14 0
114 14 0
115 14 0
116 14 0
117 14 0
118 14 0
119 14 0
120 14 0
1 15 0
2 15 0
3 15 0
4 15 0
5 15 0
6 15 0
7 15 0
8 15 0
9 15 0
10 15 0
11 15 0
12 15 0
13 15 0
14 15 0
15 15 0
16 15 0
17 15 0
18 15 0
19 15 0
20 15 0
21 15 0
22 15 0
23 15 0
24 15 0
25 15 0
26 15 0
27 15 0
28 15 0
29 15 0
30 15 0
31 15 0
32 15 0
33 15 0
34 15 0
35 15 0
36 15 0
37 15 0
38 15 0
39 15 0
40 15 0
41 15 0
42 15 0
43 15 0
44 15 0
45 15 0
46 15 0
47 15 0
48 15 0
49 15 0
50 15 0
51 15 0
52 15 0
53 15 0
54 15 0
55 15 0
56 15 0
57 15 0
58 15 0
59 15 0
60 15 0
61 15 0
62 15 0
63 15 0
64 15 0
65 15 0
66 15 0
67 15 0
68 15 0
69 15 0
70 15 0
71 15 0
72 15 0
73 15 0
74 15 0
75 15 0
76 15 0
77 15 0
78 15 0
79 15 0
80 15 0
81 15 0
82 15 0
83 15 0
84 15 0
85 15 0
86 15 0
87 15 0
88 15 0
89 15 0
90 15 0
91 15 0
92 15 0
93 15 0
94 15 0
95 15 0
96 15 0
97 15 0
98 15 0
99 15 0
100 15 0
101 15 0
102 15 0
103 15 0
104 15 0
105 15 0
106 15 0
107 15 0
108 15 0
109 15 0
110 15 0
111 15 0
112 15 0
113 15 0
114 15 0
115 15 0
116 15 0
117 15 0
118 15 0
119 15 0
120 15 0
1 16 0
2 16 0
3 16 0
4 16 0
5 16 0
6 16 0
7 16 0
8 16 0
9 16 0
10 16 0
11 16 0
12 16 0
13 16 0
14 16 0
15 16 0
16 16 0
17 16 0
18 16 0
19 16 0
20 16 0
21 16 0
22 16 0
23 16 0
24 16 0
25 16 0
26 16 0
27 16 0
28 16 0
29 16 0
30 16 0
31 16 0
32 16 0
33 16 0
34 16 0
35 16 0
36 16 0
37 16 0
38 16 0
39 16 0
40 16 0
41 16 0
42 16 0
43 16 0
44 16 0
45 16 0
46 16 0
47 16 0
48 16 0
49 16 0
50 16 0
51 16 0
52 16 0
53 16 0
54 16 0
55 16 0
56 16 0
57 16 0
58 16 0
59 16 0
60 16 0
61 16 0
62 16 0
63 16 0
64 16 0
65 16 0
66 16 0
67 16 0
68 16 0
69 16 0
70 16 0
71 16 0
72 16 0
73 16 0
74 16 0
75 16 0
76 16 0
77 16 0
78 16 0
79 16 0
80 16 0
81 16 0
82 16 0
83 16 0
84 16 0
85 16 0
86 16 0
87 16 0
88 16 0
89 16 0
90 16 0
91 16 0
92 16 0
93 16 0
94 16 0
95 16 0
96 16 0
97 16 0
98 16 0
99 16 0
100 16 0
101 16 0
102 16 0
103 16 0
104 16 0
105 16 0
106 16 0
107 16 0
108 16 0
109 16 0
110 16 0
111 16 0
112 16 0
113 16 0
114 16 0
115 16 0
116 16 0
117 16 0
118 16 0
119 16 0
120 16 0
1 17 0
2 17 0
3 17 0
4 17 0
5 17 0
6 17 0
7 17 0
8 17 0
9 17 0
10 17 0
11 17 0
12 17 0
13 17 0
14 17 0
15 17 0
16 17 0
17 17 0
18 17 0
19 17 0
20 17 0
21 17 0
22 17 0
23 17 0
24 17 0
25 17 0
26 17 0
27 17 0
28 17 0
29 17 0
30 17 0
31 17 0
32 17 0
33 17 0
34 17 0
35 17 0
36 17 0
37 17 0
38 17 0
39 17 0
40 17 0
41 17 0
42 17 0
43 17 0
44 17 0
45 17 0
46 17 0
47 17 0
48 17 0
49 17 0
50 17 0
51 17 0
52 17 0
53 17 0
54 17 0
55 17 0
56 17 0
57 17 0
58 17 0
59 17 0
60 17 0
61 17 0
62 17 0
63 17 0
64 17 0
65 17 0
66 17 0
67 17 0
68 17 0
69 17 0
70 17 0
71 17 0
72 17 0
73 17 0
74 17 0
75 17 0
76 17 0
77 17 0
78 17 0
79 17 0
80 17 0
81 17 0
82 17 0
83 17 0
84 17 0
85 17 0
86 17 0
87 17 0
88 17 0
89 17 0
90 17 0
91 17 0
92 17 0
93 17 0
94 17 0
95 17 0
96 17 0
97 17 0
98 17 0
99 17 0
100 17 0
101 17 0
102 17 0
103 17 0
104 17 0
105 17 0
106 17 0
107 17 0
108 17 0
109 17 0
110 17 0
111 17 0
112 17 0
113 17 0
114 17 0
115 17 0
116 17 0
117 17 0
118 17 0
119 17 0
120 17 0
1 18 0
2 18 0
3 18 0
4 18 0
5 18 0
6 18 0
7 18 0
8 18 0
9 18 0
10 18 0
11 18 0
12 18 0
13 18 0
14 18 0
15 18 0
16 18 0
17 18 0
18 18 0
19 18 0
20 18 0
21 18 0
22 18 0
23 18 0
24 18 0
25 18 0
26 18 0
27 18 0
28 18 0
29 18 0
30 18 0
31 18 0
32 18 0
33 18 0
34 18 0
35 18 0
36 18 0
37 18 0
38 18 0
39 18 0
40 18 0
41 18 0
42 18 0
43 18 0
44 18 0
45 18 0
46 18 0
47 18 0
48 18 0
49 18 0
50 18 0
51 18 0
52 18 0
53 18 0
54 18 0
55 18 0
56 18 0
57 18 0
58 18 0
59 18 0
60 18 0
61 18 0
62 18 0
63 18 0
64 18 0
65 18 0
66 18 0
67 18 0
68 18 0
69 18 0
70 18 0
71 18 0
72 18 0
73 18 0
74 18 0
75 18 0
76 18 0
77 18 0
78 18 0
79 18 0
80 18 0
81 18 0
82 18 0
83 18 0
84 18 0
85 18 0
86 18 0
87 18 0
88 18 0
89 18 0
90 18 0
91 18 0
92 18 0
93 18 0
94 18 0
95 18 0
96 18 0
97 18 0
98 18 0
99 18 0
100 18 0
101 18 0
102 18 0
103 18 0
104 18 0
105 18 0
106 18 0
107 18 0
108 18 0
109 18 0
110 18 0
111 18 0
112 18 0
113 18 0
114 18 0
115 18 0
116 18 0
117 18 0
118 18 0
119 18 0
120 18 0
1 19 0
2 19 0
3 19 0
4 19 0
5 19 0
6 19 0
7 19 0
8 19 0
9 19 0
10 19 0
11 19 0
12 19 0
13 19 0
14 19 0
15 19 0
16 19 0
17 19 0
18 19 0
19 19 0
20 19 0
21 19 0
22 19 0
23 19 0
24 19 0
25 19 0
26 19 0
27 19 0
28 19 0
29 19 0
30 19 0
31 19 0
32 19 0
33 19 0
34 19 0
35 19 0
36 19 0
37 19 0
38 19 0
39 19 0
40 19 0
41 19 0
42 19 0
43 19 0
44 19 0
45 19 0
46 19 0
47 19 0
48 19 0
49 19 0
50 19 0
51 19 0
52 19 0
53 19 0
54 19 0
55 19 0
56 19 0
57 19 0
58 19 0
59 19 0
60 19 0
61 19 0
62 19 0
63 19 0
64 19 0
65 19 0
66 19 0
67 19 0
68 19 0
69 19 0
70 19 0
71 19 0
72 19 0
73 19 0
74 19 0
75 19 0
76 19 0
77 19 0
78 19 0
79 19 0
80 19 0
81 19 0
82 19 0
83 19 0
84 19 0
85 19 0
86 19 0
87 19 0
88 19 0
89 19 0
90 19 0
91 19 0
92 19 0
93 19 0
94 19 0
95 19 0
96 19 0
97 19 0
98 19 0
99 19 0
100 19 0
101 19 0
102 19 0
103 19 0
104 19 0
105 19 0
106 19 0
107 19 0
108 19 0
109 19 0
110 19 0
111 19 0
112 19 0
113 19 0
114 19 0
115 19 0
116 19 0
117 19 0
118 19 0
119 19 0
120 19 0
1 20 0
2 20 0
3 20 0
4 20 0
5 20 0
6 20 0.99722501540774111
7 20 0
8 20 0
9 20 0
10 20 0
11 20 0
12 20 0
13 20 0
14 20 0
15 20 0
16 20 0
17 20 0
18 20 0
19 20 0
20 20 0
21 20 0
22 20 0
23 20 0
24 20 0
25 20 0
26 20 0
27 20 0
28 20 0
29 20 0
30 20 0
31 20 0
32 20 0
33 20 0
34 20 0
35 20 0
36 20 0
37 20 0
38 20 0
39 20 0
40 20 0
41 20 0
42 20 0
43 20 0
44 20 0
45 20 0
46 20 0
47 20 0
48 20 0
49 20 0
50 20 0
51 20 0
52 20 0
53 20 0
54 20 0
55 20 0
56 20 0
57 20 0
58 20 0
59 20 0
60 20 0
61 20 0
62 20 0
63 20 0
64 20 0
65 20 0
66 20 0
67 20 0
68 20 0
69 20 0
70 20 0
71 20 0
72 20 0
73 20 0
74 20 0
75 20 0
76 20 0
77 20 0
78 20 0
79 20 0
80 20 0
81 20 0
82 20 0
83 20 0
84 20 0
85 20 0
86 20 0
87 20 0
88 20 0
89 20 0
90 20 0
91 20 0
92 20 0
93 20 0
94 20 0
95 20 0
96 20 0
97 20 0
98 20 0
99 20 0
100 20 0
101 20 0
102 20 0
103 20 0
104 20 0
105 20 0
106 20 0
107 20 0
108 20 0
109 20 0
110 20 0
111 20 0
112 20 0
113 20 0
114 20 0
115 20 0
116 20 0
117 20 0
118 20 0
119 20 0
120 20 0
1 21 0
2 21 0
3 21 0
4 21 0
5 21 0
6 21 0
7 21 0.99722501540774111
8 21 0
9 21 0
10 21 0
11 21 0
12 21 0
13 21 0
14 21 0
15 21 0
16 21 0
17 21 0
18 21 0
19 21 0
20 21 0
21 21 0
22 21 0
23 21 0
24 21 0
25 21 0
26 21 0
27 21 0
28 21 0
29 21 0
30 21 0
31 21 0
32 21 0
33 21 0
34 21 0
35 21 0
36 21 0
37 21 0
38 21 0
39 21 0
40 21 0
41 21 0
42 21 0
43 21 0
44 21 0
45 21 0
46 21 0
47 21 0
48 21 0
49 21 0
50 21 0
51 21 0
52 21 0
53 21 0
54 21 0
55 21 0
56 21 0
57 21 0
58 21 0
59 21 0
60 21 0
61 21 0
62 21 0
63 21 0
64 21 0
65 21 0
66 21 0
67 21 0
68 21 0
69 21 0
70 21 0
71 21 0
72 21 0
73 21 0
74 21 0
75 21 0
76 21 0
77 21 0
78 21 0
79 21 0
80 21 0
81 21 0
82 21 0
83 21 0
84 21 0
85 21 0
86 21 0
87 21 0
88 21 0
89 21 0
90 21 0
91 21 0
92 21 0
93 21 0
94 21 0
95 21 0
96 21 0
97 21 0
98 21 0
99 21 0
100 21 0
101 21 0
102 21 0
103 21 0
104 21 0
105 21 0
106 21 0
107 21 0
108 21 0
109 21 0
110 21 0
111 21 0
112 21 0
113 21 0
114 21 0
115 21 0
116 21 0
117 21 0
118 21 0
119 21 0
120 21 0
1 22 0
2 22 0
3 22 0
4 22 0
5 22 0
6 22 0
7 22 0
8 22 0.99722501540774111
9 22 0
10 22 0
11 22 0
12 22 0
13 22 0
14 22 0
15 22 0
16 22 0
17 22 0
18 22 0
19 22 0
20 22 0
21 22 0
22 22 0
23 22 0
24 22 0
25 22 0
26 22 0
27 22 0
28 22 0
29 22 0
30 22 0
31 22 0
32 22 0
33 22 0
34 22 0
35 22 0
36 22 0
37 22 0
38 22 0
39 22 0
40 22 0
41 22 0
42 22 0
43 22 0
44 22 0
45 22 0
46 22 0
47 22 0
48 22 0
49 22 0
50 22 0
51 22 0
52 22 0
53 22 0
54 22 0
55 22 0
56 22 0
57 22 0
58 22 0
59 22 0
60 22 0
61 22 0
62 22 0
63 22 0
64 22 0
65 22 0
66 22 0
67 22 0
68 22 0
69 22 0
70 22 0
71 22 0
72 22 0
73 22 0
74 22 0
75 22 0
76 22 0
77 22 0
78 22 0
79 22 0
80 22 0
81 22 0
82 22 0
83 22 0
84 22 0
85 22 0
86 22 0
87 22 0
88 22 0
89 22 0
90 22 0
91 22 0
92 22 0
93 22 0
94 22 0
95 22 0
96 22 0
97 22 0
98 22 0
99 22 0
100 22 0
101 22 0
102 22 0
103 22 0
104 22 0
105 22 0
106 22 0
107 22 0
108 22 0
109 22 0
110 22 0
111 22 0
112 22 0
113 22 0
114 22 0
115 22 0
116 22 0
117 22 0
118 22 0
119 22 0
120 22 0
1 23 0
2 23 0
3 23 0
4 23 0
5 23 0
6 23 0
7 23 0
8 23 0
9 23 0.99722501540774111
10 23 0
11 23 0
12 23 0
13 23 0
14 23 0
15 23 0
16 23 0
17 23 0
18 23 0
19 23 0
20 23 0
21 23 0
22 23 0
23 23 0
24 23 0
25 23 0
26 23 0
27 23 0
28 23 0
29 23 0
30 23 0
31 23 0
32 23 0
33 23 0
34 23 0
35 23 0
36 23 0
37 23 0
38 23 0
39 23 0
40 23 0
41 23 0
42 23 0
43 23 0
44 23 0
45 23 0
46 23 0
47 23 0
48 23 0
49 23 0
50 23 0
51 23 0
52 23 0
53 23 0
54 23 0
55 23 0
56 23 0
57 23 0
58 23 0
59 23 0
60 23 0
61 23 0
62 23 0
63 23 0
64 23 0
65 23 0
66 23 0
67 23 0
68 23 0
69 23 0
70 23 0
71 23 0
72 23 0
73 23 0
74 23 0
75 23 0
76 23 0
77 23 0
78 23 0
79 23 0
80 23 0
81 23 0
82 23 0
83 23 0
84 23 0
85 23 0
86 23 0
87 23 0
88 23 0
89 23 0
90 23 0
91 23 0
92 23 0
93 23 0
94 23 0
95 23 0
96 23 0
97 23 0
98 23 0
99 23 0
100 23 0
101 23 0
102 23 0
103 23 0
104 23 0
105 23 0
106 23 0
107 23 0
108 23 0
109 23 0
110 23 0
111 23 0
112 23 0
113 23 0
114 23 0
115 23 0
116 23 0
117 23 0
118 23 0
119 23 0
120 23 0
1 24 0
2 24 0
3 24 0
4 24 0
5 24 0
6 24 0
7 24 0
8 24 0
9 24 0
10 24 0.99722501540774111
11 24 0
12 24 0
13 24 0
14 24 0
15 24 0
16 24 0
17 24 0
18 24 0
19 24 0
20 24 0
21 24 0
22 24 0
23 24 0
24 24 0
25 24 0
26 24 0
27 24 0
28 24 0
29 24 0
30 24 0
31 24 0
32 24 0
33 24 0
34 24 0
35 24 0
36 24 0
37 24 0
38 24 0
39 24 0
40 24 0
41 24 0
42 24 0
43 24 0
44 24 0
45 24 0
46 24 0
47 24 0
48 24 0
49 24 0
50 24 0
51 24 0
52 24 0
53 24 0
54 24 0
55 24 0
56 24 0
57 24 0
58 24 0
59 24 0
60 24 0
61 24 0
62 24 0
63 24 0
64 24 0
65 24 0
66 24 0
67 24 0
68 24 0
69 24 0
70 24 0
71 24 0
72 24 0
73 24 0
74 24 0
75 24 0
76 24 0
77 24 0
78 24 0
79 24 0
80 24 0
81 24 0
82 24 0
83 24 0
84 24 0
85 24 0
86 24 0
87 24 0
88 24 0
89 24 0
90 24 0
91 24 0
92 24 0
93 24 0
94 24 0
95 24 0
96 24 0
97 24 0
98 24 0
99 24 0
100 24 0
101 24 0
102 24 0
103 24 0
104 24 0
105 24 0
106 24 0
107 24 0
108 24 0
109 24 0
110 24 0
111 24 0
112 24 0
113 24 0
114 24 0
115 24 0
116 24 0
117 24 0
118 24 0
119 24 0
120 24 0
1 25 0
2 25 0
3 25 0
4 25 0
5 25 0
6 25 0
7 25 0
8 25 0
9 25 0
10 25 0
11 25 0
12 25 0
13 25 0
14 25 0
15 25 0
16 25 0
17 25 0
18 25 0
19 25 0
20 25 0
21 25 0
22 25 0
23 25 0
24 25 0
25 25 0
26 25 0
27 25 0
28 25 0
29 25 0
30 25 0
31 25 0
32 25 0
33 25 0
34 25 0
35 25 0
36 25 0
37 25 0
38 25 0
39 25 0
40 25 0
41 25 0
42 25 0
43 25 0
44 25 0
45 25 0
46 25 0
47 25 0
48 25 0
49 25 0
50 25 0
51 25 0
52 25 0
53 25 0
54 25 0
55 25 0
56 25 0
57 25 0
58 25 0
59 25 0
60 25 0
61 25 0
62 25 0
63 25 0
64 25 0
65 25 0
66 25 0
67 25 0
68 25 0
69 25 0
70 25 0
71 25 0
72 25 0
73 25 0
74 25 0
75 25 0
76 25 0
77 25 0
78 25 0
79 25 0
80 25 0
81 25 0
82 25 0
83 25 0
84 25 0
85 25 0
86 25 0
87 25 0
88 25 0
89 25 0
90 25 0
91 25 0
92 25 0
93 25 0
94 25 0
95 25 0
96 25 0
97 25 0
98 25 0
99 25 0
100 25 0
101 25 0
102 25 0
103 25 0
104 25 0
105 25 0
106 25 0
107 25 0
108 25 0
109 25 0
110 25 0
111 25 0
112 25 0
113 25 0
114 25 0
115 25 0
116 25 0
117 25 0
118 25 0
119 25 0
120 25 0
1 26 0
2 26 0
3 26 0
4 26 0
5 26 0
6 26 0
7 26 0
8 26 0
9 26 0
10 26 0
11 26 0
12 26 0
13 26 0
14 26 0
15 26 0
16 26 0
17 26 0
18 26 0
19 26 0
20 26 0
21 26 0
22 26 0
23 26 0
24 26 0
25 26 0
26 26 0
27 26 0
28 26 0
29 26 0
30 26 0
31 26 0
32 26 0
33 26 0
34 26 0
35 26 0
36 26 0
37 26 0
38 26 0
39 26 0
40 26 0
41 26 0
42 26 0
43 26 0
44 26 0
45 26 0
46 26 0
47 26 0
48 26 0
49 26 0
50 26 0
51 26 0
52 26 0
53 26 0
54 26 0
55 26 0
56 26 0
57 26 0
58 26 0
59 26 0
60 26 0
61 26 0
62 26 0
63 26 0
64 26 0
65 26 0
66 26 0
67 26 0
68 26 0
69 26 0
70 26 0
71 26 0
72 26 0
73 26 0
74 26 0
75 26 0
76 26 0
77 26 0
78 26 0
79 26 0
80 26 0
81 26 0
82 26 0
83 26 0
84 26 0
85 26 0
86 26 0
87 26 0
88 26 0
89 26 0
90 26 0
91 26 0
92 26 0
93 26 0
94 26 0
95 26 0
96 26 0
97 26 0
98 26 0
99 26 0
100 26 0
101 26 0
102 26 0
103 26 0
104 26 0
105 26 0
106 26 0
107 26 0
108 26 0
109 26 0
110 26 0
111 26 0
112 26 0
113 26 0
114 26 0
115 26 0
116 26 0
117 26 0
118 26 0
119 26 0
120 26 0
1 27 0
2 27 0
3 27 0
4 27 0
5 27 0
6 27 0
7 27 0
8 27 0
9 27 0
10 27 0
11 27 0
12 27 0
13 27 0
14 27 0
15 27 0
16 27 0
17 27 0
18 27 0
19 27 0
20 27 0
21 27 0
22 27 0
23 27 0
24 27 0
25 27 0
26 27 0
27 27 0
28 27 0
29 27 0
30 27 0
31 27 0
32 27 0
33 27 0
34 27 0
35 27 0
36 27 0
37 27 0
38 27 0
39 27 0
40 27 0
41 27 0
42 27 0
43 27 0
44 27 0
45 27 0
46 27 0
47 27 0
48 27 0
49 27 0
50 27 0
51 27 0
52 27 0
53 27 0
54 27 0
55 27 0
56 27 0
57 27 0
58 27 0
59 27 0
60 27 0
61 27 0
62 27 0
63 27 0
64 27 0
65 27 0
66 27 0
67 27 0
68 27 0
69 27 0
70 27 0
71 27 0
72 27 0
73 27 0
74 27 0
75 27 0
76 27 0
77 27 0
78 27 0
79 27 0
80 27 0
81 27 0
82 27 0
83 27 0
84 27 0
85 27 0
86 27 0
87 27 0
88 27 0
89 27 0
90 27 0
91 27 0
92 27 0
93 27 0
94 27 0
95 27 0
96 27 0
97 27 0
98 27 0
99 27 0
100 27 0
101 27 0
102 27 0
103 27 0
104 27 0
105 27 0
106 27 0
107 27 0
108 27 0
109 27 0
110 27 0
111 27 0
112 27 0
113 27 0
114 27 0
115 27 0
116 27 0
117 27 0
118 27 0
119 27 0
120 27 0
1 28 0
2 28 0
3 28 0
4 28 0
5 28 0
6 28 0
7 28 0
8 28 0
9 28 0
10 28 0
11 28 0
12 28 0
13 28 0
14 28 0
15 28 0
16 28 0
17 28 0
18 28 0
19 28 0
20 28 0
21 28 0
22 28 0
23 28 0
24 28 0
25 28 0
26 28 0
27 28 0
28 28 0
29 28 0
30 28 0
31 28 0
32 28 0
33 28 0
34 28 0
35 28 0
36 28 0
37 28 0
38 28 0
39 28 0
40 28 0
41 28 0
42 28 0
43 28 0
44 28 0
45 28 0
46 28 0
47 28 0
48 28 0
49 28 0
50 28 0
51 28 0
52 28 0
53 28 0
54 28 0
55 28 0
56 28 0
57 28 0
58 28 0
59 28 0
60 28 0
61 28 0
62 28 0
63 28 0
64 28 0
65 28 0
66 28 0
67 28 0
68 28 0
69 28 0
70 28 0
71 28 0
72 28 0
73 28 0
74 28 0
75 28 0
76 28 0
77 28 0
78 28 0
79 28 0
80 28 0
81 28 0
82 28 0
83 28 0
84 28 0
85 28 0
86 28 0
87 28 0
88 28 0
89 28 0
90 28 0
91 28 0
92 28 0
93 28 0
94 28 0
95 28 0
96 28 0
97 28 0
98 28 0
99 28 0
100 28 0
101 28 0
102 28 0
103 28 0
104 28 0
105 28 0
106 28 0
107 28 0
108 28 0
109 28 0
110 28 0
111 28 0
112 28 0
113 28 0
114 28 0
115 28 0
116 28 0
117 28 0
118 28 0
119 28 0
120 28 0
1 29 0
2 29 0
3 29 0
4 29 0
5 29 0
6 29 0
7 29 0
8 29 0
9 29 0
10 29 0
11 29 0
12 29 0
13 29 0
14 29 0
15 29 0
16 29 0
17 29 0
18 29 0
19 29 0
20 29 0
21 29 0
22 29 0
23 29 0
24 29 0
25 29 0
26 29 0
27 29 0
28 29 0
29 29 0
30 29 0
31 29 0
32 29 0
33 29 0
34 29 0
35 29 0
36 29 0
37 29 0
38 29 0
39 29 0
40 29 0
41 29 0
42 29 0
43 29 0
44 29 0
45 29 0
46 29 0
47 29 0
48 29 0
49 29 0
50 29 0
51 29 0
52 29 0
53 29 0
54 29 0
55 29 0
56 29 0
57 29 0
58 29 0
59 29 0
60 29 0
61 29 0
62 29 0
63 29 0
64 29 0
65 29 0
66 29 0
67 29 0
68 29 0
69 29 0
70 29 0
71 29 0
72 29 0
73 29 0
74 29 0
75 29 0
76 29 0
77 29 0
78 29 0
79 29 0
80 29 0
81 29 0
82 29 0
83 29 0
84 29 0
85 29 0
86 29 0
87 29 0
88 29 0
89 29 0
90 29 0
91 29 0
92 29 0
93 29 0
94 29 0
95 29 0
96 29 0
97 29 0
98 29 0
99 29 0
100 29 0
101 29 0
102 29 0
103 29 0
104 29 0
105 29 0
106 29 0
107 29 0
108 29 0
109 29 0
110 29 0
111 29 0
112 29 0
113 29 0
114 29 0
115 29 0
116 29 0
117 29 0
118 29 0
119 29 0
120 29 0
1 30 0
2 30 0
3 30 0
4 30 0
5 30 0
6 30 0
7 30 0
8 30 0
9 30 0
10 30 0
11 30 0
12 30 0
13 30 0
14 30 0
15 30 0
16 30 0
17 30 0
18 30 0
19 30 0
20 30 0
21 30 0
22 30 0
23 30 0
24 30 0
25 30 0
26 30 0
27 30 0
28 30 0
29 30 0
30 30 0
31 30 0
32 30 0
33 30 0
34 30 0
35 30 0
36 30 0
37 30 0
38 30 0
39 30 0
40 30 0
41 30 0
42 30 0
43 30 0
44 30 0
45 30 0
46 30 0
47 30 0
48 30 0
49 30 0
50 30 0
51 30 0
52 30 0
53 30 0
54 30 0
55 30 0
56 30 0
57 30 0
58 30 0
59 30 0
60 30 0
61 30 0
62 30 0
63 30 0
64 30 0
65 30 0
66 30 0
67 30 0
68 30 0
69 30 0
70 30 0
71 30 0
72 30 0
73 30 0
74 30 0
75 30 0
76 30 0
77 30 0
78 30 0
79 30 0
80 30 0
81 30 0
82 30 0
83 30 0
84 30 0
85 30 0
86 30 0
87 30 0
88 30 0
89 30 0
90 30 0
91 30 0
92 30 0
93 30 0
94 30 0
95 30 0
96 30 0
97 30 0
98 30 0
99 30 0
100 30 0
101 30 0
102 30 0
103 30 0
104 30 0
105 30 0
106 30 0
107 30 0
108 30 0
109 30 0
110 30 0
111 30 0
112 30 0
113 30 0
114 30 0
115 30 0
116 30 0
117 30 0
118 30 0
119 30 0
120 30 0
1 31 0
2 31 0
3 31 0
4 31 0
5 31 0
6 31 0
7 31 0
8 31 0
9 31 0
10 31 0
11 31 0
12 31 0
13 31 0
14 31 0
15 31 0
16 31 0
17 31 0
18 31 0
19 31 0
20 31 0
21 31 0
22 31 0
23 31 0
24 31 0
25 31 0
26 31 0
27 31 0
28 31 0
29 31 0
30 31 0
31 31 0
32 31 0
33 31 0
34 31 0
35 31 0
36 31 0
37 31 0
38 31 0
39 31 0
40 31 0
41 31 0
42 31 0
43 31 0
44 31 0
45 31 0
46 31 0
47 31 0
48 31 0
49 31 0
50 31 0
51 31 0
52 31 0
53 31 0
54 31 0
55 31 0
56 31 0
57 31 0
58 31 0
59 31 0
60 31 0
61 31 0
62 31 0
63 31 0
64 31 0
65 31 0
66 31 0
67 31 0
68 31 0
69 31 0
70 31 0
71 31 0
72 31 0
73 31 0
74 31 0
75 31 0
76 31 0
77 31 0
78 31 0
79 31 0
80 31 0
81 31 0
82 31 0
83 31 0
84 31 0
85 31 0
86 31 0
87 31 0
88 31 0
89 31 0
90 31 0
91 31 0
92 31 0
93 31 0
94 31 0
95 31 0
96 31 0
97 31 0
98 31 0
99 31 0
100 31 0
101 31 0
102 31 0
103 31 0
104 31 0
105 31 0
106 31 0
107 31 0
108 31 0
109 31 0
110 31 0
111 31 0
112 31 0
113 31 0
114 31 0
115 31 0
116 31 0
117 31 0
118 31 0
119 31 0
120 31 0
1 32 0
2 32 0
3 32 0
4 32 0
5 32 0
6 32 0
7 32 0
8 32 0
9 32 0
10 32 0
11 32 0.99722501540774111
12 32 0
13 32 0
14 32 0
15 32 0
16 32 0
17 32 0
18 32 0
19 32 0
20 32 0
21 32 0
22 32 0
23 32 0
24 32 0
25 32 0
26 32 0
27 32 0
28 32 0
29 32 0
30 32 0
31 32 0
32 32 0
33 32 0
34 32 0
35 32 0
36 32 0
37 32 0
38 32 0
39 32 0
40 32 0
41 32 0
42 32 0
43 32 0
44 32 0
45 32 0
46 32 0
47 32 0
48 32 0
49 32 0
50 32 0
51 32 0
52 32 0
53 32 0
54 32 0
55 32 0
56 32 0
57 32 0
58 32 0
59 32 0
60 32 0
61 32 0
62 32 0
63 32 0
64 32 0
65 32 0
66 32 0
67 32 0
68 32 0
69 32 0
70 32 0
71 32 0
72 32 0
73 32 0
74 32 0
75 32 0
76 32 0
77 32 0
78 32 0
79 32 0
80 32 0
81 32 0
82 32 0
83 32 0
84 32 0
85 32 0
86 32 0
87 32 0
88 32 0
89 32 0
90 32 0
91 32 0
92 32 0
93 32 0
94 32 0
95 32 0
96 32 0
97 32 0
98 32 0
99 32 0
100 32 0
101 32 0
102 32 0
103 32 0
104 32 0
105 32 0
106 32 0
107 32 0
108 32 0
109 32 0
110 32 0
111 32 0
112 32 0
113 32 0
114 32 0
115 32 0
116 32 0
117 32 0
118 32 0
119 32 0
120 32 0
1 33 0
2 33 0
3 33 0
4 33 0
5 33 0
6 33 0
7 33 0
8 33 0
9 33 0
10 33 0
11 33 0
12 33 0.99722501540774111
13 33 0
14 33 0
15 33 0
16 33 0
17 33 0
18 33 0
19 33 0
20 33 0
21 33 0
22 33 0
23 33 0
24 33 0
25 33 0
26 33 0
27 33 0
28 33 0
29 33 0
30 33 0
31 33 0
32 33 0
33 33 0
34 33 0
35 33 0
36 33 0
37 33 0
38 33 0
39 33 0
40 33 0
41 33 0
42 33 0
43 33 0
44 33 0
45 33 0
46 33 0
47 33 0
48 33 0
49 33 0
50 33 0
51 33 0
52 33 0
53 33 0
54 33 0
55 33 0
56 33 0
57 33 0
58 33 0
59 33 0
60 33 0
61 33 0
62 33 0
63 33 0
64 33 0
65 33 0
66 33 0
67 33 0
68 33 0
69 33 0
70 33 0
71 33 0
72 33 0
73 33 0
74 33 0
75 33 0
76 33 0
77 33 0
78 33 0
79 33 0
80 33 0
81 33 0
82 33 0
83 33 0
84 33 0
85 33 0
86 33 0
87 33 0
88 33 0
89 33 0
90 33 0
91 33 0
92 33 0
93 33 0
94 33 0
95 33 0
96 33 0
97 33 0
98 33 0
99 33 0
100 33 0
101 33 0
102 33 0
103 33 0
104 33 0
105 33 0
106 33 0
107 33 0
108 33 0
109 33 0
110 33 0
111 33 0
112 33 0
113 33 0
114 33 0
115 33 0
116 33 0
117 33 0
118 33 0
119 33 0
120 33 0
1 34 0
2 34 0
3 34 0
4 34 0
5 34 0
6 34 0
7 34 0
8 34 0
9 34 0
10 34 0
11 34 0
12 34 0
13 34 0.99722501540774111
14 34 0
15 34 0
16 34 0
17 34 0
18 34 0
19 34 0
20 34 0
21 34 0
22 34 0
23 34 0
24 34 0
25 34 0
26 34 0
27 34 0
28 34 0
29 34 0
30 34 0
31 34 0
32 34 0
33 34 0
34 34 0
35 34 0
36 34 0
37 34 0
38 34 0
39 34 0
40 34 0
41 34 0
42 34 0
43 34 0
44 34 0
45 34 0
46 34 0
47 34 0
48 34 0
49 34 0
50 34 0
51 34 0
52 34 0
53 34 0
54 34 0
55 34 0
56 34 0
57 34 0
58 34 0
59 34 0
60 34 0
61 34 0
62 34 0
63 34 0
64 34 0
65 34 0
66 34 0
67 34 0
68 34 0
69 34 0
70 34 0
71 34 0
72 34 0
73 34 0
74 34 0
75 34 0
76 34 0
77 34 0
78 34 0
79 34 0
80 34 0
81 34 0
82 34 0
83 34 0
84 34 0
85 34 0
86 34 0
87 34 0
88 34 0
89 34 0
90 34 0
91 34 0
92 34 0
93 34 0
94 34 0
95 34 0
96 34 0
97 34 0
98 34 0
99 34 0
100 34 0
101 34 0
102 34 0
103 34 0
104 34 0
105 34 0
106 34 0
107 34 0
108 34 0
109 34 0
110 34 0
111 34 0
112 34 0
113 34 0
114 34 0
115 34 0
116 34 0
117 34 0
118 34 0
119 34 0
120 34 0
1 35 0
2 35 0
3 35 0
4 35 0
5 35 0
6 35 0
7 35 0
8 35 0
9 35 0
10 35 0
11 35 0
12 35 0
13 35 0
14 35 0.99722501540774111
15 35 0
16 35 0
17 35 0
18 35 0
19 35 0
20 35 0
21 35 0
22 35 0
23 35 0
24 35 0
25 35 0
26 35 0
27 35 0
28 35 0
29 35 0
30 35 0
31 35 0
32 35 0
33 35 0
34 35 0
35 35 0
36 35 0
37 35 0
38 35 0
39 35 0
40 35 0
41 35 0
42 35 0
43 35 0
44 35 0
45 35 0
46 35 0
47 35 0
48 35 0
49 35 0
50 35 0
51 35 0
52 35 0
53 35 0
54 35 0
55 35 0
56 35 0
57 35 0
58 35 0
59 35 0
60 35 0
61 35 0
62 35 0
63 35 0
64 35 0
65 35 0
66 35 0
67 35 0
68 35 0
69 35 0
70 35 0
71 35 0
72 35 0
73 35 0
74 35 0
75 35 0
76 35 0
77 35 0
78 35 0
79 35 0
80 35 0
81 35 0
82 35 0
83 35 0
84 35 0
85 35 0
86 35 0
87 35 0
88 35 0
89 35 0
90 35 0
91 35 0
92 35 0
93 35 0
94 35 0
95 35 0
96 35 0
97 35 0
98 35 0
99 35 0
100 35 0
101 35 0
102 35 0
103 35 0
104 35 0
105 35 0
106 35 0
107 35 0
108 35 0
109 35 0
110 35 0
111 35 0
112 35 0
113 35 0
114 35 0
115 35 0
116 35 0
117 35 0
118 35 0
119 35 0
120 35 0
1 36 0
2 36 0
3 36 0
4 36 0
5 36 0
6 36 0
7 36 0
8 36 0
9 36 0
10 36 0
11 36 0
12 36 0
13 36 0
14 36 0
15 36 0.99722501540774111
16 36 0
17 36 0
18 36 0
19 36 0
20 36 0
21 36 0
22 36 0
23 36 0
24 36 0
25 36 0
26 36 0
27 36 0
28 36 0
29 36 0
30 36 0
31 36 0
32 36 0
33 36 0
34 36 0
35 36 0
36 36 0
37 36 0
38 36 0
39 36 0
40 36 0
41 36 0
42 36 0
43 36 0
44 36 0
45 36 0
46 36 0
47 36 0
48 36 0
49 36 0
50 36 0
51 36 0
52 36 0
53 36 0
54 36 0
55 36 0
56 36 0
57 36 0
58 36 0
59 36 0
60 36 0
61 36 0
62 36 0
63 36 0
64 36 0
65 36 0
66 36 0
67 36 0
68 36 0
69 36 0
70 36 0
71 36 0
72 36 0
73 36 0
74 36 0
75 36 0
76 36 0
77 36 0
78 36 0
79 36 0
80 36 0
81 36 0
82 36 0
83 36 0
84 36 0
85 36 0
86 36 0
87 36 0
88 36 0
89 36 0
90 36 0
91 36 0
92 36 0
93 36 0
94 36 0
95 36 0
96 36 0
97 36 0
98 36 0
99 36 0
100 36 0
101 36 0
102 36 0
103 36 0
104 36 0
105 36 0
106 36 0
107 36 0
108 36 0
109 36 0
110 36 0
111 36 0
112 36 0
113 36 0
114 36 0
115 36 0
116 36 0
117 36 0
118 36 0
119 36 0
120 36 0
1 37 0
2 37 0
3 37 0
4 37 0
5 37 0
6 37 0
7 37 0
8 37 0
9 37 0
10 37 0
11 37 0
12 37 0
13 37 0
14 37 0
15 37 0
16 37 0
17 37 0
18 37 0
19 37 0
20 37 0
21 37 0
22 37 0
23 37 0
24 37 0
25 37 0
26 37 0
27 37 0
28 37 0
29 37 0
30 37 0
31 37 0
32 37 0
33 37 0
34 37 0
35 37 0
36 37 0
37 37 0
38 37 0
39 37 0
40 37 0
41 37 0
42 37 0
43 37 0
44 37 0
45 37 0
46 37 0
47 37 0
48 37 0
49 37 0
50 37 0
51 37 0
52 37 0
53 37 0
54 37 0
55 37 0
56 37 0
57 37 0
58 37 0
59 37 0
60 37 0
61 37 0
62 37 0
63 37 0
64 37 0
65 37 0
66 37 0
67 37 0
68 37 0
69 37 0
70 37 0
71 37 0
72 37 0
73 37 0
74 37 0
75 37 0
76 37 0
77 37 0
78 37 0
79 37 0
80 37 0
81 37 0
82 37 0
83 37 0
84 37 0
85 37 0
86 37 0
87 37 0
88 37 0
89 37 0
90 37 0
91 37 0
92 37 0
93 37 0
94 37 0
95 37 0
96 37 0
97 37 0
98 37 0
99 37 0
100 37 0
101 37 0
102 37 0
103 37 0
104 37 0
105 37 0
106 37 0
107 37 0
108 37 0
109 37 0
110 37 0
111 37 0
112 37 0
113 37 0
114 37 0
115 37 0
116 37 0
117 37 0
118 37 0
119 37 0
120 37 0
1 38 0
2 38 0
3 38 0
4 38 0
5 38 0
6 38 0
7 38 0
8 38 0
9 38 0
10 38 0
11 38 0
12 38 0
13 38 0
14 38 0
15 38 0
16 38 0
17 38 0
18 38 0
19 38 0
20 38 0
21 38 0
22 38 0
23 38 0
24 38 0
25 38 0
26 38 0
27 38 0
28 38 0
29 38 0
30 38 0
31 38 0
32 38 0
33 38 0
34 38 0
35 38 0
36 38 0
37 38 0
38 38 0
39 38 0
40 38 0
41 38 0
42 38 0
43 38 0
44 38 0
45 38 0
46 38 0
47 38 0
48 38 0
49 38 0
50 38 0
51 38 0
52 38 0
53 38 0
54 38 0
55 38 0
56 38 0
57 38 0
58 38 0
59 38 0
60 38 0
61 38 0
62 38 0
63 38 0
64 38 0
65 38 0
66 38 0
67 38 0
68 38 0
69 38 0
70 38 0
71 38 0
72 38 0
73 38 0
74 38 0
75 38 0
76 38 0
77 38 0
78 38 0
79 38 0
80 38 0
81 38 0
82 38 0
83 38 0
84 38 0
85 38 0
86 38 0
87 38 0
88 38 0
89 38 0
90 38 0
91 38 0
92 38 0
93 38 0
94 38 0
95 38 0
96 38 0
97 38 0
98 38 0
99 38 0
100 38 0
101 38 0
102 38 0
103 38 0
104 38 0
105 38 0
106 38 0
107 38 0
108 38 0
109 38 0
110 38 0
111 38 0
112 38 0
113 38 0
114 38 0
115 38 0
116 38 0
117 38 0
118 38 0
119 38 0
120 38 0
1 39 0
2 39 0
3 39 0
4 39 0
5 39 0
6 39 0
7 39 0
8 39 0
9 39 0
10 39 0
11 39 0
12 39 0
13 39 0
14 39 0
15 39 0
16 39 0
17 39 0
18 39 0
19 39 0
20 39 0
21 39 0
22 39 0
23 39 0
24 39 0
25 39 0
26 39 0
27 39 0
28 39 0
29 39 0
30 39 0
31 39 0
32 39 0
33 39 0
34 39 0
35 39 0
36 39 0
37 39 0
38 39 0
39 39 0
40 39 0
41 39 0
42 39 0
43 39 0
44 39 0
45 39 0
46 39 0
47 39 0
48 39 0
49 39 0
50 39 0
51 39 0
52 39 0
53 39 0
54 39 0
55 39 0
56 39 0
57 39 0
58 39 0
59 39 0
60 39 0
61 39 0
62 39 0
63 39 0
64 39 0
65 39 0
66 39 0
67 39 0
68 39 0
69 39 0
70 39 0
71 39 0
72 39 0
73 39 0
74 39 0
75 39 0
76 39 0
77 39 0
78 39 0
79 39 0
80 39 0
81 39 0
82 39 0
83 39 0
84 39 0
85 39 0
86 39 0
87 39 0
88 39 0
89 39 0
90 39 0
91 39 0
92 39 0
93 39 0
94 39 0
95 39 0
96 39 0
97 39 0
98 39 0
99 39 0
100 39 0
101 39 0
102 39 0
103 39 0
104 39 0
105 39 0
106 39 0
107 39 0
108 39 0
109 39 0
110 39 0
111 39 0
112 39 0
113 39 0
114 39 0
115 39 0
116 39 0
117 39 0
118 39 0
119 39 0
120 39 0
1 40 0
2 40 0
3 40 0
4 40 0
5 40 0
6 40 0
7 40 0
8 40 0
9 40 0
10 40 0
11 40 0
12 40 0
13 40 0
14 40 0
15 40 0
16 40 0
17 40 0
18 40 0
19 40 0
20 40 0
21 40 0
22 40 0
23 40 0
24 40 0
25 40 0
26 40 0
27 40 0
28 40 0
29 40 0
30 40 0
31 40 0
32 40 0
33 40 0
34 40 0
35 40 0
36 40 0
37 40 0
38 40 0
39 40 0
40 40 0
41 40 0
42 40 0
43 40 0
44 40 0
45 40 0
46 40 0
47 40 0
48 40 0
49 40 0
50 40 0
51 40 0
52 40 0
53 40 0
54 40 0
55 40 0
56 40 0
57 40 0
58 40 0
59 40 0
60 40 0
61 40 0
62 40 0
63 40 0
64 40 0
65 40 0
66 40 0
67 40 0
68 40 0
69 40 0
70 40 0
71 40 0
72 40 0
73 40 0
74 40 0
75 40 0
76 40 0
77 40 0
78 40 0
79 40 0
80 40 0
81 40 0
82 40 0
83 40 0
84 40 0
85 40 0
86 40 0
87 40 0
88 40 0
89 40 0
90 40 0
91 40 0
92 40 0
93 40 0
94 40 0
95 40 0
96 40 0
97 40 0
98 40 0
99 40 0
100 40 0
101 40 0
102 40 0
103 40 0
104 40 0
105 40 0
106 40 0
107 40 0
108 40 0
109 40 0
110 40 0
111 40 0
112 40 0
113 40 0
114 40 0
115 40 0
116 40 0
117 40 0
118 40 0
119 40 0
120 40 0
1 41 0
2 41 0
3 41 0
4 41 0
5 41 0
6 41 0
7 41 0
8 41 0
9 41 0
10 41 0
11 41 0
12 41 0
13 41 0
14 41 0
15 41 0
16 41 0
17 41 0
18 41 0
19 41 0
20 41 0
21 41 0
22 41 0
23 41 0
24 41 0
25 41 0
26 41 0
27 41 0
28 41 0
29 41 0
30 41 0
31 41 0
32 41 0
33 41 0
34 41 0
35 41 0
36 41 0
37 41 0
38 41 0
39 41 0
40 41 0
41 41 0
42 41 0
43 41 0
44 41 0
45 41 0
46 41 0
47 41 0
48 41 0
49 41 0
50 41 0
51 41 0
52 41 0
53 41 0
54 41 0
55 41 0
56 41 0
57 41 0
58 41 0
59 41 0
60 41 0
61 41 0
62 41 0
63 41 0
64 41 0
65 41 0
66 41 0
67 41 0
68 41 0
69 41 0
70 41 0
71 41 0
72 41 0
73 41 0
74 41 0
75 41 0
76 41 0
77 41 0
78 41 0
79 41 0
80 41 0
81 41 0
82 41 0
83 41 0
84 41 0
85 41 0
86 41 0
87 41 0
88 41 0
89 41 0
90 41 0
91 41 0
92 41 0
93 41 0
94 41 0
95 41 0
96 41 0
97 41 0
98 41 0
99 41 0
100 41 0
101 41 0
102 41 0
103 41 0
104 41 0
105 41 0
106 41 0
107 41 0
108 41 0
109 41 0
110 41 0
111 41 0
112 41 0
113 41 0
114 41 0
115 41 0
116 41 0
117 41 0
118 41 0
119 41 0
120 41 0
1 42 0
2 42 0
3 42 0
4 42 0
5 42 0
6 42 0
7 42 0
8 42 0
9 42 0
10 42 0
11 42 0
12 42 0
13 42 0
14 42 0
15 42 0
16 42 0
17 42 0
18 42 0
19 42 0
20 42 0
21 42 0
22 42 0
23 42 0
24 42 0
25 42 0
26 42 0
27 42 0
28 42 0
29 42 0
30 42 0
31 42 0
32 42 0
33 42 0
34 42 0
35 42 0
36 42 0
37 42 0
38 42 0
39 42 0
40 42 0
41 42 0
42 42 0
43 42 0
44 42 0
45 42 0
46 42 0
47 42 0
48 42 0
49 42 0
50 42 0
51 42 0
52 42 0
53 42 0
54 42 0
55 42 0
56 42 0
57 42 0
58 42 0
59 42 0
60 42 0
61 42 0
62 42 0
63 42 0
64 42 0
65 42 0
66 42 0
67 42 0
68 42 0
69 42 0
70 42 0
71 42 0
72 42 0
73 42 0
74 42 0
75 42 0
76 42 0
77 42 0
78 42 0
79 42 0
80 42 0
81 42 0
82 42 0
83 42 0
84 42 0
85 42 0
86 42 0
87 42 0
88 42 0
89 42 0
90 42 0
91 42 0
92 42 0
93 42 0
94 42 0
95 42 0
96 42 0
97 42 0
98 42 0
99 42 0
100 42 0
101 42 0
102 42 0
103 42 0
104 42 0
105 42 0
106 42 0
107 42 0
108 42 0
109 42 0
110 42 0
111 42 0
112 42 0
113 42 0
114 42 0
115 42 0
116 42 0
117 42 0
118 42 0
119 42 0
120 42 0
1 43 0
2 43 0
3 43 0
4 43 0
5 43 0
6 43 0
7 43 0
8 43 0
9 43 0
10 43 0
11 43 0
12 43 0
13 43 0
14 43 0
15 43 0
16 43 0
17 43 0
18 43 0
19 43 0
20 43 0
21 43 0
22 43 0
23 43 0
24 43 0
25 43 0
26 43 0
27 43 0
28 43 0
29 43 0
30 43 0
31 43 0
32 43 0
33 43 0
34 43 0
35 43 0
36 43 0
37 43 0
38 43 0
39 43 0
40 43 0
41 43 0
42 43 0
43 43 0
44 43 0
45 43 0
46 43 0
47 43 0
48 43 0
49 43 0
50 43 0
51 43 0
52 43 0
53 43 0
54 43 0
55 43 0
56 43 0
57 43 0
58 43 0
59 43 0
60 43 0
61 43 0
62 43 0
63 43 0
64 43 0
65 43 0
66 43 0
67 43 0
68 43 0
69 43 0
70 43 0
71 43 0
72 43 0
73 43 0
74 43 0
75 43 0
76 43 0
77 43 0
78 43 0
79 43 0
80 43 0
81 43 0
82 43 0
83 43 0
84 43 0
85 43 0
86 43 0
87 43 0
88 43 0
89 43 0
90 43 0
91 43 0
92 43 0
93 43 0
94 43 0
95 43 0
96 43 0
97 43 0
98 43 0
99 43 0
100 43 0
101 43 0
102 43 0
103 43 0
104 43 0
105 43 0
106 43 0
107 43 0
108 43 0
109 43 0
110 43 0
111 43 0
112 43 0
113 43 0
114 43 0
115 43 0
116 43 0
117 43 0
118 43 0
119 43 0
120 43 0
1 44 0
2 44 0
3 44 0
4 44 0
5 44 0
6 44 0
7 44 0
8 44 0
9 44 0
10 44 0
11 44 0
12 44 0
13 44 0
14 44 0
15 44 0
16 44 0.99722501540774111
17 44 0
18 44 0
19 44 0
20 44 0
21 44 0
22 44 0
23 44 0
24 44 0
25 44 0
26 44 0
27 44 0
28 44 0
29 44 0
30 44 0
31 44 0
32 44 0
33 44 0
34 44 0
35 44 0
36 44 0
37 44 0
38 44 0
39 44 0
40 44 0
41 44 0
42 44 0
43 44 0
44 44 0
45 44 0
46 44 0
47 44 0
48 44 0
49 44 0
50 44 0
51 44 0
52 44 0
53 44 0
54 44 0
55 44 0
56 44 0
57 44 0
58 44 0
59 44 0
60 44 0
61 44 0
62 44 0
63 44 0
64 44 0
65 44 0
66 44 0
67 44 0
68 44 0
69 44 0
70 44 0
71 44 0
72 44 0
73 44 0
74 44 0
75 44 0
76 44 0
77 44 0
78 44 0
79 44 0
80 44 0
81 44 0
82 44 0
83 44 0
84 44 0
85 44 0
86 44 0
87 44 0
88 44 0
89 44 0
90 44 0
91 44 0
92 44 0
93 44 0
94 44 0
95 44 0
96 44 0
97 44 0
98 44 0
99 44 0
100 44 0
101 44 0
102 44 0
103 44 0
104 44 0
105 44 0
106 44 0
107 44 0
108 44 0
109 44 0
110 44 0
111 44 0
112 44 0
113 44 0
114 44 0
115 44 0
116 44 0
117 44 0
118 44 0
119 44 0
120 44 0
1 45 0
2 45 0
3 45 0
4 45 0
5 45 0
6 45 0
7 45 0
8 45 0
9 45 0
10 45 0
11 45 0
12 45 0
13 45 0
14 45 0
15 45 0
16 45 0
17 45 0.99722501540774111
18 45 0
19 45 0
20 45 0
21 45 0
22 45 0
23 45 0
24 45 0
25 45 0
26 45 0
27 45 0
28 45 0
29 45 0
30 45 0
31 45 0
32 45 0
33 45 0
34 45 0
35 45 0
36 45 0
37 45 0
38 45 0
39 45 0
40 45 0
41 45 0
42 45 0
43 45 0
44 45 0
45 45 0
46 45 0
47 45 0
48 45 0
49 45 0
50 45 0
51 45 0
52 45 0
53 45 0
54 45 0
55 45 0
56 45 0
57 45 0
58 45 0
59 45 0
60 45 0
61 45 0
62 45 0
63 45 0
64 45 0
65 45 0
66 45 0
67 45 0
68 45 0
69 45 0
70 45 0
71 45 0
72 45 0
73 45 0
74 45 0
75 45 0
76 45 0
77 45 0
78 45 0
79 45 0
80 45 0
81 45 0
82 45 0
83 45 0
84 45 0
85 45 0
86 45 0
87 45 0
88 45 0
89 45 0
90 45 0
91 45 0
92 45 0
93 45 0
94 45 0
95 45 0
96 45 0
97 45 0
98 45 0
99 45 0
100 45 0
101 45 0
102 45 0
103 45 0
104 45 0
105 45 0
106 45 0
107 45 0
108 45 0
109 45 0
110 45 0
111 45 0
112 45 0
113 45 0
114 45 0
115 45 0
116 45 0
117 45 0
118 45 0
119 45 0
120 45 0
1 46 0
2 46 0
3 46 0
4 46 0
5 46 0
6 46 0
7 46 0
8 46 0
9 46 0
10 46 0
11 46 0
12 46 0
13 46 0
14 46 0
15 46 0
16 46 0
17 46 0
18 46 0.99722501540774111
19 46 0
20 46 0
21 46 0
22 46 0
23 46 0
24 46 0
25 46 0
26 46 0
27 46 0
28 46 0
29 46 0
30 46 0
31 46 0
32 46 0
33 46 0
34 46 0
35 46 0
36 46 0
37 46 0
38 46 0
39 46 0
40 46 0
41 46 0
42 46 0
43 46 0
44 46 0
45 46 0
46 46 0
47 46 0
48 46 0
49 46 0
50 46 0
51 46 0
52 46 0
53 46 0
54 46 0
55 46 0
56 46 0
57 46 0
58 46 0
59 46 0
60 46 0
61 46 0
62 46 0
63 46 0
64 46 0
65 46 0
66 46 0
67 46 0
68 46 0
69 46 0
70 46 0
71 46 0
72 46 0
73 46 0
74 46 0
75 46 0
76 46 0
77 46 0
78 46 0
79 46 0
80 46 0
81 46 0
82 46 0
83 46 0
84 46 0
85 46 0
86 46 0
87 46 0
88 46 0
89 46 0
90 46 0
91 46 0
92 46 0
93 46 0
94 46 0
95 46 0
96 46 0
97 46 0
98 46 0
99 46 0
100 46 0
101 46 0
102 46 0
103 46 0
104 46 0
105 46 0
106 46 0
107 46 0
108 46 0
109 46 0
110 46 0
111 46 0
112 46 0
113 46 0
114 46 0
115 46 0
116 46 0
117 46 0
118 46 0
119 46 0
120 46 0
1 47 0
2 47 0
3 47 0
4 47 0
5 47 0
6 47 0
7 47 0
8 47 0
9 47 0
10 47 0
11 47 0
12 47 0
13 47 0
14 47 0
15 47 0
16 47 0
17 47 0
18 47 0
19 47 0.99722501540774111
20 47 0
21 47 0
22 47 0
23 47 0
24 47 0
25 47 0
26 47 0
27 47 0
28 47 0
29 47 0
30 47 0
31 47 0
32 47 0
33 47 0
34 47 0
35 47 0
36 47 0
37 47 0
38 47 0
39 47 0
40 47 0
41 47 0
42 47 0
43 47 0
44 47 0
45 47 0
46 47 0
47 47 0
48 47 0
49 47 0
50 47 0
51 47 0
52 47 0
53 47 0
54 47 0
55 47 0
56 47 0
57 47 0
58 47 0
59 47 0
60 47 0
61 47 0
62 47 0
63 47 0
64 47 0
65 47 0
66 47 0
67 47 0
68 47 0
69 47 0
70 47 0
71 47 0
72 47 0
73 47 0
74 47 0
75 47 0
76 47 0
77 47 0
78 47 0
79 47 0
80 47 0
81 47 0
82 47 0
83 47 0
84 47 0
85 47 0
86 47 0
87 47 0
88 47 0
89 47 0
90 47 0
91 47 0
92 47 0
93 47 0
94 47 0
95 47 0
96 47 0
97 47 0
98 47 0
99 47 0
100 47 0
101 47 0
102 47 0
103 47 0
104 47 0
105 47 0
106 47 0
107 47 0
108 47 0
109 47 0
110 47 0
111 47 0
112 47 0
113 47 0
114 47 0
115 47 0
116 47 0
117 47 0
118 47 0
119 47 0
120 47 0
1 48 0
2 48 0
3 48 0
4 48 0
5 48 0
6 48 0
7 48 0
8 48 0
9 48 0
10 48 0
11 48 0
12 48 0
13 48 0
14 48 0
15 48 0
16 48 0
17 48 0
18 48 0
19 48 0
20 48 0.99722501540774111
21 48 0
22 48 0
23 48 0
24 48 0
25 48 0
26 48 0
27 48 0
28 48 0
29 48 0
30 48 0
31 48 0
32 48 0
33 48 0
34 48 0
35 48 0
36 48 0
37 48 0
38 48 0
39 48 0
40 48 0
41 48 0
42 48 0
43 48 0
44 48 0
45 48 0
46 48 0
47 48 0
48 48 0
49 48 0
50 48 0
51 48 0
52 48 0
53 48 0
54 48 0
55 48 0
56 48 0
57 48 0
58 48 0
59 48 0
60 48 0
61 48 0
62 48 0
63 48 0
64 48 0
65 48 0
66 48 0
67 48 0
68 48 0
69 48 0
70 48 0
71 48 0
72 48 0
73 48 0
74 48 0
75 48 0
76 48 0
77 48 0
78 48 0
79 48 0
80 48 0
81 48 0
82 48 0
83 48 0
84 48 0
85 48 0
86 48 0
87 48 0
88 48 0
89 48 0
90 48 0
91 48 0
92 48 0
93 48 0
94 48 0
95 48 0
96 48 0
97 48 0
98 48 0
99 48 0
100 48 0
101 48 0
102 48 0
103 48 0
104 48 0
105 48 0
106 48 0
107 48 0
108 48 0
109 48 0
110 48 0
111 48 0
112 48 0
113 48 0
114 48 0
115 48 0
116 48 0
117 48 0
118 48 0
119 48 0
120 48 0
1 49 0
2 49 0
3 49 0
4 49 0
5 49 0
6 49 0
7 49 0
8 49 0
9 49 0
10 49 0
11 49 0
12 49 0
13 49 0
14 49 0
15 49 0
16 49 0
17 49 0
18 49 0
19 49 0
20 49 0
21 49 0
22 49 0
23 49 0
24 49 0
25 49 0
26 49 0
27 49 0
28 49 0
29 49 0
30 49 0
31 49 0
32 49 0
33 49 0
34 49 0
35 49 0
36 49 0
37 49 0
38 49 0
39 49 0
40 49 0
41 49 0
42 49 0
43 49 0
44 49 0
45 49 0
46 49 0
47 49 0
48 49 0
49 49 0
50 49 0
51 49 0
52 49 0
53 49 0
54 49 0
55 49 0
56 49 0
57 49 0
58 49 0
59 49 0
60 49 0
61 49 0
62 49 0
63 49 0
64 49 0
65 49 0
66 49 0
67 49 0
68 49 0
69 49 0
70 49 0
71 49 0
72 49 0
73 49 0
74 49 0
75 49 0
76 49 0
77 49 0
78 49 0
79 49 0
80 49 0
81 49 0
82 49 0
83 49 0
84 49 0
85 49 0
86 49 0
87 49 0
88 49 0
89 49 0
90 49 0
91 49 0
92 49 0
93 49 0
94 49 0
95 49 0
96 49 0
97 49 0
98 49 0
99 49 0
100 49 0
101 49 0
102 49 0
103 49 0
104 49 0
105 49 0
106 49 0
107 49 0
108 49 0
109 49 0
110 49 0
111 49 0
112 49 0
113 49 0
114 49 0
115 49 0
116 49 0
117 49 0
118 49 0
119 49 0
120 49 0
1 50 0
2 50 0
3 50 0
4 50 0
5 50 0
6 50 0
7 50 0
8 50 0
9 50 0
10 50 0
11 50 0
12 50 0
13 50 0
14 50 0
15 50 0
16 50 0
17 50 0
18 50 0
19 50 0
20 50 0
21 50 0
22 50 0
23 50 0
24 50 0
25 50 0
26 50 0
27 50 0
28 50 0
29 50 0
30 50 0
31 50 0
32 50 0
33 50 0
34 50 0
35 50 0
36 50 0
37 50 0
38 50 0
39 50 0
40 50 0
41 50 0
42 50 0
43 50 0
44 50 0
45 50 0
46 50 0
47 50 0
48 50 0
49 50 0
50 50 0
51 50 0
52 50 0
53 50 0
54 50 0
55 50 0
56 50 0
57 50 0
58 50 0
59 50 0
60 50 0
61 50 0
62 50 0
63 50 0
64 50 0
65 50 0
66 50 0
67 50 0
68 50 0
69 50 0
70 50 0
71 50 0
72 50 0
73 50 0
74 50 0
75 50 0
76 50 0
77 50 0
78 50 0
79 50 0
80 50 0
81 50 0
82 50 0
83 50 0
84 50 0
85 50 0
86 50 0
87 50 0
88 50 0
89 50 0
90 50 0
91 50 0
92 50 0
93 50 0
94 50 0
95 50 0
96 50 0
97 50 0
98 50 0
99 50 0
100 50 0
101 50 0
102 50 0
103 50 0
104 50 0
105 50 0
106 50 0
107 50 0
108 50 0
109 50 0
110 50 0
111 50 0
112 50 0
113 50 0
114 50 0
115 50 0
116 50 0
117 50 0
118 50 0
119 50 0
120 50 0
1 51 0
2 51 0
3 51 0
4 51 0
5 51 0
6 51 0
7 51 0
8 51 0
9 51 0
10 51 0
11 51 0
12 51 0
13 51 0
14 51 0
15 51 0
16 51 0
17 51 0
18 51 0
19 51 0
20 51 0
21 51 0
22 51 0
23 51 0
24 51 0
25 51 0
26 51 0
27 51 0
28 51 0
29 51 0
30 51 0
31 51 0
32 51 0
33 51 0
34 51 0
35 51 0
36 51 0
37 51 0
38 51 0
39 51 0
40 51 0
41 51 0
42 51 0
43 51 0
44 51 0
45 51 0
46 51 0
47 51 0
48 51 0
49 51 0
50 51 0
51 51 0
52 51 0
53 51 0
54 51 0
55 51 0
56 51 0
57 51 0
58 51 0
59 51 0
60 51 0
61 51 0
62 51 0
63 51 0
64 51 0
65 51 0
66 51 0
67 51 0
68 51 0
69 51 0
70 51 0
71 51 0
72 51 0
73 51 0
74 51 0
75 51 0
76 51 0
77 51 0
78 51 0
79 51 0
80 51 0
81 51 0
82 51 0
83 51 0
84 51 0
85 51 0
86 51 0
87 51 0
88 51 0
89 51 0
90 51 0
91 51 0
92 51 0
93 51 0
94 51 0
95 51 0
96 51 0
97 51 0
98 51 0
99 51 0
100 51 0
101 51 0
102 51 0
103 51 0
104 51 0
105 51 0
106 51 0
107 51 0
108 51 0
109 51 0
110 51 0
111 51 0
112 51 0
113 51 0
114 51 0
115 51 0
116 51 0
117 51 0
118 51 0
119 51 0
120 51 0
1 52 0
2 52 0
3 52 0
4 52 0
5 52 0
6 52 0
7 52 0
8 52 0
9 52 0
10 52 0
11 52 0
12 52 0
13 52 0
14 52 0
15 52 0
16 52 0
17 52 0
18 52 0
19 52 0
20 52 0
21 52 0
22 52 0
23 52 0
24 52 0
25 52 0
26 52 0
27 52 0
28 52 0
29 52 0
30 52 0
31 52 0
32 52 0
33 52 0
34 52 0
35 52 0
36 52 0
37 52 0
38 52 0
39 52 0
40 52 0
41 52 0
42 52 0
43 52 0
44 52 0
45 52 0
46 52 0
47 52 0
48 52 0
49 52 0
50 52 0
51 52 0
52 52 0
53 52 0
54 52 0
55 52 0
56 52 0
57 52 0
58 52 0
59 52 0
60 52 0
61 52 0
62 52 0
63 52 0
64 52 0
65 52 0
66 52 0
67 52 0
68 52 0
69 52 0
70 52 0
71 52 0
72 52 0
73 52 0
74 52 0
75 52 0
76 52 0
77 52 0
78 52 0
79 52 0
80 52 0
81 52 0
82 52 0
83 52 0
84 52 0
85 52 0
86 52 0
87 52 0
88 52 0
89 52 0
90 52 0
91 52 0
92 52 0
93 52 0
94 52 0
95 52 0
96 52 0
97 52 0
98 52 0
99 52 0
100 52 0
101 52 0
102 52 0
103 52 0
104 52 0
105 52 0
106 52 0
107 52 0
108 52 0
109 52 0
110 52 0
111 52 0
112 52 0
113 52 0
114 52 0
115 52 0
116 52 0
117 52 0
118 52 0
119 52 0
120 52 0
1 53 0
2 53 0
3 53 0
4 53 0
5 53 0
6 53 0
7 53 0
8 53 0
9 53 0
10 53 0
11 53 0
12 53 0
13 53 0
14 53 0
15 53 0
16 53 0
17 53 0
18 53 0
19 53 0
20 53 0
21 53 0
22 53 0
23 53 0
24 53 0
25 53 0
26 53 0
27 53 0
28 53 0
29 53 0
30 53 0
31 53 0
32 53 0
33 53 0
34 53 0
35 53 0
36 53 0
37 53 0
38 53 0
39 53 0
40 53 0
41 53 0
42 53 0
43 53 0
44 53 0
45 53 0
46 53 0
47 53 0
48 53 0
49 53 0
50 53 0
51 53 0
52 53 0
53 53 0
54 53 0
55 53 0
56 53 0
57 53 0
58 53 0
59 53 0
60 53 0
61 53 0
62 53 0
63 53 0
64 53 0
65 53 0
66 53 0
67 53 0
68 53 0
69 53 0
70 53 0
71 53 0
72 53 0
73 53 0
74 53 0
75 53 0
76 53 0
77 53 0
78 53 0
79 53 0
80 53 0
81 53 0
82 53 0
83 53 0
84 53 0
85 53 0
86 53 0
87 53 0
88 53 0
89 53 0
90 53 0
91 53 0
92 53 0
93 53 0
94 53 0
95 53 0
96 53 0
97 53 0
98 53 0
99 53 0
100 53 0
101 53 0
102 53 0
103 53 0
104 53 0
105 53 0
106 53 0
107 53 0
108 53 0
109 53 0
110 53 0
111 53 0
112 53 0
113 53 0
114 53 0
115 53 0
116 53 0
117 53 0
118 53 0
119 53 0
120 53 0
1 54 0
2 54 0
3 54 0
4 54 0
5 54 0
6 54 0
7 54 0
8 54 0
9 54 0
10 54 0
11 54 0
12 54 0
13 54 0
14 54 0
15 54 0
16 54 0
17 54 0
18 54 0
19 54 0
20 54 0
21 54 0
22 54 0
23 54 0
24 54 0
25 54 0
26 54 0
27 54 0
28 54 0
29 54 0
30 54 0
31 54 0
32 54 0
33 54 0
34 54 0
35 54 0
36 54 0
37 54 0
38 54 0
39 54 0
40 54 0
41 54 0
42 54 0
43 54 0
44 54 0
45 54 0
46 54 0
47 54 0
48 54 0
49 54 0
50 54 0
51 54 0
52 54 0
53 54 0
54 54 0
55 54 0
56 54 0
57 54 0
58 54 0
59 54 0
60 54 0
61 54 0
62 54 0
63 54 0
64 54 0
65 54 0
66 54 0
67 54 0
68 54 0
69 54 0
70 54 0
71 54 0
72 54 0
73 54 0
74 54 0
75 54 0
76 54 0
77 54 0
78 54 0
79 54 0
80 54 0
81 54 0
82 54 0
83 54 0
84 54 0
85 54 0
86 54 0
87 54 0
88 54 0
89 54 0
90 54 0
91 54 0
92 54 0
93 54 0
94 54 0
95 54 0
96 54 0
97 54 0
98 54 0
99 54 0
100 54 0
101 54 0
102 54 0
103 54 0
104 54 0
105 54 0
106 54 0
107 54 0
108 54 0
109 54 0
110 54 0
111 54 0
112 54 0
113 54 0
114 54 0
115 54 0
116 54 0
117 54 0
118 54 0
119 54 0
120 54 0
1 55 0
2 55 0
3 55 0
4 55 0
5 55 0
6 55 0
7 55 0
8 55 0
9 55 0
10 55 0
11 55 0
12 55 0
13 55 0
14 55 0
15 55 0
16 55 0
17 55 0
18 55 0
19 55 0
20 55 0
21 55 0
22 55 0
23 55 0
24 55 0
25 55 0
26 55 0
27 55 0
28 55 0
29 55 0
30 55 0
31 55 0
32 55 0
33 55 0
34 55 0
35 55 0
36 55 0
37 55 0
38 55 0
39 55 0
40 55 0
41 55 0
42 55 0
43 55 0
44 55 0
45 55 0
46 55 0
47 55 0
48 55 0
49 55 0
50 55 0
51 55 0
52 55 0
53 55 0
54 55 0
55 55 0
56 55 0
57 55 0
58 55 0
59 55 0
60 55 0
61 55 0
62 55 0
63 55 0
64 55 0
65 55 0
66 55 0
67 55 0
68 55 0
69 55 0
70 55 0
71 55 0
72 55 0
73 55 0
74 55 0
75 55 0
76 55 0
77 55 0
78 55 0
79 55 0
80 55 0
81 55 0
82 55 0
83 55 0
84 55 0
85 55 0
86 55 0
87 55 0
88 55 0
89 55 0
90 55 0
91 55 0
92 55 0
93 55 0
94 55 0
95 55 0
96 55 0
97 55 0
98 55 0
99 55 0
100 55 0
101 55 0
102 55 0
103 55 0
104 55 0
105 55 0
106 55 0
107 55 0
108 55 0
109 55 0
110 55 0
111 55 0
112 55 0
113 55 0
114 55 0
115 55 0
116 55 0
117 55 0
118 55 0
119 55 0
120 55 0
1 56 0
2 56 0
3 56 0
4 56 0
5 56 0
6 56 0
7 56 0
8 56 0
9 56 0
10 56 0
11 56 0
12 56 0
13 56 0
14 56 0
15 56 0
16 56 0
17 56 0
18 56 0
19 56 0
20 56 0
21 56 0.99722501540774111
22 56 0
23 56 0
24 56 0
25 56 0
26 56 0
27 56 0
28 56 0
29 56 0
30 56 0
31 56 0
32 56 0
33 56 0
34 56 0
35 56 0
36 56 0
37 56 0
38 56 0
39 56 0
40 56 0
41 56 0
42 56 0
43 56 0
44 56 0
45 56 0
46 56 0
47 56 0
48 56 0
49 56 0
50 56 0
51 56 0
52 56 0
53 56 0
54 56 0
55 56 0
56 56 0
57 56 0
58 56 0
59 56 0
60 56 0
61 56 0
62 56 0
63 56 0
64 56 0
65 56 0
66 56 0
67 56 0
68 56 0
69 56 0
70 56 0
71 56 0
72 56 0
73 56 0
74 56 0
75 56 0
76 56 0
77 56 0
78 56 0
79 56 0
80 56 0
81 56 0
82 56 0
83 56 0
84 56 0
85 56 0
86 56 0
87 56 0
88 56 0
89 56 0
90 56 0
91 56 0
92 56 0
93 56 0
94 56 0
95 56 0
96 56 0
97 56 0
98 56 0
99 56 0
100 56 0
101 56 0
102 56 0
103 56 0
104 56 0
105 56 0
106 56 0
107 56 0
108 56 0
109 56 0
110 56 0
111 56 0
112 56 0
113 56 0
114 56 0
115 56 0
116 56 0
117 56 0
118 56 0
119 56 0
120 56 0
1 57 0
2 57 0
3 57 0
4 57 0
5 57 0
6 57 0
7 57 0
8 57 0
9 57 0
10 57 0
11 57 0
12 57 0
13 57 0
14 57 0
15 57 0
16 57 0
17 57 0
18 57 0
19 57 0
20 57 0
21 57 0
22 57 0.99722501540774111
23 57 0
24 57 0
25 57 0
26 57 0
27 57 0
28 57 0
29 57 0
30 57 0
31 57 0
32 57 0
33 57 0
34 57 0
35 57 0
36 57 0
37 57 0
38 57 0
39 57 0
40 57 0
41 57 0
42 57 0
43 57 0
44 57 0
45 57 0
46 57 0
47 57 0
48 57 0
49 57 0
50 57 0
51 57 0
52 57 0
53 57 0
54 57 0
55 57 0
56 57 0
57 57 0
58 57 0
59 57 0
60 57 0
61 57 0
62 57 0
63 57 0
64 57 0
65 57 0
66 57 0
67 57 0
68 57 0
69 57 0
70 57 0
71 57 0
72 57 0
73 57 0
74 57 0
75 57 0
76 57 0
77 57 0
78 57 0
79 57 0
80 57 0
81 57 0
82 57 0
83 57 0
84 57 0
85 57 0
86 57 0
87 57 0
88 57 0
89 57 0
90 57 0
91 57 0
92 57 0
93 57 0
94 57 0
95 57 0
96 57 0
97 57 0
98 57 0
99 57 0
100 57 0
101 57 0
102 57 0
103 57 0
104 57 0
105 57 0
106 57 0
107 57 0
108 57 0
109 57 0
110 57 0
111 57 0
112 57 0
113 57 0
114 57 0
115 57 0
116 57 0
117 57 0
118 57 0
119 57 0
120 57 0
1 58 0
2 58 0
3 58 0
4 58 0
5 58 0
6 58 0
7 58 0
8 58 0
9 58 0
10 58 0
11 58 0
12 58 0
13 58 0
14 58 0
15 58 0
16 58 0
17 58 0
18 58 0
19 58 0
20 58 0
21 58 0
22 58 0
23 58 0.99722501540774111
24 58 0
25 58 0
26 58 0
27 58 0
28 58 0
29 58 0
30 58 0
31 58 0
32 58 0
33 58 0
34 58 0
35 58 0
36 58 0
37 58 0
38 58 0
39 58 0
40 58 0
41 58 0
42 58 0
43 58 0
44 58 0
45 58 0
46 58 0
47 58 0
48 58 0
49 58 0
50 58 0
51 58 0
52 58 0
53 58 0
54 58 0
55 58 0
56 58 0
57 58 0
58 58 0
59 58 0
60 58 0
61 58 0
62 58 0
63 58 0
64 58 0
65 58 0
66 58 0
67 58 0
68 58 0
69 58 0
70 58 0
71 58 0
72 58 0
73 58 0
74 58 0
75 58 0
76 58 0
77 58 0
78 58 0
79 58 0
80 58 0
81 58 0
82 58 0
83 58 0
84 58 0
85 58 0
86 58 0
87 58 0
88 58 0
89 58 0
90 58 0
91 58 0
92 58 0
93 58 0
94 58 0
95 58 0
96 58 0
97 58 0
98 58 0
99 58 0
100 58 0
101 58 0
102 58 0
103 58 0
104 58 0
105 58 0
106 58 0
107 58 0
108 58 0
109 58 0
110 58 0
111 58 0
112 58 0
113 58 0
114 58 0
115 58 0
116 58 0
117 58 0
118 58 0
119 58 0
120 58 0
1 59 0
2 59 0
3 59 0
4 59 0
5 59 0
6 59 0
7 59 0
8 59 0
9 59 0
10 59 0
11 59 0
12 59 0
13 59 0
14 59 0
15 59 0
16 59 0
17 59 0
18 59 0
19 59 0
20 59 0
21 59 0
22 59 0
23 59 0
24 59 0.99722501540774111
25 59 0
26 59 0
27 59 0
28 59 0
29 59 0
30 59 0
31 59 0
32 59 0
33 59 0
34 59 0
35 59 0
36 59 0
37 59 0
38 59 0
39 59 0
40 59 0
41 59 0
42 59 0
43 59 0
44 59 0
45 59 0
46 59 0
47 59 0
48 59 0
49 59 0
50 59 0
51 59 0
52 59 0
53 59 0
54 59 0
55 59 0
56 59 0
57 59 0
58 59 0
59 59 0
60 59 0
61 59 0
62 59 0
63 59 0
64 59 0
65 59 0
66 59 0
67 59 0
68 59 0
69 59 0
70 59 0
71 59 0
72 59 0
73 59 0
74 59 0
75 59 0
76 59 0
77 59 0
78 59 0
79 59 0
80 59 0
81 59 0
82 59 0
83 59 0
84 59 0
85 59 0
86 59 0
87 59 0
88 59 0
89 59 0
90 59 0
91 59 0
92 59 0
93 59 0
94 59 0
95 59 0
96 59 0
97 59 0
98 59 0
99 59 0
100 59 0
101 59 0
102 59 0
103 59 0
104 59 0
105 59 0
106 59 0
107 59 0
108 59 0
109 59 0
110 59 0
111 59 0
112 59 0
113 59 0
114 59 0
115 59 0
116 59 0
117 59 0
118 59 0
119 59 0
120 59 0
1 60 0
2 60 0
3 60 0
4 60 0
5 60 0
6 60 0
7 60 0
8 60 0
9 60 0
10 60 0
11 60 0
12 60 0
13 60 0
14 60 0
15 60 0
16 60 0
17 60 0
18 60 0
19 60 0
20 60 0
21 60 0
22 60 0
23 60 0
24 60 0
25 60 0.99722501540774111
26 60 0
27 60 0
28 60 0
29 60 0
30 60 0
31 60 0
32 60 0
33 60 0
34 60 0
35 60 0
36 60 0
37 60 0
38 60 0
39 60 0
40 60 0
41 60 0
42 60 0
43 60 0
44 60 0
45 60 0
46 60 0
47 60 0
48 60 0
49 60 0
50 60 0
51 60 0
52 60 0
53 60 0
54 60 0
55 60 0
56 60 0
57 60 0
58 60 0
59 60 0
60 60 0
61 60 0
62 60 0
63 60 0
64 60 0
65 60 0
66 60 0
67 60 0
68 60 0
69 60 0
70 60 0
71 60 0
72 60 0
73 60 0
74 60 0
75 60 0
76 60 0
77 60 0
78 60 0
79 60 0
80 60 0
81 60 0
82 60 0
83 60 0
84 60 0
85 60 0
86 60 0
87 60 0
88 60 0
89 60 0
90 60 0
91 60 0
92 60 0
93 60 0
94 60 0
95 60 0
96 60 0
97 60 0
98 60 0
99 60 0
100 60 0
101 60 0
102 60 0
103 60 0
104 60 0
105 60 0
106 60 0
107 60 0
108 60 0
109 60 0
110 60 0
111 60 0
112 60 0
113 60 0
114 60 0
115 60 0
116 60 0
117 60 0
118 60 0
119 60 0
120 60 0
1 61 0
2 61 0
3 61 0
4 61 0
5 61 0
6 61 0
7 61 0
8 61 0
9 61 0
10 61 0
11 61 0
12 61 0
13 61 0
14 61 0
15 61 0
16 61 0
17 61 0
18 61 0
19 61 0
20 61 0
21 61 0
22 61 0
23 61 0
24 61 0
25 61 0
26 61 0
27 61 0
28 61 0
29 61 0
30 61 0
31 61 0
32 61 0
33 61 0
34 61 0
35 61 0
36 61 0
37 61 0
38 61 0
39 61 0
40 61 0
41 61 0
42 61 0
43 61 0
44 61 0
45 61 0
46 61 0
47 61 0
48 61 0
49 61 0
50 61 0
51 61 0
52 61 0
53 61 0
54 61 0
55 61 0
56 61 0
57 61 0
58 61 0
59 61 0
60 61 0
61 61 0
62 61 0
63 61 0
64 61 0
65 61 0
66 61 0
67 61 0
68 61 0
69 61 0
70 61 0
71 61 0
72 61 0
73 61 0
74 61 0
75 61 0
76 61 0
77 61 0
78 61 0
79 61 0
80 61 0
81 61 0
82 61 0
83 61 0
84 61 0
85 61 0
86 61 0
87 61 0
88 61 0
89 61 0
90 61 0
91 61 0
92 61 0
93 61 0
94 61 0
95 61 0
96 61 0
97 61 0
98 61 0
99 61 0
100 61 0
101 61 0
102 61 0
103 61 0
104 61 0
105 61 0
106 61 0
107 61 0
108 61 0
109 61 0
110 61 0
111 61 0
112 61 0
113 61 0
114 61 0
115 61 0
116 61 0
117 61 0
118 61 0
119 61 0
120 61 0
1 62 0
2 62 0
3 62 0
4 62 0
5 62 0
6 62 0
7 62 0
8 62 0
9 62 0
10 62 0
11 62 0
12 62 0
13 62 0
14 62 0
15 62 0
16 62 0
17 62 0
18 62 0
19 62 0
20 62 0
21 62 0
22 62 0
23 62 0
24 62 0
25 62 0
26 62 0
27 62 0
28 62 0
29 62 0
30 62 0
31 62 0
32 62 0
33 62 0
34 62 0
35 62 0
36 62 0
37 62 0
38 62 0
39 62 0
40 62 0
41 62 0
42 62 0
43 62 0
44 62 0
45 62 0
46 62 0
47 62 0
48 62 0
49 62 0
50 62 0
51 62 0
52 62 0
53 62 0
54 62 0
55 62 0
56 62 0
57 62 0
58 62 0
59 62 0
60 62 0
61 62 0
62 62 0
63 62 0
64 62 0
65 62 0
66 62 0
67 62 0
68 62 0
69 62 0
70 62 0
71 62 0
72 62 0
73 62 0
74 62 0
75 62 0
76 62 0
77 62 0
78 62 0
79 62 0
80 62 0
81 62 0
82 62 0
83 62 0
84 62 0
85 62 0
86 62 0
87 62 0
88 62 0
89 62 0
90 62 0
91 62 0
92 62 0
93 62 0
94 62 0
95 62 0
96 62 0
97 62 0
98 62 0
99 62 0
100 62 0
101 62 0
102 62 0
103 62 0
104 62 0
105 62 0
106 62 0
107 62 0
108 62 0
109 62 0
110 62 0
111 62 0
112 62 0
113 62 0
114 62 0
115 62 0
116 62 0
117 62 0
118 62 0
119 62 0
120 62 0
1 63 0
2 63 0
3 63 0
4 63 0
5 63 0
6 63 0
7 63 0
8 63 0
9 63 0
10 63 0
11 63 0
12 63 0
13 63 0
14 63 0
15 63 0
16 63 0
17 63 0
18 63 0
19 63 0
20 63 0
21 63 0
22 63 0
23 63 0
24 63 0
25 63 0
26 63 0
27 63 0
28 63 0
29 63 0
30 63 0
31 63 0
32 63 0
33 63 0
34 63 0
35 63 0
36 63 0
37 63 0
38 63 0
39 63 0
40 63 0
41 63 0
42 63 0
43 63 0
44 63 0
45 63 0
46 63 0
47 63 0
48 63 0
49 63 0
50 63 0
51 63 0
52 63 0
53 63 0
54 63 0
55 63 0
56 63 0
57 63 0
58 63 0
59 63 0
60 63 0
61 63 0
62 63 0
63 63 0
64 63 0
65 63 0
66 63 0
67 63 0
68 63 0
69 63 0
70 63 0
71 63 0
72 63 0
73 63 0
74 63 0
75 63 0
76 63 0
77 63 0
78 63 0
79 63 0
80 63 0
81 63 0
82 63 0
83 63 0
84 63 0
85 63 0
86 63 0
87 63 0
88 63 0
89 63 0
90 63 0
91 63 0
92 63 0
93 63 0
94 63 0
95 63 0
96 63 0
97 63 0
98 63 0
99 63 0
100 63 0
101 63 0
102 63 0
103 63 0
104 63 0
105 63 0
106 63 0
107 63 0
108 63 0
109 63 0
110 63 0
111 63 0
112 63 0
113 63 0
114 63 0
115 63 0
116 63 0
117 63 0
118 63 0
119 63 0
120 63 0
1 64 0
2 64 0
3 64 0
4 64 0
5 64 0
6 64 0
7 64 0
8 64 0
9 64 0
10 64 0
11 64 0
12 64 0
13 64 0
14 64 0
15 64 0
16 64 0
17 64 0
18 64 0
19 64 0
20 64 0
21 64 0
22 64 0
23 64 0
24 64 0
25 64 0
26 64 0
27 64 0
28 64 0
29 64 0
30 64 0
31 64 0
32 64 0
33 64 0
34 64 0
35 64 0
36 64 0
37 64 0
38 64 0
39 64 0
40 64 0
41 64 0
42 64 0
43 64 0
44 64 0
45 64 0
46 64 0
47 64 0
48 64 0
49 64 0
50 64 0
51 64 0
52 64 0
53 64 0
54 64 0
55 64 0
56 64 0
57 64 0
58 64 0
59 64 0
60 64 0
61 64 0
62 64 0
63 64 0
64 64 0
65 64 0
66 64 0
67 64 0
68 64 0
69 64 0
70 64 0
71 64 0
72 64 0
73 64 0
74 64 0
75 64 0
76 64 0
77 64 0
78 64 0
79 64 0
80 64 0
81 64 0
82 64 0
83 64 0
84 64 0
85 64 0
86 64 0
87 64 0
88 64 0
89 64 0
90 64 0
91 64 0
92 64 0
93 64 0
94 64 0
95 64 0
96 64 0
97 64 0
98 64 0
99 64 0
100 64 0
101 64 0
102 64 0
103 64 0
104 64 0
105 64 0
106 64 0
107 64 0
108 64 0
109 64 0
110 64 0
111 64 0
112 64 0
113 64 0
114 64 0
115 64 0
116 64 0
117 64 0
118 64 0
119 64 0
120 64 0
1 65 0
2 65 0
3 65 0
4 65 0
5 65 0
6 65 0
7 65 0
8 65 0
9 65 0
10 65 0
11 65 0
12 65 0
13 65 0
14 65 0
15 65 0
16 65 0
17 65 0
18 65 0
19 65 0
20 65 0
21 65 0
22 65 0
23 65 0
24 65 0
25 65 0
26 65 0
27 65 0
28 65 0
29 65 0
30 65 0
31 65 0
32 65 0
33 65 0
34 65 0
35 65 0
36 65 0
37 65 0
38 65 0
39 65 0
40 65 0
41 65 0
42 65 0
43 65 0
44 65 0
45 65 0
46 65 0
47 65 0
48 65 0
49 65 0
50 65 0
51 65 0
52 65 0
53 65 0
54 65 0
55 65 0
56 65 0
57 65 0
58 65 0
59 65 0
60 65 0
61 65 0
62 65 0
63 65 0
64 65 0
65 65 0
66 65 0
67 65 0
68 65 0
69 65 0
70 65 0
71 65 0
72 65 0
73 65 0
74 65 0
75 65 0
76 65 0
77 65 0
78 65 0
79 65 0
80 65 0
81 65 0
82 65 0
83 65 0
84 65 0
85 65 0
86 65 0
87 65 0
88 65 0
89 65 0
90 65 0
91 65 0
92 65 0
93 65 0
94 65 0
95 65 0
96 65 0
97 65 0
98 65 0
99 65 0
100 65 0
101 65 0
102 65 0
103 65 0
104 65 0
105 65 0
106 65 0
107 65 0
108 65 0
109 65 0
110 65 0
111 65 0
112 65 0
113 65 0
114 65 0
115 65 0
116 65 0
117 65 0
118 65 0
119 65 0
120 65 0
1 66 0
2 66 0
3 66 0
4 66 0
5 66 0
6 66 0
7 66 0
8 66 0
9 66 0
10 66 0
11 66 0
12 66 0
13 66 0
14 66 0
15 66 0
16 66 0
17 66 0
18 66 0
19 66 0
20 66 0
21 66 0
22 66 0
23 66 0
24 66 0
25 66 0
26 66 0
27 66 0
28 66 0
29 66 0
30 66 0
31 66 0
32 66 0
33 66 0
34 66 0
35 66 0
36 66 0
37 66 0
38 66 0
39 66 0
40 66 0
41 66 0
42 66 0
43 66 0
44 66 0
45 66 0
46 66 0
47 66 0
48 66 0
49 66 0
50 66 0
51 66 0
52 66 0
53 66 0
54 66 0
55 66 0
56 66 0
57 66 0
58 66 0
59 66 0
60 66 0
61 66 0
62 66 0
63 66 0
64 66 0
65 66 0
66 66 0
67 66 0
68 66 0
69 66 0
70 66 0
71 66 0
72 66 0
73 66 0
74 66 0
75 66 0
76 66 0
77 66 0
78 66 0
79 66 0
80 66 0
81 66 0
82 66 0
83 66 0
84 66 0
85 66 0
86 66 0
87 66 0
88 66 0
89 66 0
90 66 0
91 66 0
92 66 0
93 66 0
94 66 0
95 66 0
96 66 0
97 66 0
98 66 0
99 66 0
100 66 0
101 66 0
102 66 0
103 66 0
104 66 0
105 66 0
106 66 0
107 66 0
108 66 0
109 66 0
110 66 0
111 66 0
112 66 0
113 66 0
114 66 0
115 66 0
116 66 0
117 66 0
118 66 0
119 66 0
120 66 0
1 67 0
2 67 0
3 67 0
4 67 0
5 67 0
6 67 0
7 67 0
8 67 0
9 67 0
10 67 0
11 67 0
12 67 0
13 67 0
14 67 0
15 67 0
16 67 0
17 67 0
18 67 0
19 67 0
20 67 0
21 67 0
22 67 0
23 67 0
24 67 0
25 67 0
26 67 0
27 67 0
28 67 0
29 67 0
30 67 0
31 67 0
32 67 0
33 67 0
34 67 0
35 67 0
36 67 0
37 67 0
38 67 0
39 67 0
40 67 0
41 67 0
42 67 0
43 67 0
44 67 0
45 67 0
46 67 0
47 67 0
48 67 0
49 67 0
50 67 0
51 67 0
52 67 0
53 67 0
54 67 0
55 67 0
56 67 0
57 67 0
58 67 0
59 67 0
60 67 0
61 67 0
62 67 0
63 67 0
64 67 0
65 67 0
66 67 0
67 67 0
68 67 0
69 67 0
70 67 0
71 67 0
72 67 0
73 67 0
74 67 0
75 67 0
76 67 0
77 67 0
78 67 0
79 67 0
80 67 0
81 67 0
82 67 0
83 67 0
84 67 0
85 67 0
86 67 0
87 67 0
88 67 0
89 67 0
90 67 0
91 67 0
92 67 0
93 67 0
94 67 0
95 67 0
96 67 0
97 67 0
98 67 0
99 67 0
100 67 0
101 67 0
102 67 0
103 67 0
104 67 0
105 67 0
106 67 0
107 67 0
108 67 0
109 67 0
110 67 0
111 67 0
112 67 0
113 67 0
114 67 0
115 67 0
116 67 0
117 67 0
118 67 0
119 67 0
120 67 0
1 68 0
2 68 0
3 68 0
4 68 0
5 68 0
6 68 0
7 68 0
8 68 0
9 68 0
10 68 0
11 68 0
12 68 0
13 68 0
14 68 0
15 68 0
16 68 0
17 68 0
18 68 0
19 68 0
20 68 0
21 68 0
22 68 0
23 68 0
24 68 0
25 68 0
26 68 0.99722501540774111
27 68 0
28 68 0
29 68 0
30 68 0
31 68 0
32 68 0
33 68 0
34 68 0
35 68 0
36 68 0
37 68 0
38 68 0
39 68 0
40 68 0
41 68 0
42 68 0
43 68 0
44 68 0
45 68 0
46 68 0
47 68 0
48 68 0
49 68 0
50 68 0
51 68 0
52 68 0
53 68 0
54 68 0
55 68 0
56 68 0
57 68 0
58 68 0
59 68 0
60 68 0
61 68 0
62 68 0
63 68 0
64 68 0
65 68 0
66 68 0
67 68 0
68 68 0
69 68 0
70 68 0
71 68 0
72 68 0
73 68 0
74 68 0
75 68 0
76 68 0
77 68 0
78 68 0
79 68 0
80 68 0
81 68 0
82 68 0
83 68 0
84 68 0
85 68 0
86 68 0
87 68 0
88 68 0
89 68 0
90 68 0
91 68 0
92 68 0
93 68 0
94 68 0
95 68 0
96 68 0
97 68 0
98 68 0
99 68 0
100 68 0
101 68 0
102 68 0
103 68 0
104 68 0
105 68 0
106 68 0
107 68 0
108 68 0
109 68 0
110 68 0
111 68 0
112 68 0
113 68 0
114 68 0
115 68 0
116 68 0
117 68 0
118 68 0
119 68 0
120 68 0
1 69 0
2 69 0
3 69 0
4 69 0
5 69 0
6 69 0
7 69 0
8 69 0
9 69 0
10 69 0
11 69 0
12 69 0
13 69 0
14 69 0
15 69 0
16 69 0
17 69 0
18 69 0
19 69 0
20 69 0
21 69 0
22 69 0
23 69 0
24 69 0
25 69 0
26 69 0
27 69 0.99722501540774111
28 69 0
29 69 0
30 69 0
31 69 0
32 69 0
33 69 0
34 69 0
35 69 0
36 69 0
37 69 0
38 69 0
39 69 0
40 69 0
41 69 0
42 69 0
43 69 0
44 69 0
45 69 0
46 69 0
47 69 0
48 69 0
49 69 0
50 69 0
51 69 0
52 69 0
53 69 0
54 69 0
55 69 0
56 69 0
57 69 0
58 69 0
59 69 0
60 69 0
61 69 0
62 69 0
63 69 0
64 69 0
65 69 0
66 69 0
67 69 0
68 69 0
69 69 0
70 69 0
71 69 0
72 69 0
73 69 0
74 69 0
75 69 0
76 69 0
77 69 0
78 69 0
79 69 0
80 69 0
81 69 0
82 69 0
83 69 0
84 69 0
85 69 0
86 69 0
87 69 0
88 69 0
89 69 0
90 69 0
91 69 0
92 69 0
93 69 0
94 69 0
95 69 0
96 69 0
97 69 0
98 69 0
99 69 0
100 69 0
101 69 0
102 69 0
103 69 0
104 69 0
105 69 0
106 69 0
107 69 0
108 69 0
109 69 0
110 69 0
111 69 0
112 69 0
113 69 0
114 69 0
115 69 0
116 69 0
117 69 0
118 69 0
119 69 0
120 69 0
1 70 0
2 70 0
3 70 0
4 70 0
5 70 0
6 70 0
7 70 0
8 70 0
9 70 0
10 70 0
11 70 0
12 70 0
13 70 0
14 70 0
15 70 0
16 70 0
17 70 0
18 70 0
19 70 0
20 70 0
21 70 0
22 70 0
23 70 0
24 70 0
25 70 0
26 70 0
27 70 0
28 70 0.99722501540774111
29 70 0
30 70 0
31 70 0
32 70 0
33 70 0
34 70 0
35 70 0
36 70 0
37 70 0
38 70 0
39 70 0
40 70 0
41 70 0
42 70 0
43 70 0
44 70 0
45 70 0
46 70 0
47 70 0
48 70 0
49 70 0
50 70 0
51 70 0
52 70 0
53 70 0
54 70 0
55 70 0
56 70 0
57 70 0
58 70 0
59 70 0
60 70 0
61 70 0
62 70 0
63 70 0
64 70 0
65 70 0
66 70 0
67 70 0
68 70 0
69 70 0
70 70 0
71 70 0
72 70 0
73 70 0
74 70 0
75 70 0
76 70 0
77 70 0
78 70 0
79 70 0
80 70 0
81 70 0
82 70 0
83 70 0
84 70 0
85 70 0
86 70 0
87 70 0
88 70 0
89 70 0
90 70 0
91 70 0
92 70 0
93 70 0
94 70 0
95 70 0
96 70 0
97 70 0
98 70 0
99 70 0
100 70 0
101 70 0
102 70 0
103 70 0
104 70 0
105 70 0
106 70 0
107 70 0
108 70 0
109 70 0
110 70 0
111 70 0
112 70 0
113 70 0
114 70 0
115 70 0
116 70 0
117 70 0
118 70 0
119 70 0
120 70 0
1 71 0
2 71 0
3 71 0
4 71 0
5 71 0
6 71 0
7 71 0
8 71 0
9 71 0
10 71 0
11 71 0
12 71 0
13 71 0
14 71 0
15 71 0
16 71 0
17 71 0
18 71 0
19 71 0
20 71 0
21 71 0
22 71 0
23 71 0
24 71 0
25 71 0
26 71 0
27 71 0
28 71 0
29 71 0.99722501540774111
30 71 0
31 71 0
32 71 0
33 71 0
34 71 0
35 71 0
36 71 0
37 71 0
38 71 0
39 71 0
40 71 0
41 71 0
42 71 0
43 71 0
44 71 0
45 71 0
46 71 0
47 71 0
48 71 0
49 71 0
50 71 0
51 71 0
52 71 0
53 71 0
54 71 0
55 71 0
56 71 0
57 71 0
58 71 0
59 71 0
60 71 0
61 71 0
62 71 0
63 71 0
64 71 0
65 71 0
66 71 0
67 71 0
68 71 0
69 71 0
70 71 0
71 71 0
72 71 0
73 71 0
74 71 0
75 71 0
76 71 0
77 71 0
78 71 0
79 71 0
80 71 0
81 71 0
82 71 0
83 71 0
84 71 0
85 71 0
86 71 0
87 71 0
88 71 0
89 71 0
90 71 0
91 71 0
92 71 0
93 71 0
94 71 0
95 71 0
96 71 0
97 71 0
98 71 0
99 71 0
100 71 0
101 71 0
102 71 0
103 71 0
104 71 0
105 71 0
106 71 0
107 71 0
108 71 0
109 71 0
110 71 0
111 71 0
112 71 0
113 71 0
114 71 0
115 71 0
116 71 0
117 71 0
118 71 0
119 71 0
120 71 0
1 72 0
2 72 0
3 72 0
4 72 0
5 72 0
6 72 0
7 72 0
8 72 0
9 72 0
10 72 0
11 72 0
12 72 0
13 72 0
14 72 0
15 72 0
16 72 0
17 72 0
18 72 0
19 72 0
20 72 0
21 72 0
22 72 0
23 72 0
24 72 0
25 72 0
26 72 0
27 72 0
28 72 0
29 72 0
30 72 0.99722501540774111
31 72 0
32 72 0
33 72 0
34 72 0
35 72 0
36 72 0
37 72 0
38 72 0
39 72 0
40 72 0
41 72 0
42 72 0
43 72 0
44 72 0
45 72 0
46 72 0
47 72 0
48 72 0
49 72 0
50 72 0
51 72 0
52 72 0
53 72 0
54 72 0
55 72 0
56 72 0
57 72 0
58 72 0
59 72 0
60 72 0
61 72 0
62 72 0
63 72 0
64 72 0
65 72 0
66 72 0
67 72 0
68 72 0
69 72 0
70 72 0
71 72 0
72 72 0
73 72 0
74 72 0
75 72 0
76 72 0
77 72 0
78 72 0
79 72 0
80 72 0
81 72 0
82 72 0
83 72 0
84 72 0
85 72 0
86 72 0
87 72 0
88 72 0
89 72 0
90 72 0
91 72 0
92 72 0
93 72 0
94 72 0
95 72 0
96 72 0
97 72 0
98 72 0
99 72 0
100 72 0
101 72 0
102 72 0
103 72 0
104 72 0
105 72 0
106 72 0
107 72 0
108 72 0
109 72 0
110 72 0
111 72 0
112 72 0
113 72 0
114 72 0
115 72 0
116 72 0
117 72 0
118 72 0
119 72 0
120 72 0
1 73 0
2 73 0
3 73 0
4 73 0
5 73 0
6 73 0
7 73 0
8 73 0
9 73 0
10 73 0
11 73 0
12 73 0
13 73 0
14 73 0
15 73 0
16 73 0
17 73 0
18 73 0
19 73 0
20 73 0
21 73 0
22 73 0
23 73 0
24 73 0
25 73 0
26 73 0
27 73 0
28 73 0
29 73 0
30 73 0
31 73 0
32 73 0
33 73 0
34 73 0
35 73 0
36 73 0
37 73 0
38 73 0
39 73 0
40 73 0
41 73 0
42 73 0
43 73 0
44 73 0
45 73 0
46 73 0
47 73 0
48 73 0
49 73 0
50 73 0
51 73 0
52 73 0
53 73 0
54 73 0
55 73 0
56 73 0
57 73 0
58 73 0
59 73 0
60 73 0
61 73 0
62 73 0
63 73 0
64 73 0
65 73 0
66 73 0
67 73 0
68 73 0
69 73 0
70 73 0
71 73 0
72 73 0
73 73 0
74 73 0
75 73 0
76 73 0
77 73 0
78 73 0
79 73 0
80 73 0
81 73 0
82 73 0
83 73 0
84 73 0
85 73 0
86 73 0
87 73 0
88 73 0
89 73 0
90 73 0
91 73 0
92 73 0
93 73 0
94 73 0
95 73 0
96 73 0
97 73 0
98 73 0
99 73 0
100 73 0
101 73 0
102 73 0
103 73 0
104 73 0
105 73 0
106 73 0
107 73 0
108 73 0
109 73 0
110 73 0
111 73 0
112 73 0
113 73 0
114 73 0
115 73 0
116 73 0
117 73 0
118 73 0
119 73 0
120 73 0
1 74 0
2 74 0
3 74 0
4 74 0
5 74 0
6 74 0
7 74 0
8 74 0
9 74 0
10 74 0
11 74 0
12 74 0
13 74 0
14 74 0
15 74 0
16 74 0
17 74 0
18 74 0
19 74 0
20 74 0
21 74 0
22 74 0
23 74 0
24 74 0
25 74 0
26 74 0
27 74 0
28 74 0
29 74 0
30 74 0
31 74 0
32 74 0
33 74 0
34 74 0
35 74 0
36 74 0
37 74 0
38 74 0
39 74 0
40 74 0
41 74 0
42 74 0
43 74 0
44 74 0
45 74 0
46 74 0
47 74 0
48 74 0
49 74 0
50 74 0
51 74 0
52 74 0
53 74 0
54 74 0
55 74 0
56 74 0
57 74 0
58 74 0
59 74 0
60 74 0
61 74 0
62 74 0
63 74 0
64 74 0
65 74 0
66 74 0
67 74 0
68 74 0
69 74 0
70 74 0
71 74 0
72 74 0
73 74 0
74 74 0
75 74 0
76 74 0
77 74 0
78 74 0
79 74 0
80 74 0
81 74 0
82 74 0
83 74 0
84 74 0
85 74 0
86 74 0
87 74 0
88 74 0
89 74 0
90 74 0
91 74 0
92 74 0
93 74 0
94 74 0
95 74 0
96 74 0
97 74 0
98 74 0
99 74 0
100 74 0
101 74 0
102 74 0
103 74 0
104 74 0
105 74 0
106 74 0
107 74 0
108 74 0
109 74 0
110 74 0
111 74 0
112 74 0
113 74 0
114 74 0
115 74 0
116 74 0
117 74 0
118 74 0
119 74 0
120 74 0
1 75 0
2 75 0
3 75 0
4 75 0
5 75 0
6 75 0
7 75 0
8 75 0
9 75 0
10 75 0
11 75 0
12 75 0
13 75 0
14 75 0
15 75 0
16 75 0
17 75 0
18 75 0
19 75 0
20 75 0
21 75 0
22 75 0
23 75 0
24 75 0
25 75 0
26 75 0
27 75 0
28 75 0
29 75 0
30 75 0
31 75 0
32 75 0
33 75 0
34 75 0
35 75 0
36 75 0
37 75 0
38 75 0
39 75 0
40 75 0
41 75 0
42 75 0
43 75 0
44 75 0
45 75 0
46 75 0
47 75 0
48 75 0
49 75 0
50 75 0
51 75 0
52 75 0
53 75 0
54 75 0
55 75 0
56 75 0
57 75 0
58 75 0
59 75 0
60 75 0
61 75 0
62 75 0
63 75 0
64 75 0
65 75 0
66 75 0
67 75 0
68 75 0
69 75 0
70 75 0
71 75 0
72 75 0
73 75 0
74 75 0
75 75 0
76 75 0
77 75 0
78 75 0
79 75 0
80 75 0
81 75 0
82 75 0
83 75 0
84 75 0
85 75 0
86 75 0
87 75 0
88 75 0
89 75 0
90 75 0
91 75 0
92 75 0
93 75 0
94 75 0
95 75 0
96 75 0
97 75 0
98 75 0
99 75 0
100 75 0
101 75 0
102 75 0
103 75 0
104 75 0
105 75 0
106 75 0
107 75 0
108 75 0
109 75 0
110 75 0
111 75 0
112 75 0
113 75 0
114 75 0
115 75 0
116 75 0
117 75 0
118 75 0
119 75 0
120 75 0
1 76 0
2 76 0
3 76 0
4 76 0
5 76 0
6 76 0
7 76 0
8 76 0
9 76 0
10 76 0
11 76 0
12 76 0
13 76 0
14 76 0
15 76 0
16 76 0
17 76 0
18 76 0
19 76 0
20 76 0
21 76 0
22 76 0
23 76 0
24 76 0
25 76 0
26 76 0
27 76 0
28 76 0
29 76 0
30 76 0
31 76 0
32 76 0
33 76 0
34 76 0
35 76 0
36 76 0
37 76 0
38 76 0
39 76 0
40 76 0
41 76 0
42 76 0
43 76 0
44 76 0
45 76 0
46 76 0
47 76 0
48 76 0
49 76 0
50 76 0
51 76 0
52 76 0
53 76 0
54 76 0
55 76 0
56 76 0
57 76 0
58 76 0
59 76 0
60 76 0
61 76 0
62 76 0
63 76 0
64 76 0
65 76 0
66 76 0
67 76 0
68 76 0
69 76 0
70 76 0
71 76 0
72 76 0
73 76 0
74 76 0
75 76 0
76 76 0
77 76 0
78 76 0
79 76 0
80 76 0
81 76 0
82 76 0
83 76 0
84 76 0
85 76 0
86 76 0
87 76 0
88 76 0
89 76 0
90 76 0
91 76 0
92 76 0
93 76 0
94 76 0
95 76 0
96 76 0
97 76 0
98 76 0
99 76 0
100 76 0
101 76 0
102 76 0
103 76 0
104 76 0
105 76 0
106 76 0
107 76 0
108 76 0
109 76 0
110 76 0
111 76 0
112 76 0
113 76 0
114 76 0
115 76 0
116 76 0
117 76 0
118 76 0
119 76 0
120 76 0
1 77 0
2 77 0
3 77 0
4 77 0
5 77 0
6 77 0
7 77 0
8 77 0
9 77 0
10 77 0
11 77 0
12 77 0
13 77 0
14 77 0
15 77 0
16 77 0
17 77 0
18 77 0
19 77 0
20 77 0
21 77 0
22 77 0
23 77 0
24 77 0
25 77 0
26 77 0
27 77 0
28 77 0
29 77 0
30 77 0
31 77 0
32 77 0
33 77 0
34 77 0
35 77 0
36 77 0
37 77 0
38 77 0
39 77 0
40 77 0
41 77 0
42 77 0
43 77 0
44 77 0
45 77 0
46 77 0
47 77 0
48 77 0
49 77 0
50 77 0
51 77 0
52 77 0
53 77 0
54 77 0
55 77 0
56 77 0
57 77 0
58 77 0
59 77 0
60 77 0
61 77 0
62 77 0
63 77 0
64 77 0
65 77 0
66 77 0
67 77 0
68 77 0
69 77 0
70 77 0
71 77 0
72 77 0
73 77 0
74 77 0
75 77 0
76 77 0
77 77 0
78 77 0
79 77 0
80 77 0
81 77 0
82 77 0
83 77 0
84 77 0
85 77 0
86 77 0
87 77 0
88 77 0
89 77 0
90 77 0
91 77 0
92 77 0
93 77 0
94 77 0
95 77 0
96 77 0
97 77 0
98 77 0
99 77 0
100 77 0
101 77 0
102 77 0
103 77 0
104 77 0
105 77 0
106 77 0
107 77 0
108 77 0
109 77 0
110 77 0
111 77 0
112 77 0
113 77 0
114 77 0
115 77 0
116 77 0
117 77 0
118 77 0
119 77 0
120 77 0
1 78 0
2 78 0
3 78 0
4 78 0
5 78 0
6 78 0
7 78 0
8 78 0
9 78 0
10 78 0
11 78 0
12 78 0
13 78 0
14 78 0
15 78 0
16 78 0
17 78 0
18 78 0
19 78 0
20 78 0
21 78 0
22 78 0
23 78 0
24 78 0
25 78 0
26 78 0
27 78 0
28 78 0
29 78 0
30 78 0
31 78 0
32 78 0
33 78 0
34 78 0
35 78 0
36 78 0
37 78 0
38 78 0
39 78 0
40 78 0
41 78 0
42 78 0
43 78 0
44 78 0
45 78 0
46 78 0
47 78 0
48 78 0
49 78 0
50 78 0
51 78 0
52 78 0
53 78 0
54 78 0
55 78 0
56 78 0
57 78 0
58 78 0
59 78 0
60 78 0
61 78 0
62 78 0
63 78 0
64 78 0
65 78 0
66 78 0
67 78 0
68 78 0
69 78 0
70 78 0
71 78 0
72 78 0
73 78 0
74 78 0
75 78 0
76 78 0
77 78 0
78 78 0
79 78 0
80 78 0
81 78 0
82 78 0
83 78 0
84 78 0
85 78 0
86 78 0
87 78 0
88 78 0
89 78 0
90 78 0
91 78 0
92 78 0
93 78 0
94 78 0
95 78 0
96 78 0
97 78 0
98 78 0
99 78 0
100 78 0
101 78 0
102 78 0
103 78 0
104 78 0
105 78 0
106 78 0
107 78 0
108 78 0
109 78 0
110 78 0
111 78 0
112 78 0
113 78 0
114 78 0
115 78 0
116 78 0
117 78 0
118 78 0
119 78 0
120 78 0
1 79 0
2 79 0
3 79 0
4 79 0
5 79 0
6 79 0
7 79 0
8 79 0
9 79 0
10 79 0
11 79 0
12 79 0
13 79 0
14 79 0
15 79 0
16 79 0
17 79 0
18 79 0
19 79 0
20 79 0
21 79 0
22 79 0
23 79 0
24 79 0
25 79 0
26 79 0
27 79 0
28 79 0
29 79 0
30 79 0
31 79 0
32 79 0
33 79 0
34 79 0
35 79 0
36 79 0
37 79 0
38 79 0
39 79 0
40 79 0
41 79 0
42 79 0
43 79 0
44 79 0
45 79 0
46 79 0
47 79 0
48 79 0
49 79 0
50 79 0
51 79 0
52 79 0
53 79 0
54 79 0
55 79 0
56 79 0
57 79 0
58 79 0
59 79 0
60 79 0
61 79 0
62 79 0
63 79 0
64 79 0
65 79 0
66 79 0
67 79 0
68 79 0
69 79 0
70 79 0
71 79 0
72 79 0
73 79 0
74 79 0
75 79 0
76 79 0
77 79 0
78 79 0
79 79 0
80 79 0
81 79 0
82 79 0
83 79 0
84 79 0
85 79 0
86 79 0
87 79 0
88 79 0
89 79 0
90 79 0
91 79 0
92 79 0
93 79 0
94 79 0
95 79 0
96 79 0
97 79 0
98 79 0
99 79 0
100 79 0
101 79 0
102 79 0
103 79 0
104 79 0
105 79 0
106 79 0
107 79 0
108 79 0
109 79 0
110 79 0
111 79 0
112 79 0
113 79 0
114 79 0
115 79 0
116 79 0
117 79 0
118 79 0
119 79 0
120 79 0
1 80 0
2 80 0
3 80 0
4 80 0
5 80 0
6 80 0
7 80 0
8 80 0
9 80 0
10 80 0
11 80 0
12 80 0
13 80 0
14 80 0
15 80 0
16 80 0
17 80 0
18 80 0
19 80 0
20 80 0
21 80 0
22 80 0
23 80 0
24 80 0
25 80 0
26 80 0
27 80 0
28 80 0
29 80 0
30 80 0
31 80 0.99722501540774111
32 80 0
33 80 0
34 80 0
35 80 0
36 80 0
37 80 0
38 80 0
39 80 0
40 80 0
41 80 0
42 80 0
43 80 0
44 80 0
45 80 0
46 80 0
47 80 0
48 80 0
49 80 0
50 80 0
51 80 0
52 80 0
53 80 0
54 80 0
55 80 0
56 80 0
57 80 0
58 80 0
59 80 0
60 80 0
61 80 0
62 80 0
63 80 0
64 80 0
65 80 0
66 80 0
67 80 0
68 80 0
69 80 0
70 80 0
71 80 0
72 80 0
73 80 0
74 80 0
75 80 0
76 80 0
77 80 0
78 80 0
79 80 0
80 80 0
81 80 0
82 80 0
83 80 0
84 80 0
85 80 0
86 80 0
87 80 0
88 80 0
89 80 0
90 80 0
91 80 0
92 80 0
93 80 0
94 80 0
95 80 0
96 80 0
97 80 0
98 80 0
99 80 0
100 80 0
101 80 0
102 80 0
103 80 0
104 80 0
105 80 0
106 80 0
107 80 0
108 80 0
109 80 0
110 80 0
111 80 0
112 80 0
113 80 0
114 80 0
115 80 0
116 80 0
117 80 0
118 80 0
119 80 0
120 80 0
1 81 0
2 81 0
3 81 0
4 81 0
5 81 0
6 81 0
7 81 0
8 81 0
9 81 0
10 81 0
11 81 0
12 81 0
13 81 0
14 81 0
15 81 0
16 81 0
17 81 0
18 81 0
19 81 0
20 81 0
21 81 0
22 81 0
23 81 0
24 81 0
25 81 0
26 81 0
27 81 0
28 81 0
29 81 0
30 81 0
31 81 0
32 81 0.99722501540774111
33 81 0
34 81 0
35 81 0
36 81 0
37 81 0
38 81 0
39 81 0
40 81 0
41 81 0
42 81 0
43 81 0
44 81 0
45 81 0
46 81 0
47 81 0
48 81 0
49 81 0
50 81 0
51 81 0
52 81 0
53 81 0
54 81 0
55 81 0
56 81 0
57 81 0
58 81 0
59 81 0
60 81 0
61 81 0
62 81 0
63 81 0
64 81 0
65 81 0
66 81 0
67 81 0
68 81 0
69 81 0
70 81 0
71 81 0
72 81 0
73 81 0
74 81 0
75 81 0
76 81 0
77 81 0
78 81 0
79 81 0
80 81 0
81 81 0
82 81 0
83 81 0
84 81 0
85 81 0
86 81 0
87 81 0
88 81 0
89 81 0
90 81 0
91 81 0
92 81 0
93 81 0
94 81 0
95 81 0
96 81 0
97 81 0
98 81 0
99 81 0
100 81 0
101 81 0
102 81 0
103 81 0
104 81 0
105 81 0
106 81 0
107 81 0
108 81 0
109 81 0
110 81 0
111 81 0
112 81 0
113 81 0
114 81 0
115 81 0
116 81 0
117 81 0
118 81 0
119 81 0
120 81 0
1 82 0
2 82 0
3 82 0
4 82 0
5 82 0
6 82 0
7 82 0
8 82 0
9 82 0
10 82 0
11 82 0
12 82 0
13 82 0
14 82 0
15 82 0
16 82 0
17 82 0
18 82 0
19 82 0
20 82 0
21 82 0
22 82 0
23 82 0
24 82 0
25 82 0
26 82 0
27 82 0
28 82 0
29 82 0
30 82 0
31 82 0
32 82 0
33 82 0.99722501540774111
34 82 0
35 82 0
36 82 0
37 82 0
38 82 0
39 82 0
40 82 0
41 82 0
42 82 0
43 82 0
44 82 0
45 82 0
46 82 0
47 82 0
48 82 0
49 82 0
50 82 0
51 82 0
52 82 0
53 82 0
54 82 0
55 82 0
56 82 0
57 82 0
58 82 0
59 82 0
60 82 0
61 82 0
62 82 0
63 82 0
64 82 0
65 82 0
66 82 0
67 82 0
68 82 0
69 82 0
70 82 0
71 82 0
72 82 0
73 82 0
74 82 0
75 82 0
76 82 0
77 82 0
78 82 0
79 82 0
80 82 0
81 82 0
82 82 0
83 82 0
84 82 0
85 82 0
86 82 0
87 82 0
88 82 0
89 82 0
90 82 0
91 82 0
92 82 0
93 82 0
94 82 0
95 82 0
96 82 0
97 82 0
98 82 0
99 82 0
100 82 0
101 82 0
102 82 0
103 82 0
104 82 0
105 82 0
106 82 0
107 82 0
108 82 0
109 82 0
110 82 0
111 82 0
112 82 0
113 82 0
114 82 0
115 82 0
116 82 0
117 82 0
118 82 0
119 82 0
120 82 0
1 83 0
2 83 0
3 83 0
4 83 0
5 83 0
6 83 0
7 83 0
8 83 0
9 83 0
10 83 0
11 83 0
12 83 0
13 83 0
14 83 0
15 83 0
16 83 0
17 83 0
18 83 0
19 83 0
20 83 0
21 83 0
22 83 0
23 83 0
24 83 0
25 83 0
26 83 0
27 83 0
28 83 0
29 83 0
30 83 0
31 83 0
32 83 0
33 83 0
34 83 0.99722501540774111
35 83 0
36 83 0
37 83 0
38 83 0
39 83 0
40 83 0
41 83 0
42 83 0
43 83 0
44 83 0
45 83 0
46 83 0
47 83 0
48 83 0
49 83 0
50 83 0
51 83 0
52 83 0
53 83 0
54 83 0
55 83 0
56 83 0
57 83 0
58 83 0
59 83 0
60 83 0
61 83 0
62 83 0
63 83 0
64 83 0
65 83 0
66 83 0
67 83 0
68 83 0
69 83 0
70 83 0
71 83 0
72 83 0
73 83 0
74 83 0
75 83 0
76 83 0
77 83 0
78 83 0
79 83 0
80 83 0
81 83 0
82 83 0
83 83 0
84 83 0
85 83 0
86 83 0
87 83 0
88 83 0
89 83 0
90 83 0
91 83 0
92 83 0
93 83 0
94 83 0
95 83 0
96 83 0
97 83 0
98 83 0
99 83 0
100 83 0
101 83 0
102 83 0
103 83 0
104 83 0
105 83 0
106 83 0
107 83 0
108 83 0
109 83 0
110 83 0
111 83 0
112 83 0
113 83 0
114 83 0
115 83 0
116 83 0
117 83 0
118 83 0
119 83 0
120 83 0
1 84 0
2 84 0
3 84 0
4 84 0
5 84 0
6 84 0
7 84 0
8 84 0
9 84 0
10 84 0
11 84 0
12 84 0
13 84 0
14 84 0
15 84 0
16 84 0
17 84 0
18 84 0
19 84 0
20 84 0
21 84 0
22 84 0
23 84 0
24 84 0
25 84 0
26 84 0
27 84 0
28 84 0
29 84 0
30 84 0
31 84 0
32 84 0
33 84 0
34 84 0
35 84 0.99722501540774111
36 84 0
37 84 0
38 84 0
39 84 0
40 84 0
41 84 0
42 84 0
43 84 0
44 84 0
45 84 0
46 84 0
47 84 0
48 84 0
49 84 0
50 84 0
51 84 0
52 84 0
53 84 0
54 84 0
55 84 0
56 84 0
57 84 0
58 84 0
59 84 0
60 84 0
61 84 0
62 84 0
63 84 0
64 84 0
65 84 0
66 84 0
67 84 0
68 84 0
69 84 0
70 84 0
71 84 0
72 84 0
73 84 0
74 84 0
75 84 0
76 84 0
77 84 0
78 84 0
79 84 0
80 84 0
81 84 0
82 84 0
83 84 0
84 84 0
85 84 0
86 84 0
87 84 0
88 84 0
89 84 0
90 84 0
91 84 0
92 84 0
93 84 0
94 84 0
95 84 0
96 84 0
97 84 0
98 84 0
99 84 0
100 84 0
101 84 0
102 84 0
103 84 0
104 84 0
105 84 0
106 84 0
107 84 0
108 84 0
109 84 0
110 84 0
111 84 0
112 84 0
113 84 0
114 84 0
115 84 0
116 84 0
117 84 0
118 84 0
119 84 0
120 84 0
1 85 0
2 85 0
3 85 0
4 85 0
5 85 0
6 85 0
7 85 0
8 85 0
9 85 0
10 85 0
11 85 0
12 85 0
13 85 0
14 85 0
15 85 0
16 85 0
17 85 0
18 85 0
19 85 0
20 85 0
21 85 0
22 85 0
23 85 0
24 85 0
25 85 0
26 85 0
27 85 0
28 85 0
29 85 0
30 85 0
31 85 0
32 85 0
33 85 0
34 85 0
35 85 0
36 85 0
37 85 0
38 85 0
39 85 0
40 85 0
41 85 0
42 85 0
43 85 0
44 85 0
45 85 0
46 85 0
47 85 0
48 85 0
49 85 0
50 85 0
51 85 0
52 85 0
53 85 0
54 85 0
55 85 0
56 85 0
57 85 0
58 85 0
59 85 0
60 85 0
61 85 0.99722501540774111
62 85 0
63 85 0
64 85 0
65 85 0
66 85 0
67 85 0
68 85 0
69 85 0
70 85 0
71 85 0
72 85 0
73 85 0
74 85 0
75 85 0
76 85 0
77 85 0
78 85 0
79 85 0
80 85 0
81 85 0
82 85 0
83 85 0
84 85 0
85 85 0
86 85 0
87 85 0
88 85 0
89 85 0
90 85 0
91 85 0
92 85 0
93 85 0
94 85 0
95 85 0
96 85 0
97 85 0
98 85 0
99 85 0
100 85 0
101 85 0
102 85 0
103 85 0
104 85 0
105 85 0
106 85 0
107 85 0
108 85 0
109 85 0
110 85 0
111 85 0
112 85 0
113 85 0
114 85 0
115 85 0
116 85 0
117 85 0
118 85 0
119 85 0
120 85 0
1 86 0
2 86 0
3 86 0
4 86 0
5 86 0
6 86 0
7 86 0
8 86 0
9 86 0
10 86 0
11 86 0
12 86 0
13 86 0
14 86 0
15 86 0
16 86 0
17 86 0
18 86 0
19 86 0
20 86 0
21 86 0
22 86 0
23 86 0
24 86 0
25 86 0
26 86 0
27 86 0
28 86 0
29 86 0
30 86 0
31 86 0
32 86 0
33 86 0
34 86 0
35 86 0
36 86 0
37 86 0
38 86 0
39 86 0
40 86 0
41 86 0
42 86 0
43 86 0
44 86 0
45 86 0
46 86 0
47 86 0
48 86 0
49 86 0
50 86 0
51 86 0
52 86 0
53 86 0
54 86 0
55 86 0
56 86 0
57 86 0
58 86 0
59 86 0
60 86 0
61 86 0
62 86 0.99722501540774111
63 86 0
64 86 0
65 86 0
66 86 0
67 86 0
68 86 0
69 86 0
70 86 0
71 86 0
72 86 0
73 86 0
74 86 0
75 86 0
76 86 0
77 86 0
78 86 0
79 86 0
80 86 0
81 86 0
82 86 0
83 86 0
84 86 0
85 86 0
86 86 0
87 86 0
88 86 0
89 86 0
90 86 0
91 86 0
92 86 0
93 86 0
94 86 0
95 86 0
96 86 0
97 86 0
98 86 0
99 86 0
100 86 0
101 86 0
102 86 0
103 86 0
104 86 0
105 86 0
106 86 0
107 86 0
108 86 0
109 86 0
110 86 0
111 86 0
112 86 0
113 86 0
114 86 0
115 86 0
116 86 0
117 86 0
118 86 0
119 86 0
120 86 0
1 87 0
2 87 0
3 87 0
4 87 0
5 87 0
6 87 0
7 87 0
8 87 0
9 87 0
10 87 0
11 87 0
12 87 0
13 87 0
14 87 0
15 87 0
16 87 0
17 87 0
18 87 0
19 87 0
20 87 0
21 87 0
22 87 0
23 87 0
24 87 0
25 87 0
26 87 0
27 87 0
28 87 0
29 87 0
30 87 0
31 87 0
32 87 0
33 87 0
34 87 0
35 87 0
36 87 0
37 87 0
38 87 0
39 87 0
40 87 0
41 87 0
42 87 0
43 87 0
44 87 0
45 87 0
46 87 0
47 87 0
48 87 0
49 87 0
50 87 0
51 87 0
52 87 0
53 87 0
54 87 0
55 87 0
56 87 0
57 87 0
58 87 0
59 87 0
60 87 0
61 87 0
62 87 0
63 87 0.99722501540774111
64 87 0
65 87 0
66 87 0
67 87 0
68 87 0
69 87 0
70 87 0
71 87 0
72 87 0
73 87 0
74 87 0
75 87 0
76 87 0
77 87 0
78 87 0
79 87 0
80 87 0
81 87 0
82 87 0
83 87 0
84 87 0
85 87 0
86 87 0
87 87 0
88 87 0
89 87 0
90 87 0
91 87 0
92 87 0
93 87 0
94 87 0
95 87 0
96 87 0
97 87 0
98 87 0
99 87 0
100 87 0
101 87 0
102 87 0
103 87 0
104 87 0
105 87 0
106 87 0
107 87 0
108 87 0
109 87 0
110 87 0
111 87 0
112 87 0
113 87 0
114 87 0
115 87 0
116 87 0
117 87 0
118 87 0
119 87 0
120 87 0
1 88 0
2 88 0
3 88 0
4 88 0
5 88 0
6 88 0
7 88 0
8 88 0
9 88 0
10 88 0
11 88 0
12 88 0
13 88 0
14 88 0
15 88 0
16 88 0
17 88 0
18 88 0
19 88 0
20 88 0
21 88 0
22 88 0
23 88 0
24 88 0
25 88 0
26 88 0
27 88 0
28 88 0
29 88 0
30 88 0
31 88 0
32 88 0
33 88 0
34 88 0
35 88 0
36 88 0
37 88 0
38 88 0
39 88 0
40 88 0
41 88 0
42 88 0
43 88 0
44 88 0
45 88 0
46 88 0
47 88 0
48 88 0
49 88 0
50 88 0
51 88 0
52 88 0
53 88 0
54 88 0
55 88 0
56 88 0
57 88 0
58 88 0
59 88 0
60 88 0
61 88 0
62 88 0
63 88 0
64 88 0.99722501540774111
65 88 0
66 88 0
67 88 0
68 88 0
69 88 0
70 88 0
71 88 0
72 88 0
73 88 0
74 88 0
75 88 0
76 88 0
77 88 0
78 88 0
79 88 0
80 88 0
81 88 0
82 88 0
83 88 0
84 88 0
85 88 0
86 88 0
87 88 0
88 88 0
89 88 0
90 88 0
91 88 0
92 88 0
93 88 0
94 88 0
95 88 0
96 88 0
97 88 0
98 88 0
99 88 0
100 88 0
101 88 0
102 88 0
103 88 0
104 88 0
105 88 0
106 88 0
107 88 0
108 88 0
109 88 0
110 88 0
111 88 0
112 88 0
113 88 0
114 88 0
115 88 0
116 88 0
117 88 0
118 88 0
119 88 0
120 88 0
1 89 0
2 89 0
3 89 0
4 89 0
5 89 0
6 89 0
7 89 0
8 89 0
9 89 0
10 89 0
11 89 0
12 89 0
13 89 0
14 89 0
15 89 0
16 89 0
17 89 0
18 89 0
19 89 0
20 89 0
21 89 0
22 89 0
23 89 0
24 89 0
25 89 0
26 89 0
27 89 0
28 89 0
29 89 0
30 89 0
31 89 0
32 89 0
33 89 0
34 89 0
35 89 0
36 89 0
37 89 0
38 89 0
39 89 0
40 89 0
41 89 0
42 89 0
43 89 0
44 89 0
45 89 0
46 89 0
47 89 0
48 89 0
49 89 0
50 89 0
51 89 0
52 89 0
53 89 0
54 89 0
55 89 0
56 89 0
57 89 0
58 89 0
59 89 0
60 89 0
61 89 0
62 89 0
63 89 0
64 89 0
65 89 0.99722501540774111
66 89 0
67 89 0
68 89 0
69 89 0
70 89 0
71 89 0
72 89 0
73 89 0
74 89 0
75 89 0
76 89 0
77 89 0
78 89 0
79 89 0
80 89 0
81 89 0
82 89 0
83 89 0
84 89 0
85 89 0
86 89 0
87 89 0
88 89 0
89 89 0
90 89 0
91 89 0
92 89 0
93 89 0
94 89 0
95 89 0
96 89 0
97 89 0
98 89 0
99 89 0
100 89 0
101 89 0
102 89 0
103 89 0
104 89 0
105 89 0
106 89 0
107 89 0
108 89 0
109 89 0
110 89 0
111 89 0
112 89 0
113 89 0
114 89 0
115 89 0
116 89 0
117 89 0
118 89 0
119 89 0
120 89 0
1 90 0
2 90 0
3 90 0
4 90 0
5 90 0
6 90 0
7 90 0
8 90 0
9 90 0
10 90 0
11 90 0
12 90 0
13 90 0
14 90 0
15 90 0
16 90 0
17 90 0
18 90 0
19 90 0
20 90 0
21 90 0
22 90 0
23 90 0
24 90 0
25 90 0
26 90 0
27 90 0
28 90 0
29 90 0
30 90 0
31 90 0
32 90 0
33 90 0
34 90 0
35 90 0
36 90 0
37 90 0
38 90 0
39 90 0
40 90 0
41 90 0
42 90 0
43 90 0
44 90 0
45 90 0
46 90 0
47 90 0
48 90 0
49 90 0
50 90 0
51 90 0
52 90 0
53 90 0
54 90 0
55 90 0
56 90 0
57 90 0
58 90 0
59 90 0
60 90 0
61 90 0
62 90 0
63 90 0
64 90 0
65 90 0
66 90 0.99722501540774111
67 90 0
68 90 0
69 90 0
70 90 0
71 90 0
72 90 0
73 90 0
74 90 0
75 90 0
76 90 0
77 90 0
78 90 0
79 90 0
80 90 0
81 90 0
82 90 0
83 90 0
84 90 0
85 90 0
86 90 0
87 90 0
88 90 0
89 90 0
90 90 0
91 90 0
92 90 0
93 90 0
94 90 0
95 90 0
96 90 0
97 90 0
98 90 0
99 90 0
100 90 0
101 90 0
102 90 0
103 90 0
104 90 0
105 90 0
106 90 0
107 90 0
108 90 0
109 90 0
110 90 0
111 90 0
112 90 0
113 90 0
114 90 0
115 90 0
116 90 0
117 90 0
118 90 0
119 90 0
120 90 0
1 91 0
2 91 0
3 91 0
4 91 0
5 91 0
6 91 0
7 91 0
8 91 0
9 91 0
10 91 0
11 91 0
12 91 0
13 91 0
14 91 0
15 91 0
16 91 0
17 91 0
18 91 0
19 91 0
20 91 0
21 91 0
22 91 0
23 91 0
24 91 0
25 91 0
26 91 0
27 91 0
28 91 0
29 91 0
30 91 0
31 91 0
32 91 0
33 91 0
34 91 0
35 91 0
36 91 0
37 91 0
38 91 0
39 91 0
40 91 0
41 91 0
42 91 0
43 91 0
44 91 0
45 91 0
46 91 0
47 91 0
48 91 0
49 91 0
50 91 0
51 91 0
52 91 0
53 91 0
54 91 0
55 91 0
56 91 0
57 91 0
58 91 0
59 91 0
60 91 0
61 91 0
62 91 0
63 91 0
64 91 0
65 91 0
66 91 0
67 91 0.99722501540774111
68 91 0
69 91 0
70 91 0
71 91 0
72 91 0
73 91 0
74 91 0
75 91 0
76 91 0
77 91 0
78 91 0
79 91 0
80 91 0
81 91 0
82 91 0
83 91 0
84 91 0
85 91 0
86 91 0
87 91 0
88 91 0
89 91 0
90 91 0
91 91 0
92 91 0
93 91 0
94 91 0
95 91 0
96 91 0
97 91 0
98 91 0
99 91 0
100 91 0
101 91 0
102 91 0
103 91 0
104 91 0
105 91 0
106 91 0
107 91 0
108 91 0
109 91 0
110 91 0
111 91 0
112 91 0
113 91 0
114 91 0
115 91 0
116 91 0
117 91 0
118 91 0
119 91 0
120 91 0
1 92 0
2 92 0
3 92 0
4 92 0
5 92 0
6 92 0
7 92 0
8 92 0
9 92 0
10 92 0
11 92 0
12 92 0
13 92 0
14 92 0
15 92 0
16 92 0
17 92 0
18 92 0
19 92 0
20 92 0
21 92 0
22 92 0
23 92 0
24 92 0
25 92 0
26 92 0
27 92 0
28 92 0
29 92 0
30 92 0
31 92 0
32 92 0
33 92 0
34 92 0
35 92 0
36 92 0.99722501540774111
37 92 0
38 92 0
39 92 0
40 92 0
41 92 0
42 92 0
43 92 0
44 92 0
45 92 0
46 92 0
47 92 0
48 92 0
49 92 0
50 92 0
51 92 0
52 92 0
53 92 0
54 92 0
55 92 0
56 92 0
57 92 0
58 92 0
59 92 0
60 92 0
61 92 0
62 92 0
63 92 0
64 92 0
65 92 0
66 92 0
67 92 0
68 92 0.99722501540774111
69 92 0
70 92 0
71 92 0
72 92 0
73 92 0
74 92 0
75 92 0
76 92 0
77 92 0
78 92 0
79 92 0
80 92 0
81 92 0
82 92 0
83 92 0
84 92 0
85 92 0
86 92 0
87 92 0
88 92 0
89 92 0
90 92 0
91 92 0
92 92 0
93 92 0
94 92 0
95 92 0
96 92 0
97 92 0
98 92 0
99 92 0
100 92 0
101 92 0
102 92 0
103 92 0
104 92 0
105 92 0
106 92 0
107 92 0
108 92 0
109 92 0
110 92 0
111 92 0
112 92 0
113 92 0
114 92 0
115 92 0
116 92 0
117 92 0
118 92 0
119 92 0
120 92 0
1 93 0
2 93 0
3 93 0
4 93 0
5 93 0
6 93 0
7 93 0
8 93 0
9 93 0
10 93 0
11 93 0
12 93 0
13 93 0
14 93 0
15 93 0
16 93 0
17 93 0
18 93 0
19 93 0
20 93 0
21 93 0
22 93 0
23 93 0
24 93 0
25 93 0
26 93 0
27 93 0
28 93 0
29 93 0
30 93 0
31 93 0
32 93 0
33 93 0
34 93 0
35 93 0
36 93 0
37 93 0.99722501540774111
38 93 0
39 93 0
40 93 0
41 93 0
42 93 0
43 93 0
44 93 0
45 93 0
46 93 0
47 93 0
48 93 0
49 93 0
50 93 0
51 93 0
52 93 0
53 93 0
54 93 0
55 93 0
56 93 0
57 93 0
58 93 0
59 93 0
60 93 0
61 93 0
62 93 0
63 93 0
64 93 0
65 93 0
66 93 0
67 93 0
68 93 0
69 93 0.99722501540774111
70 93 0
71 93 0
72 93 0
73 93 0
74 93 0
75 93 0
76 93 0
77 93 0
78 93 0
79 93 0
80 93 0
81 93 0
82 93 0
83 93 0
84 93 0
85 93 0
86 93 0
87 93 0
88 93 0
89 93 0
90 93 0
91 93 0
92 93 0
93 93 0
94 93 0
95 93 0
96 93 0
97 93 0
98 93 0
99 93 0
100 93 0
101 93 0
102 93 0
103 93 0
104 93 0
105 93 0
106 93 0
107 93 0
108 93 0
109 93 0
110 93 0
111 93 0
112 93 0
113 93 0
114 93 0
115 93 0
116 93 0
117 93 0
118 93 0
119 93 0
120 93 0
1 94 0
2 94 0
3 94 0
4 94 0
5 94 0
6 94 0
7 94 0
8 94 0
9 94 0
10 94 0
11 94 0
12 94 0
13 94 0
14 94 0
15 94 0
16 94 0
17 94 0
18 94 0
19 94 0
20 94 0
21 94 0
22 94 0
23 94 0
24 94 0
25 94 0
26 94 0
27 94 0
28 94 0
29 94 0
30 94 0
31 94 0
32 94 0
33 94 0
34 94 0
35 94 0
36 94 0
37 94 0
38 94 0.99722501540774111
39 94 0
40 94 0
41 94 0
42 94 0
43 94 0
44 94 0
45 94 0
46 94 0
47 94 0
48 94 0
49 94 0
50 94 0
51 94 0
52 94 0
53 94 0
54 94 0
55 94 0
56 94 0
57 94 0
58 94 0
59 94 0
60 94 0
61 94 0
62 94 0
63 94 0
64 94 0
65 94 0
66 94 0
67 94 0
68 94 0
69 94 0
70 94 0.99722501540774111
71 94 0
72 94 0
73 94 0
74 94 0
75 94 0
76 94 0
77 94 0
78 94 0
79 94 0
80 94 0
81 94 0
82 94 0
83 94 0
84 94 0
85 94 0
86 94 0
87 94 0
88 94 0
89 94 0
90 94 0
91 94 0
92 94 0
93 94 0
94 94 0
95 94 0
96 94 0
97 94 0
98 94 0
99 94 0
100 94 0
101 94 0
102 94 0
103 94 0
104 94 0
105 94 0
106 94 0
107 94 0
108 94 0
109 94 0
110 94 0
111 94 0
112 94 0
113 94 0
114 94 0
115 94 0
116 94 0
117 94 0
118 94 0
119 94 0
120 94 0
1 95 0
2 95 0
3 95 0
4 95 0
5 95 0
6 95 0
7 95 0
8 95 0
9 95 0
10 95 0
11 95 0
12 95 0
13 95 0
14 95 0
15 95 0
16 95 0
17 95 0
18 95 0
19 95 0
20 95 0
21 95 0
22 95 0
23 95 0
24 95 0
25 95 0
26 95 0
27 95 0
28 95 0
29 95 0
30 95 0
31 95 0
32 95 0
33 95 0
34 95 0
35 95 0
36 95 0
37 95 0
38 95 0
39 95 0.99722501540774111
40 95 0
41 95 0
42 95 0
43 95 0
44 95 0
45 95 0
46 95 0
47 95 0
48 95 0
49 95 0
50 95 0
51 95 0
52 95 0
53 95 0
54 95 0
55 95 0
56 95 0
57 95 0
58 95 0
59 95 0
60 95 0
61 95 0
62 95 0
63 95 0
64 95 0
65 95 0
66 95 0
67 95 0
68 95 0
69 95 0
70 95 0
71 95 0.99722501540774111
72 95 0
73 95 0
74 95 0
75 95 0
76 95 0
77 95 0
78 95 0
79 95 0
80 95 0
81 95 0
82 95 0
83 95 0
84 95 0
85 95 0
86 95 0
87 95 0
88 95 0
89 95 0
90 95 0
91 95 0
92 95 0
93 95 0
94 95 0
95 95 0
96 95 0
97 95 0
98 95 0
99 95 0
100 95 0
101 95 0
102 95 0
103 95 0
104 95 0
105 95 0
106 95 0
107 95 0
108 95 0
109 95 0
110 95 0
111 95 0
112 95 0
113 95 0
114 95 0
115 95 0
116 95 0
117 95 0
118 95 0
119 95 0
120 95 0
1 96 0
2 96 0
3 96 0
4 96 0
5 96 0
6 96 0
7 96 0
8 96 0
9 96 0
10 96 0
11 96 0
12 96 0
13 96 0
14 96 0
15 96 0
16 96 0
17 96 0
18 96 0
19 96 0
20 96 0
21 96 0
22 96 0
23 96 0
24 96 0
25 96 0
26 96 0
27 96 0
28 96 0
29 96 0
30 96 0
31 96 0
32 96 0
33 96 0
34 96 0
35 96 0
36 96 0
37 96 0
38 96 0
39 96 0
40 96 0.99722501540774111
41 96 0
42 96 0
43 96 0
44 96 0
45 96 0
46 96 0
47 96 0
48 96 0
49 96 0
50 96 0
51 96 0
52 96 0
53 96 0
54 96 0
55 96 0
56 96 0
57 96 0
58 96 0
59 96 0
60 96 0
61 96 0
62 96 0
63 96 0
64 96 0
65 96 0
66 96 0
67 96 0
68 96 0
69 96 0
70 96 0
71 96 0
72 96 0.99722501540774111
73 96 0
74 96 0
75 96 0
76 96 0
77 96 0
78 96 0
79 96 0
80 96 0
81 96 0
82 96 0
83 96 0
84 96 0
85 96 0
86 96 0
87 96 0
88 96 0
89 96 0
90 96 0
91 96 0
92 96 0
93 96 0
94 96 0
95 96 0
96 96 0
97 96 0
98 96 0
99 96 0
100 96 0
101 96 0
102 96 0
103 96 0
104 96 0
105 96 0
106 96 0
107 96 0
108 96 0
109 96 0
110 96 0
111 96 0
112 96 0
113 96 0
114 96 0
115 96 0
116 96 0
117 96 0
118 96 0
119 96 0
120 96 0
1 97 0
2 97 0
3 97 0
4 97 0
5 97 0
6 97 0
7 97 0
8 97 0
9 97 0
10 97 0
11 97 0
12 97 0
13 97 0
14 97 0
15 97 0
16 97 0
17 97 0
18 97 0
19 97 0
20 97 0
21 97 0
22 97 0
23 97 0
24 97 0
25 97 0
26 97 0
27 97 0
28 97 0
29 97 0
30 97 0
31 97 0
32 97 0
33 97 0
34 97 0
35 97 0
36 97 0
37 97 0
38 97 0
39 97 0
40 97 0
41 97 0
42 97 0
43 97 0
44 97 0
45 97 0
46 97 0
47 97 0
48 97 0
49 97 0
50 97 0
51 97 0
52 97 0
53 97 0
54 97 0
55 97 0
56 97 0
57 97 0
58 97 0
59 97 0
60 97 0
61 97 0
62 97 0
63 97 0
64 97 0
65 97 0
66 97 0
67 97 0
68 97 0
69 97 0
70 97 0
71 97 0
72 97 0
73 97 0.99722501540774111
74 97 0
75 97 0
76 97 0
77 97 0
78 97 0
79 97 0
80 97 0
81 97 0
82 97 0
83 97 0
84 97 0
85 97 0
86 97 0
87 97 0
88 97 0
89 97 0
90 97 0
91 97 0
92 97 0
93 97 0
94 97 0
95 97 0
96 97 0
97 97 0
98 97 0
99 97 0
100 97 0
101 97 0
102 97 0
103 97 0
104 97 0
105 97 0
106 97 0
107 97 0
108 97 0
109 97 0
110 97 0
111 97 0
112 97 0
113 97 0
114 97 0
115 97 0
116 97 0
117 97 0
118 97 0
119 97 0
120 97 0
1 98 0
2 98 0
3 98 0
4 98 0
5 98 0
6 98 0
7 98 0
8 98 0
9 98 0
10 98 0
11 98 0
12 98 0
13 98 0
14 98 0
15 98 0
16 98 0
17 98 0
18 98 0
19 98 0
20 98 0
21 98 0
22 98 0
23 98 0
24 98 0
25 98 0
26 98 0
27 98 0
28 98 0
29 98 0
30 98 0
31 98 0
32 98 0
33 98 0
34 98 0
35 98 0
36 98 0
37 98 0
38 98 0
39 98 0
40 98 0
41 98 0
42 98 0
43 98 0
44 98 0
45 98 0
46 98 0
47 98 0
48 98 0
49 98 0
50 98 0
51 98 0
52 98 0
53 98 0
54 98 0
55 98 0
56 98 0
57 98 0
58 98 0
59 98 0
60 98 0
61 98 0
62 98 0
63 98 0
64 98 0
65 98 0
66 98 0
67 98 0
68 98 0
69 98 0
70 98 0
71 98 0
72 98 0
73 98 0
74 98 0.99722501540774111
75 98 0
76 98 0
77 98 0
78 98 0
79 98 0
80 98 0
81 98 0
82 98 0
83 98 0
84 98 0
85 98 0
86 98 0
87 98 0
88 98 0
89 98 0
90 98 0
91 98 0
92 98 0
93 98 0
94 98 0
95 98 0
96 98 0
97 98 0
98 98 0
99 98 0
100 98 0
101 98 0
102 98 0
103 98 0
104 98 0
105 98 0
106 98 0
107 98 0
108 98 0
109 98 0
110 98 0
111 98 0
112 98 0
113 98 0
114 98 0
115 98 0
116 98 0
117 98 0
118 98 0
119 98 0
120 98 0
1 99 0
2 99 0
3 99 0
4 99 0
5 99 0
6 99 0
7 99 0
8 99 0
9 99 0
10 99 0
11 99 0
12 99 0
13 99 0
14 99 0
15 99 0
16 99 0
17 99 0
18 99 0
19 99 0
20 99 0
21 99 0
22 99 0
23 99 0
24 99 0
25 99 0
26 99 0
27 99 0
28 99 0
29 99 0
30 99 0
31 99 0
32 99 0
33 99 0
34 99 0
35 99 0
36 99 0
37 99 0
38 99 0
39 99 0
40 99 0
41 99 0
42 99 0
43 99 0
44 99 0
45 99 0
46 99 0
47 99 0
48 99 0
49 99 0
50 99 0
51 99 0
52 99 0
53 99 0
54 99 0
55 99 0
56 99 0
57 99 0
58 99 0
59 99 0
60 99 0
61 99 0
62 99 0
63 99 0
64 99 0
65 99 0
66 99 0
67 99 0
68 99 0
69 99 0
70 99 0
71 99 0
72 99 0
73 99 0
74 99 0
75 99 0.99722501540774111
76 99 0
77 99 0
78 99 0
79 99 0
80 99 0
81 99 0
82 99 0
83 99 0
84 99 0
85 99 0
86 99 0
87 99 0
88 99 0
89 99 0
90 99 0
91 99 0
92 99 0
93 99 0
94 99 0
95 99 0
96 99 0
97 99 0
98 99 0
99 99 0
100 99 0
101 99 0
102 99 0
103 99 0
104 99 0
105 99 0
106 99 0
107 99 0
108 99 0
109 99 0
110 99 0
111 99 0
112 99 0
113 99 0
114 99 0
115 99 0
116 99 0
117 99 0
118 99 0
119 99 0
120 99 0
1 100 0
2 100 0
3 100 0
4 100 0
5 100 0
6 100 0
7 100 0
8 100 0
9 100 0
10 100 0
11 100 0
12 100 0
13 100 0
14 100 0
15 100 0
16 100 0
17 100 0
18 100 0
19 100 0
20 100 0
21 100 0
22 100 0
23 100 0
24 100 0
25 100 0
26 100 0
27 100 0
28 100 0
29 100 0
30 100 0
31 100 0
32 100 0
33 100 0
34 100 0
35 100 0
36 100 0
37 100 0
38 100 0
39 100 0
40 100 0
41 100 0
42 100 0
43 100 0
44 100 0
45 100 0
46 100 0
47 100 0
48 100 0
49 100 0
50 100 0
51 100 0
52 100 0
53 100 0
54 100 0
55 100 0
56 100 0
57 100 0
58 100 0
59 100 0
60 100 0
61 100 0
62 100 0
63 100 0
64 100 0
65 100 0
66 100 0
67 100 0
68 100 0
69 100 0
70 100 0
71 100 0
72 100 0
73 100 0
74 100 0
75 100 0
76 100 0.99722501540774111
77 100 0
78 100 0
79 100 0
80 100 0
81 100 0
82 100 0
83 100 0
84 100 0
85 100 0
86 100 0
87 100 0
88 100 0
89 100 0
90 100 0
91 100 0
92 100 0
93 100 0
94 100 0
95 100 0
96 100 0
97 100 0
98 100 0
99 100 0
100 100 0
101 100 0
102 100 0
103 100 0
104 100 0
105 100 0
106 100 0
107 100 0
108 100 0
109 100 0
110 100 0
111 100 0
112 100 0
113 100 0
114 100 0
115 100 0
116 100 0
117 100 0
118 100 0
119 100 0
120 100 0
1 101 0
2 101 0
3 101 0
4 101 0
5 101 0
6 101 0
7 101 0
8 101 0
9 101 0
10 101 0
11 101 0
12 101 0
13 101 0
14 101 0
15 101 0
16 101 0
17 101 0
18 101 0
19 101 0
20 101 0
21 101 0
22 101 0
23 101 0
24 101 0
25 101 0
26 101 0
27 101 0
28 101 0
29 101 0
30 101 0
31 101 0
32 101 0
33 101 0
34 101 0
35 101 0
36 101 0
37 101 0
38 101 0
39 101 0
40 101 0
41 101 0
42 101 0
43 101 0
44 101 0
45 101 0
46 101 0
47 101 0
48 101 0
49 101 0
50 101 0
51 101 0
52 101 0
53 101 0
54 101 0
55 101 0
56 101 0
57 101 0
58 101 0
59 101 0
60 101 0
61 101 0
62 101 0
63 101 0
64 101 0
65 101 0
66 101 0
67 101 0
68 101 0
69 101 0
70 101 0
71 101 0
72 101 0
73 101 0
74 101 0
75 101 0
76 101 0
77 101 0.99722501540774111
78 101 0
79 101 0
80 101 0
81 101 0
82 101 0
83 101 0
84 101 0
85 101 0
86 101 0
87 101 0
88 101 0
89 101 0
90 101 0
91 101 0
92 101 0
93 101 0
94 101 0
95 101 0
96 101 0
97 101 0
98 101 0
99 101 0
100 101 0
101 101 0
102 101 0
103 101 0
104 101 0
105 101 0
106 101 0
107 101 0
108 101 0
109 101 0
110 101 0
111 101 0
112 101 0
113 101 0
114 101 0
115 101 0
116 101 0
117 101 0
118 101 0
119 101 0
120 101 0
1 102 0
2 102 0
3 102 0
4 102 0
5 102 0
6 102 0
7 102 0
8 102 0
9 102 0
10 102 0
11 102 0
12 102 0
13 102 0
14 102 0
15 102 0
16 102 0
17 102 0
18 102 0
19 102 0
20 102 0
21 102 0
22 102 0
23 102 0
24 102 0
25 102 0
26 102 0
27 102 0
28 102 0
29 102 0
30 102 0
31 102 0
32 102 0
33 102 0
34 102 0
35 102 0
36 102 0
37 102 0
38 102 0
39 102 0
40 102 0
41 102 0
42 102 0
43 102 0
44 102 0
45 102 0
46 102 0
47 102 0
48 102 0
49 102 0
50 102 0
51 102 0
52 102 0
53 102 0
54 102 0
55 102 0
56 102 0
57 102 0
58 102 0
59 102 0
60 102 0
61 102 0
62 102 0
63 102 0
64 102 0
65 102 0
66 102 0
67 102 0
68 102 0
69 102 0
70 102 0
71 102 0
72 102 0
73 102 0
74 102 0
75 102 0
76 102 0
77 102 0
78 102 0.99722501540774111
79 102 0
80 102 0
81 102 0
82 102 0
83 102 0
84 102 0
85 102 0
86 102 0
87 102 0
88 102 0
89 102 0
90 102 0
91 102 0
92 102 0
93 102 0
94 102 0
95 102 0
96 102 0
97 102 0
98 102 0
99 102 0
100 102 0
101 102 0
102 102 0
103 102 0
104 102 0
105 102 0
106 102 0
107 102 0
108 102 0
109 102 0
110 102 0
111 102 0
112 102 0
113 102 0
114 102 0
115 102 0
116 102 0
117 102 0
118 102 0
119 102 0
120 102 0
1 103 0
2 103 0
3 103 0
4 103 0
5 103 0
6 103 0
7 103 0
8 103 0
9 103 0
10 103 0
11 103 0
12 103 0
13 103 0
14 103 0
15 103 0
16 103 0
17 103 0
18 103 0
19 103 0
20 103 0
21 103 0
22 103 0
23 103 0
24 103 0
25 103 0
26 103 0
27 103 0
28 103 0
29 103 0
30 103 0
31 103 0
32 103 0
33 103 0
34 103 0
35 103 0
36 103 0
37 103 0
38 103 0
39 103 0
40 103 0
41 103 0
42 103 0
43 103 0
44 103 0
45 103 0
46 103 0
47 103 0
48 103 0
49 103 0
50 103 0
51 103 0
52 103 0
53 103 0
54 103 0
55 103 0
56 103 0
57 103 0
58 103 0
59 103 0
60 103 0
61 103 0
62 103 0
63 103 0
64 103 0
65 103 0
66 103 0
67 103 0
68 103 0
69 103 0
70 103 0
71 103 0
72 103 0
73 103 0
74 103 0
75 103 0
76 103 0
77 103 0
78 103 0
79 103 0.99722501540774111
80 103 0
81 103 0
82 103 0
83 103 0
84 103 0
85 103 0
86 103 0
87 103 0
88 103 0
89 103 0
90 103 0
91 103 0
92 103 0
93 103 0
94 103 0
95 103 0
96 103 0
97 103 0
98 103 0
99 103 0
100 103 0
101 103 0
102 103 0
103 103 0
104 103 0
105 103 0
106 103 0
107 103 0
108 103 0
109 103 0
110 103 0
111 103 0
112 103 0
113 103 0
114 103 0
115 103 0
116 103 0
117 103 0
118 103 0
119 103 0
120 103 0
1 104 0
2 104 0
3 104 0
4 104 0
5 104 0
6 104 0
7 104 0
8 104 0
9 104 0
10 104 0
11 104 0
12 104 0
13 104 0
14 104 0
15 104 0
16 104 0
17 104 0
18 104 0
19 104 0
20 104 0
21 104 0
22 104 0
23 104 0
24 104 0
25 104 0
26 104 0
27 104 0
28 104 0
29 104 0
30 104 0
31 104 0
32 104 0
33 104 0
34 104 0
35 104 0
36 104 0
37 104 0
38 104 0
39 104 0
40 104 0
41 104 0.99722501540774111
42 104 0
43 104 0
44 104 0
45 104 0
46 104 0
47 104 0
48 104 0
49 104 0
50 104 0
51 104 0
52 104 0
53 104 0
54 104 0
55 104 0
56 104 0
57 104 0
58 104 0
59 104 0
60 104 0
61 104 0
62 104 0
63 104 0
64 104 0
65 104 0
66 104 0
67 104 0
68 104 0
69 104 0
70 104 0
71 104 0
72 104 0
73 104 0
74 104 0
75 104 0
76 104 0
77 104 0
78 104 0
79 104 0
80 104 0.99722501540774111
81 104 0
82 104 0
83 104 0
84 104 0
85 104 0
86 104 0
87 104 0
88 104 0
89 104 0
90 104 0
91 104 0
92 104 0
93 104 0
94 104 0
95 104 0
96 104 0
97 104 0
98 104 0
99 104 0
100 104 0
101 104 0
102 104 0
103 104 0
104 104 0
105 104 0
106 104 0
107 104 0
108 104 0
109 104 0
110 104 0
111 104 0
112 104 0
113 104 0
114 104 0
115 104 0
116 104 0
117 104 0
118 104 0
119 104 0
120 104 0
1 105 0
2 105 0
3 105 0
4 105 0
5 105 0
6 105 0
7 105 0
8 105 0
9 105 0
10 105 0
11 105 0
12 105 0
13 105 0
14 105 0
15 105 0
16 105 0
17 105 0
18 105 0
19 105 0
20 105 0
21 105 0
22 105 0
23 105 0
24 105 0
25 105 0
26 105 0
27 105 0
28 105 0
29 105 0
30 105 0
31 105 0
32 105 0
33 105 0
34 105 0
35 105 0
36 105 0
37 105 0
38 105 0
39 105 0
40 105 0
41 105 0
42 105 0.99722501540774111
43 105 0
44 105 0
45 105 0
46 105 0
47 105 0
48 105 0
49 105 0
50 105 0
51 105 0
52 105 0
53 105 0
54 105 0
55 105 0
56 105 0
57 105 0
58 105 0
59 105 0
60 105 0
61 105 0
62 105 0
63 105 0
64 105 0
65 105 0
66 105 0
67 105 0
68 105 0
69 105 0
70 105 0
71 105 0
72 105 0
73 105 0
74 105 0
75 105 0
76 105 0
77 105 0
78 105 0
79 105 0
80 105 0
81 105 0.99722501540774111
82 105 0
83 105 0
84 105 0
85 105 0
86 105 0
87 105 0
88 105 0
89 105 0
90 105 0
91 105 0
92 105 0
93 105 0
94 105 0
95 105 0
96 105 0
97 105 0
98 105 0
99 105 0
100 105 0
101 105 0
102 105 0
103 105 0
104 105 0
105 105 0
106 105 0
107 105 0
108 105 0
109 105 0
110 105 0
111 105 0
112 105 0
113 105 0
114 105 0
115 105 0
116 105 0
117 105 0
118 105 0
119 105 0
120 105 0
1 106 0
2 106 0
3 106 0
4 106 0
5 106 0
6 106 0
7 106 0
8 106 0
9 106 0
10 106 0
11 106 0
12 106 0
13 106 0
14 106 0
15 106 0
16 106 0
17 106 0
18 106 0
19 106 0
20 106 0
21 106 0
22 106 0
23 106 0
24 106 0
25 106 0
26 106 0
27 106 0
28 106 0
29 106 0
30 106 0
31 106 0
32 106 0
33 106 0
34 106 0
35 106 0
36 106 0
37 106 0
38 106 0
39 106 0
40 106 0
41 106 0
42 106 0
43 106 0.99722501540774111
44 106 0
45 106 0
46 106 0
47 106 0
48 106 0
49 106 0
50 106 0
51 106 0
52 106 0
53 106 0
54 106 0
55 106 0
56 106 0
57 106 0
58 106 0
59 106 0
60 106 0
61 106 0
62 106 0
63 106 0
64 106 0
65 106 0
66 106 0
67 106 0
68 106 0
69 106 0
70 106 0
71 106 0
72 106 0
73 106 0
74 106 0
75 106 0
76 106 0
77 106 0
78 106 0
79 106 0
80 106 0
81 106 0
82 106 0.99722501540774111
83 106 0
84 106 0
85 106 0
86 106 0
87 106 0
88 106 0
89 106 0
90 106 0
91 106 0
92 106 0
93 106 0
94 106 0
95 106 0
96 106 0
97 106 0
98 106 0
99 106 0
100 106 0
101 106 0
102 106 0
103 106 0
104 106 0
105 106 0
106 106 0
107 106 0
108 106 0
109 106 0
110 106 0
111 106 0
112 106 0
113 106 0
114 106 0
115 106 0
116 106 0
117 106 0
118 106 0
119 106 0
120 106 0
1 107 0
2 107 0
3 107 0
4 107 0
5 107 0
6 107 0
7 107 0
8 107 0
9 107 0
10 107 0
11 107 0
12 107 0
13 107 0
14 107 0
15 107 0
16 107 0
17 107 0
18 107 0
19 107 0
20 107 0
21 107 0
22 107 0
23 107 0
24 107 0
25 107 0
26 107 0
27 107 0
28 107 0
29 107 0
30 107 0
31 107 0
32 107 0
33 107 0
34 107 0
35 107 0
36 107 0
37 107 0
38 107 0
39 107 0
40 107 0
41 107 0
42 107 0
43 107 0
44 107 0.99722501540774111
45 107 0
46 107 0
47 107 0
48 107 0
49 107 0
50 107 0
51 107 0
52 107 0
53 107 0
54 107 0
55 107 0
56 107 0
57 107 0
58 107 0
59 107 0
60 107 0
61 107 0
62 107 0
63 107 0
64 107 0
65 107 0
66 107 0
67 107 0
68 107 0
69 107 0
70 107 0
71 107 0
72 107 0
73 107 0
74 107 0
75 107 0
76 107 0
77 107 0
78 107 0
79 107 0
80 107 0
81 107 0
82 107 0
83 107 0.99722501540774111
84 107 0
85 107 0
86 107 0
87 107 0
88 107 0
89 107 0
90 107 0
91 107 0
92 107 0
93 107 0
94 107 0
95 107 0
96 107 0
97 107 0
98 107 0
99 107 0
100 107 0
101 107 0
102 107 0
103 107 0
104 107 0
105 107 0
106 107 0
107 107 0
108 107 0
109 107 0
110 107 0
111 107 0
112 107 0
113 107 0
114 107 0
115 107 0
116 107 0
117 107 0
118 107 0
119 107 0
120 107 0
1 108 0
2 108 0
3 108 0
4 108 0
5 108 0
6 108 0
7 108 0
8 108 0
9 108 0
10 108 0
11 108 0
12 108 0
13 108 0
14 108 0
15 108 0
16 108 0
17 108 0
18 108 0
19 108 0
20 108 0
21 108 0
22 108 0
23 108 0
24 108 0
25 108 0
26 108 0
27 108 0
28 108 0
29 108 0
30 108 0
31 108 0
32 108 0
33 108 0
34 108 0
35 108 0
36 108 0
37 108 0
38 108 0
39 108 0
40 108 0
41 108 0
42 108 0
43 108 0
44 108 0
45 108 0.99722501540774111
46 108 0
47 108 0
48 108 0
49 108 0
50 108 0
51 108 0
52 108 0
53 108 0
54 108 0
55 108 0
56 108 0
57 108 0
58 108 0
59 108 0
60 108 0
61 108 0
62 108 0
63 108 0
64 108 0
65 108 0
66 108 0
67 108 0
68 108 0
69 108 0
70 108 0
71 108 0
72 108 0
73 108 0
74 108 0
75 108 0
76 108 0
77 108 0
78 108 0
79 108 0
80 108 0
81 108 0
82 108 0
83 108 0
84 108 0.99722501540774111
85 108 0
86 108 0
87 108 0
88 108 0
89 108 0
90 108 0
91 108 0
92 108 0
93 108 0
94 108 0
95 108 0
96 108 0
97 108 0
98 108 0
99 108 0
100 108 0
101 108 0
102 108 0
103 108 0
104 108 0
105 108 0
106 108 0
107 108 0
108 108 0
109 108 0
110 108 0
111 108 0
112 108 0
113 108 0
114 108 0
115 108 0
116 108 0
117 108 0
118 108 0
119 108 0
120 108 0
1 109 0
2 109 0
3 109 0
4 109 0
5 109 0
6 109 0
7 109 0
8 109 0
9 109 0
10 109 0
11 109 0
12 109 0
13 109 0
14 109 0
15 109 0
16 109 0
17 109 0
18 109 0
19 109 0
20 109 0
21 109 0
22 109 0
23 109 0
24 109 0
25 109 0
26 109 0
27 109 0
28 109 0
29 109 0
30 109 0
31 109 0
32 109 0
33 109 0
34 109 0
35 109 0
36 109 0
37 109 0
38 109 0
39 109 0
40 109 0
41 109 0
42 109 0
43 109 0
44 109 0
45 109 0
46 109 0
47 109 0
48 109 0
49 109 0
50 109 0
51 109 0
52 109 0
53 109 0
54 109 0
55 109 0
56 109 0
57 109 0
58 109 0
59 109 0
60 109 0
61 109 0
62 109 0
63 109 0
64 109 0
65 109 0
66 109 0
67 109 0
68 109 0
69 109 0
70 109 0
71 109 0
72 109 0
73 109 0
74 109 0
75 109 0
76 109 0
77 109 0
78 109 0
79 109 0
80 109 0
81 109 0
82 109 0
83 109 0
84 109 0
85 109 0.99722501540774111
86 109 0
87 109 0
88 109 0
89 109 0
90 109 0
91 109 0
92 109 0
93 109 0
94 109 0
95 109 0
96 109 0
97 109 0
98 109 0
99 109 0
100 109 0
101 109 0
102 109 0
103 109 0
104 109 0
105 109 0
106 109 0
107 109 0
108 109 0
109 109 0
110 109 0
111 109 0
112 109 0
113 109 0
114 109 0
115 109 0
116 109 0
117 109 0
118 109 0
119 109 0
120 109 0
1 110 0
2 110 0
3 110 0
4 110 0
5 110 0
6 110 0
7 110 0
8 110 0
9 110 0
10 110 0
11 110 0
12 110 0
13 110 0
14 110 0
15 110 0
16 110 0
17 110 0
18 110 0
19 110 0
20 110 0
21 110 0
22 110 0
23 110 0
24 110 0
25 110 0
26 110 0
27 110 0
28 110 0
29 110 0
30 110 0
31 110 0
32 110 0
33 110 0
34 110 0
35 110 0
36 110 0
37 110 0
38 110 0
39 110 0
40 110 0
41 110 0
42 110 0
43 110 0
44 110 0
45 110 0
46 110 0
47 110 0
48 110 0
49 110 0
50 110 0
51 110 0
52 110 0
53 110 0
54 110 0
55 110 0
56 110 0
57 110 0
58 110 0
59 110 0
60 110 0
61 110 0
62 110 0
63 110 0
64 110 0
65 110 0
66 110 0
67 110 0
68 110 0
69 110 0
70 110 0
71 110 0
72 110 0
73 110 0
74 110 0
75 110 0
76 110 0
77 110 0
78 110 0
79 110 0
80 110 0
81 110 0
82 110 0
83 110 0
84 110 0
85 110 0
86 110 0.99722501540774111
87 110 0
88 110 0
89 110 0
90 110 0
91 110 0
92 110 0
93 110 0
94 110 0
95 110 0
96 110 0
97 110 0
98 110 0
99 110 0
100 110 0
101 110 0
102 110 0
103 110 0
104 110 0
105 110 0
106 110 0
107 110 0
108 110 0
109 110 0
110 110 0
111 110 0
112 110 0
113 110 0
114 110 0
115 110 0
116 110 0
117 110 0
118 110 0
119 110 0
120 110 0
1 111 0
2 111 0
3 111 0
4 111 0
5 111 0
6 111 0
7 111 0
8 111 0
9 111 0
10 111 0
11 111 0
12 111 0
13 111 0
14 111 0
15 111 0
16 111 0
17 111 0
18 111 0
19 111 0
20 111 0
21 111 0
22 111 0
23 111 0
24 111 0
25 111 0
26 111 0
27 111 0
28 111 0
29 111 0
30 111 0
31 111 0
32 111 0
33 111 0
34 111 0
35 111 0
36 111 0
37 111 0
38 111 0
39 111 0
40 111 0
41 111 0
42 111 0
43 111 0
44 111 0
45 111 0
46 111 0
47 111 0
48 111 0
49 111 0
50 111 0
51 111 0
52 111 0
53 111 0
54 111 0
55 111 0
56 111 0
57 111 0
58 111 0
59 111 0
60 111 0
61 111 0
62 111 0
63 111 0
64 111 0
65 111 0
66 111 0
67 111 0
68 111 0
69 111 0
70 111 0
71 111 0
72 111 0
73 111 0
74 111 0
75 111 0
76 111 0
77 111 0
78 111 0
79 111 0
80 111 0
81 111 0
82 111 0
83 111 0
84 111 0
85 111 0
86 111 0
87 111 0.99722501540774111
88 111 0
89 111 0
90 111 0
91 111 0
92 111 0
93 111 0
94 111 0
95 111 0
96 111 0
97 111 0
98 111 0
99 111 0
100 111 0
101 111 0
102 111 0
103 111 0
104 111 0
105 111 0
106 111 0
107 111 0
108 111 0
109 111 0
110 111 0
111 111 0
112 111 0
113 111 0
114 111 0
115 111 0
116 111 0
117 111 0
118 111 0
119 111 0
120 111 0
1 112 0
2 112 0
3 112 0
4 112 0
5 112 0
6 112 0
7 112 0
8 112 0
9 112 0
10 112 0
11 112 0
12 112 0
13 112 0
14 112 0
15 112 0
16 112 0
17 112 0
18 112 0
19 112 0
20 112 0
21 112 0
22 112 0
23 112 0
24 112 0
25 112 0
26 112 0
27 112 0
28 112 0
29 112 0
30 112 0
31 112 0
32 112 0
33 112 0
34 112 0
35 112 0
36 112 0
37 112 0
38 112 0
39 112 0
40 112 0
41 112 0
42 112 0
43 112 0
44 112 0
45 112 0
46 112 0
47 112 0
48 112 0
49 112 0
50 112 0
51 112 0
52 112 0
53 112 0
54 112 0
55 112 0
56 112 0
57 112 0
58 112 0
59 112 0
60 112 0
61 112 0
62 112 0
63 112 0
64 112 0
65 112 0
66 112 0
67 112 0
68 112 0
69 112 0
70 112 0
71 112 0
72 112 0
73 112 0
74 112 0
75 112 0
76 112 0
77 112 0
78 112 0
79 112 0
80 112 0
81 112 0
82 112 0
83 112 0
84 112 0
85 112 0
86 112 0
87 112 0
88 112 0.99722501540774111
89 112 0
90 112 0
91 112 0
92 112 0
93 112 0
94 112 0
95 112 0
96 112 0
97 112 0
98 112 0
99 112 0
100 112 0
101 112 0
102 112 0
103 112 0
104 112 0
105 112 0
106 112 0
107 112 0
108 112 0
109 112 0
110 112 0
111 112 0
112 112 0
113 112 0
114 112 0
115 112 0
116 112 0
117 112 0
118 112 0
119 112 0
120 112 0
1 113 0
2 113 0
3 113 0
4 113 0
5 113 0
6 113 0
7 113 0
8 113 0
9 113 0
10 113 0
11 113 0
12 113 0
13 113 0
14 113 0
15 113 0
16 113 0
17 113 0
18 113 0
19 113 0
20 113 0
21 113 0
22 113 0
23 113 0
24 113 0
25 113 0
26 113 0
27 113 0
28 113 0
29 113 0
30 113 0
31 113 0
32 113 0
33 113 0
34 113 0
35 113 0
36 113 0
37 113 0
38 113 0
39 113 0
40 113 0
41 113 0
42 113 0
43 113 0
44 113 0
45 113 0
46 113 0
47 113 0
48 113 0
49 113 0
50 113 0
51 113 0
52 113 0
53 113 0
54 113 0
55 113 0
56 113 0
57 113 0
58 113 0
59 113 0
60 113 0
61 113 0
62 113 0
63 113 0
64 113 0
65 113 0
66 113 0
67 113 0
68 113 0
69 113 0
70 113 0
71 113 0
72 113 0
73 113 0
74 113 0
75 113 0
76 113 0
77 113 0
78 113 0
79 113 0
80 113 0
81 113 0
82 113 0
83 113 0
84 113 0
85 113 0
86 113 0
87 113 0
88 113 0
89 113 0.99722501540774111
90 113 0
91 113 0
92 113 0
93 113 0
94 113 0
95 113 0
96 113 0
97 113 0
98 113 0
99 113 0
100 113 0
101 113 0
102 113 0
103 113 0
104 113 0
105 113 0
106 113 0
107 113 0
108 113 0
109 113 0
110 113 0
111 113 0
112 113 0
113 113 0
114 113 0
115 113 0
116 113 0
117 113 0
118 113 0
119 113 0
120 113 0
1 114 0
2 114 0
3 114 0
4 114 0
5 114 0
6 114 0
7 114 0
8 114 0
9 114 0
10 114 0
11 114 0
12 114 0
13 114 0
14 114 0
15 114 0
16 114 0
17 114 0
18 114 0
19 114 0
20 114 0
21 114 0
22 114 0
23 114 0
24 114 0
25 114 0
26 114 0
27 114 0
28 114 0
29 114 0
30 114 0
31 114 0
32 114 0
33 114 0
34 114 0
35 114 0
36 114 0
37 114 0
38 114 0
39 114 0
40 114 0
41 114 0
42 114 0
43 114 0
44 114 0
45 114 0
46 114 0
47 114 0
48 114 0
49 114 0
50 114 0
51 114 0
52 114 0
53 114 0
54 114 0
55 114 0
56 114 0
57 114 0
58 114 0
59 114 0
60 114 0
61 114 0
62 114 0
63 114 0
64 114 0
65 114 0
66 114 0
67 114 0
68 114 0
69 114 0
70 114 0
71 114 0
72 114 0
73 114 0
74 114 0
75 114 0
76 114 0
77 114 0
78 114 0
79 114 0
80 114 0
81 114 0
82 114 0
83 114 0
84 114 0
85 114 0
86 114 0
87 114 0
88 114 0
89 114 0
90 114 0.99722501540774111
91 114 0
92 114 0
93 114 0
94 114 0
95 114 0
96 114 0
97 114 0
98 114 0
99 114 0
100 114 0
101 114 0
102 114 0
103 114 0
104 114 0
105 114 0
106 114 0
107 114 0
108 114 0
109 114 0
110 114 0
111 114 0
112 114 0
113 114 0
114 114 0
115 114 0
116 114 0
117 114 0
118 114 0
119 114 0
120 114 0
1 115 0
2 115 0
3 115 0
4 115 0
5 115 0
6 115 0
7 115 0
8 115 0
9 115 0
10 115 0
11 115 0
12 115 0
13 115 0
14 115 0
15 115 0
16 115 0
17 115 0
18 115 0
19 115 0
20 115 0
21 115 0
22 115 0
23 115 0
24 115 0
25 115 0
26 115 0
27 115 0
28 115 0
29 115 0
30 115 0
31 115 0
32 115 0
33 115 0
34 115 0
35 115 0
36 115 0
37 115 0
38 115 0
39 115 0
40 115 0
41 115 0
42 115 0
43 115 0
44 115 0
45 115 0
46 115 0
47 115 0
48 115 0
49 115 0
50 115 0
51 115 0
52 115 0
53 115 0
54 115 0
55 115 0
56 115 0
57 115 0
58 115 0
59 115 0
60 115 0
61 115 0
62 115 0
63 115 0
64 115 0
65 115 0
66 115 0
67 115 0
68 115 0
69 115 0
70 115 0
71 115 0
72 115 0
73 115 0
74 115 0
75 115 0
76 115 0
77 115 0
78 115 0
79 115 0
80 115 0
81 115 0
82 115 0
83 115 0
84 115 0
85 115 0
86 115 0
87 115 0
88 115 0
89 115 0
90 115 0
91 115 0.99722501540774111
92 115 0
93 115 0
94 115 0
95 115 0
96 115 0
97 115 0
98 115 0
99 115 0
100 115 0
101 115 0
102 115 0
103 115 0
104 115 0
105 115 0
106 115 0
107 115 0
108 115 0
109 115 0
110 115 0
111 115 0
112 115 0
113 115 0
114 115 0
115 115 0
116 115 0
117 115 0
118 115 0
119 115 0
120 115 0
1 116 0
2 116 0
3 116 0
4 116 0
5 116 0
6 116 0
7 116 0
8 116 0
9 116 0
10 116 0
11 116 0
12 116 0
13 116 0
14 116 0
15 116 0
16 116 0
17 116 0
18 116 0
19 116 0
20 116 0
21 116 0
22 116 0
23 116 0
24 116 0
25 116 0
26 116 0
27 116 0
28 116 0
29 116 0
30 116 0
31 116 0
32 116 0
33 116 0
34 116 0
35 116 0
36 116 0
37 116 0
38 116 0
39 116 0
40 116 0
41 116 0
42 116 0
43 116 0
44 116 0
45 116 0
46 116 0.99722501540774111
47 116 0
48 116 0
49 116 0
50 116 0
51 116 0
52 116 0
53 116 0
54 116 0
55 116 0
56 116 0
57 116 0
58 116 0
59 116 0
60 116 0
61 116 0
62 116 0
63 116 0
64 116 0
65 116 0
66 116 0
67 116 0
68 116 0
69 116 0
70 116 0
71 116 0
72 116 0
73 116 0
74 116 0
75 116 0
76 116 0
77 116 0
78 116 0
79 116 0
80 116 0
81 116 0
82 116 0
83 116 0
84 116 0
85 116 0
86 116 0
87 116 0
88 116 0
89 116 0
90 116 0
91 116 0
92 116 0.99722501540774111
93 116 0
94 116 0
95 116 0
96 116 0
97 116 0
98 116 0
99 116 0
100 116 0
101 116 0
102 116 0
103 116 0
104 116 0
105 116 0
106 116 0
107 116 0
108 116 0
109 116 0
110 116 0
111 116 0
112 116 0
113 116 0
114 116 0
115 116 0
116 116 0
117 116 0
118 116 0
119 116 0
120 116 0
1 117 0
2 117 0
3 117 0
4 117 0
5 117 0
6 117 0
7 117 0
8 117 0
9 117 0
10 117 0
11 117 0
12 117 0
13 117 0
14 117 0
15 117 0
16 117 0
17 117 0
18 117 0
19 117 0
20 117 0
21 117 0
22 117 0
23 117 0
24 117 0
25 117 0
26 117 0
27 117 0
28 117 0
29 117 0
30 117 0
31 117 0
32 117 0
33 117 0
34 117 0
35 117 0
36 117 0
37 117 0
38 117 0
39 117 0
40 117 0
41 117 0
42 117 0
43 117 0
44 117 0
45 117 0
46 117 0
47 117 0.99722501540774111
48 117 0
49 117 0
50 117 0
51 117 0
52 117 0
53 117 0
54 117 0
55 117 0
56 117 0
57 117 0
58 117 0
59 117 0
60 117 0
61 117 0
62 117 0
63 117 0
64 117 0
65 117 0
66 117 0
67 117 0
68 117 0
69 117 0
70 117 0
71 117 0
72 117 0
73 117 0
74 117 0
75 117 0
76 117 0
77 117 0
78 117 0
79 117 0
80 117 0
81 117 0
82 117 0
83 117 0
84 117 0
85 117 0
86 117 0
87 117 0
88 117 0
89 117 0
90 117 0
91 117 0
92 117 0
93 117 0.99722501540774111
94 117 0
95 117 0
96 117 0
97 117 0
98 117 0
99 117 0
100 117 0
101 117 0
102 117 0
103 117 0
104 117 0
105 117 0
106 117 0
107 117 0
108 117 0
109 117 0
110 117 0
111 117 0
112 117 0
113 117 0
114 117 0
115 117 0
116 117 0
117 117 0
118 117 0
119 117 0
120 117 0
1 118 0
2 118 0
3 118 0
4 118 0
5 118 0
6 118 0
7 118 0
8 118 0
9 118 0
10 118 0
11 118 0
12 118 0
13 118 0
14 118 0
15 118 0
16 118 0
17 118 0
18 118 0
19 118 0
20 118 0
21 118 0
22 118 0
23 118 0
24 118 0
25 118 0
26 118 0
27 118 0
28 118 0
29 118 0
30 118 0
31 118 0
32 118 0
33 118 0
34 118 0
35 118 0
36 118 0
37 118 0
38 118 0
39 118 0
40 118 0
41 118 0
42 118 0
43 118 0
44 118 0
45 118 0
46 118 0
47 118 0
48 118 0.99722501540774111
49 118 0
50 118 0
51 118 0
52 118 0
53 118 0
54 118 0
55 118 0
56 118 0
57 118 0
58 118 0
59 118 0
60 118 0
61 118 0
62 118 0
63 118 0
64 118 0
65 118 0
66 118 0
67 118 0
68 118 0
69 118 0
70 118 0
71 118 0
72 118 0
73 118 0
74 118 0
75 118 0
76 118 0
77 118 0
78 118 0
79 118 0
80 118 0
81 118 0
82 118 0
83 118 0
84 118 0
85 118 0
86 118 0
87 118 0
88 118 0
89 118 0
90 118 0
91 118 0
92 118 0
93 118 0
94 118 0.99722501540774111
95 118 0
96 118 0
97 118 0
98 118 0
99 118 0
100 118 0
101 118 0
102 118 0
103 118 0
104 118 0
105 118 0
106 118 0
107 118 0
108 118 0
109 118 0
110 118 0
111 118 0
112 118 0
113 118 0
114 118 0
115 118 0
116 118 0
117 118 0
118 118 0
119 118 0
120 118 0
1 119 0
2 119 0
3 119 0
4 119 0
5 119 0
6 119 0
7 119 0
8 119 0
9 119 0
10 119 0
11 119 0
12 119 0
13 119 0
14 119 0
15 119 0
16 119 0
17 119 0
18 119 0
19 119 0
20 119 0
21 119 0
22 119 0
23 119 0
24 119 0
25 119 0
26 119 0
27 119 0
28 119 0
29 119 0
30 119 0
31 119 0
32 119 0
33 119 0
34 119 0
35 119 0
36 119 0
37 119 0
38 119 0
39 119 0
40 119 0
41 119 0
42 119 0
43 119 0
44 119 0
45 119 0
46 119 0
47 119 0
48 119 0
49 119 0.99722501540774111
50 119 0
51 119 0
52 119 0
53 119 0
54 119 0
55 119 0
56 119 0
57 119 0
58 119 0
59 119 0
60 119 0
61 119 0
62 119 0
63 119 0
64 119 0
65 119 0
66 119 0
67 119 0
68 119 0
69 119 0
70 119 0
71 119 0
72 119 0
73 119 0
74 119 0
75 119 0
76 119 0
77 119 0
78 119 0
79 119 0
80 119 0
81 119 0
82 119 0
83 119 0
84 119 0
85 119 0
86 119 0
87 119 0
88 119 0
89 119 0
90 119 0
91 119 0
92 119 0
93 119 0
94 119 0
95 119 0.99722501540774111
96 119 0
97 119 0
98 119 0
99 119 0
100 119 0
101 119 0
102 119 0
103 119 0
104 119 0
105 119 0
106 119 0
107 119 0
108 119 0
109 119 0
110 119 0
111 119 0
112 119 0
113 119 0
114 119 0
115 119 0
116 119 0
117 119 0
118 119 0
119 119 0
120 119 0
1 120 0
2 120 0
3 120 0
4 120 0
5 120 0
6 120 0
7 120 0
8 120 0
9 120 0
10 120 0
11 120 0
12 120 0
13 120 0
14 120 0
15 120 0
16 120 0
17 120 0
18 120 0
19 120 0
20 120 0
21 120 0
22 120 0
23 120 0
24 120 0
25 120 0
26 120 0
27 120 0
28 120 0
29 120 0
30 120 0
31 120 0
32 120 0
33 120 0
34 120 0
35 120 0
36 120 0
37 120 0
38 120 0
39 120 0
40 120 0
41 120 0
42 120 0
43 120 0
44 120 0
45 120 0
46 120 0
47 120 0
48 120 0
49 120 0
50 120 0.99722501540774111
51 120 0
52 120 0
53 120 0
54 120 0
55 120 0
56 120 0
57 120 0
58 120 0
59 120 0
60 120 0
61 120 0
62 120 0
63 120 0
64 120 0
65 120 0
66 120 0
67 120 0
68 120 0
69 120 0
70 120 0
71 120 0
72 120 0
73 120 0
74 120 0
75 120 0
76 120 0
77 120 0
78 120 0
79 120 0
80 120 0
81 120 0
82 120 0
83 120 0
84 120 0
85 120 0
86 120 0
87 120 0
88 120 0
89 120 0
90 120 0
91 120 0
92 120 0
93 120 0
94 120 0
95 120 0
96 120 0.99722501540774111
97 120 0
98 120 0
99 120 0
100 120 0
101 120 0
102 120 0
103 120 0
104 120 0
105 120 0
106 120 0
107 120 0
108 120 0
109 120 0
110 120 0
111 120 0
112 120 0
113 120 0
114 120 0
115 120 0
116 120 0
117 120 0
118 120 0
119 120 0
120 120 0
1 121 0
2 121 0
3 121 0
4 121 0
5 121 0
6 121 0
7 121 0
8 121 0
9 121 0
10 121 0
11 121 0
12 121 0
13 121 0
14 121 0
15 121 0
16 121 0
17 121 0
18 121 0
19 121 0
20 121 0
21 121 0
22 121 0
23 121 0
24 121 0
25 121 0
26 121 0
27 121 0
28 121 0
29 121 0
30 121 0
31 121 0
32 121 0
33 121 0
34 121 0
35 121 0
36 121 0
37 121 0
38 121 0
39 121 0
40 121 0
41 121 0
42 121 0
43 121 0
44 121 0
45 121 0
46 121 0
47 121 0
48 121 0
49 121 0
50 121 0
51 121 0
52 121 0
53 121 0
54 121 0
55 121 0
56 121 0
57 121 0
58 121 0
59 121 0
60 121 0
61 121 0
62 121 0
63 121 0
64 121 0
65 121 0
66 121 0
67 121 0
68 121 0
69 121 0
70 121 0
71 121 0
72 121 0
73 121 0
74 121 0
75 121 0
76 121 0
77 121 0
78 121 0
79 121 0
80 121 0
81 121 0
82 121 0
83 121 0
84 121 0
85 121 0
86 121 0
87 121 0
88 121 0
89 121 0
90 121 0
91 121 0
92 121 0
93 121 0
94 121 0
95 121 0
96 121 0
97 121 0.99722501540774111
98 121 0
99 121 0
100 121 0
101 121 0
102 121 0
103 121 0
104 121 0
105 121 0
106 121 0
107 121 0
108 121 0
109 121 0
110 121 0
111 121 0
112 121 0
113 121 0
114 121 0
115 121 0
116 121 0
117 121 0
118 121 0
119 121 0
120 121 0
1 122 0
2 122 0
3 122 0
4 122 0
5 122 0
6 122 0
7 122 0
8 122 0
9 122 0
10 122 0
11 122 0
12 122 0
13 122 0
14 122 0
15 122 0
16 122 0
17 122 0
18 122 0
19 122 0
20 122 0
21 122 0
22 122 0
23 122 0
24 122 0
25 122 0
26 122 0
27 122 0
28 122 0
29 122 0
30 122 0
31 122 0
32 122 0
33 122 0
34 122 0
35 122 0
36 122 0
37 122 0
38 122 0
39 122 0
40 122 0
41 122 0
42 122 0
43 122 0
44 122 0
45 122 0
46 122 0
47 122 0
48 122 0
49 122 0
50 122 0
51 122 0
52 122 0
53 122 0
54 122 0
55 122 0
56 122 0
57 122 0
58 122 0
59 122 0
60 122 0
61 122 0
62 122 0
63 122 0
64 122 0
65 122 0
66 122 0
67 122 0
68 122 0
69 122 0
70 122 0
71 122 0
72 122 0
73 122 0
74 122 0
75 122 0
76 122 0
77 122 0
78 122 0
79 122 0
80 122 0
81 122 0
82 122 0
83 122 0
84 122 0
85 122 0
86 122 0
87 122 0
88 122 0
89 122 0
90 122 0
91 122 0
92 122 0
93 122 0
94 122 0
95 122 0
96 122 0
97 122 0
98 122 0.99722501540774111
99 122 0
100 122 0
101 122 0
102 122 0
103 122 0
104 122 0
105 122 0
106 122 0
107 122 0
108 122 0
109 122 0
110 122 0
111 122 0
112 122 0
113 122 0
114 122 0
115 122 0
116 122 0
117 122 0
118 122 0
119 122 0
120 122 0
1 123 0
2 123 0
3 123 0
4 123 0
5 123 0
6 123 0
7 123 0
8 123 0
9 123 0
10 123 0
11 123 0
12 123 0
13 123 0
14 123 0
15 123 0
16 123 0
17 123 0
18 123 0
19 123 0
20 123 0
21 123 0
22 123 0
23 123 0
24 123 0
25 123 0
26 123 0
27 123 0
28 123 0
29 123 0
30 123 0
31 123 0
32 123 0
33 123 0
34 123 0
35 123 0
36 123 0
37 123 0
38 123 0
39 123 0
40 123 0
41 123 0
42 123 0
43 123 0
44 123 0
45 123 0
46 123 0
47 123 0
48 123 0
49 123 0
50 123 0
51 123 0
52 123 0
53 123 0
54 123 0
55 123 0
56 123 0
57 123 0
58 123 0
59 123 0
60 123 0
61 123 0
62 123 0
63 123 0
64 123 0
65 123 0
66 123 0
67 123 0
68 123 0
69 123 0
70 123 0
71 123 0
72 123 0
73 123 0
74 123 0
75 123 0
76 123 0
77 123 0
78 123 0
79 123 0
80 123 0
81 123 0
82 123 0
83 123 0
84 123 0
85 123 0
86 123 0
87 123 0
88 123 0
89 123 0
90 123 0
91 123 0
92 123 0
93 123 0
94 123 0
95 123 0
96 123 0
97 123 0
98 123 0
99 123 0.99722501540774111
100 123 0
101 123 0
102 123 0
103 123 0
104 123 0
105 123 0
106 123 0
107 123 0
108 123 0
109 123 0
110 123 0
111 123 0
112 123 0
113 123 0
114 123 0
115 123 0
116 123 0
117 123 0
118 123 0
119 123 0
120 123 0
1 124 0
2 124 0
3 124 0
4 124 0
5 124 0
6 124 0
7 124 0
8 124 0
9 124 0
10 124 0
11 124 0
12 124 0
13 124 0
14 124 0
15 124 0
16 124 0
17 124 0
18 124 0
19 124 0
20 124 0
21 124 0
22 124 0
23 124 0
24 124 0
25 124 0
26 124 0
27 124 0
28 124 0
29 124 0
30 124 0
31 124 0
32 124 0
33 124 0
34 124 0
35 124 0
36 124 0
37 124 0
38 124 0
39 124 0
40 124 0
41 124 0
42 124 0
43 124 0
44 124 0
45 124 0
46 124 0
47 124 0
48 124 0
49 124 0
50 124 0
51 124 0
52 124 0
53 124 0
54 124 0
55 124 0
56 124 0
57 124 0
58 124 0
59 124 0
60 124 0
61 124 0
62 124 0
63 124 0
64 124 0
65 124 0
66 124 0
67 124 0
68 124 0
69 124 0
70 124 0
71 124 0
72 124 0
73 124 0
74 124 0
75 124 0
76 124 0
77 124 0
78 124 0
79 124 0
80 124 0
81 124 0
82 124 0
83 124 0
84 124 0
85 124 0
86 124 0
87 124 0
88 124 0
89 124 0
90 124 0
91 124 0
92 124 0
93 124 0
94 124 0
95 124 0
96 124 0
97 124 0
98 124 0
99 124 0
100 124 0.99722501540774111
101 124 0
102 124 0
103 124 0
104 124 0
105 124 0
106 124 0
107 124 0
108 124 0
109 124 0
110 124 0
111 124 0
112 124 0
113 124 0
114 124 0
115 124 0
116 124 0
117 124 0
118 124 0
119 124 0
120 124 0
1 125 0
2 125 0
3 125 0
4 125 0
5 125 0
6 125 0
7 125 0
8 125 0
9 125 0
10 125 0
11 125 0
12 125 0
13 125 0
14 125 0
15 125 0
16 125 0
17 125 0
18 125 0
19 125 0
20 125 0
21 125 0
22 125 0
23 125 0
24 125 0
25 125 0
26 125 0
27 125 0
28 125 0
29 125 0
30 125 0
31 125 0
32 125 0
33 125 0
34 125 0
35 125 0
36 125 0
37 125 0
38 125 0
39 125 0
40 125 0
41 125 0
42 125 0
43 125 0
44 125 0
45 125 0
46 125 0
47 125 0
48 125 0
49 125 0
50 125 0
51 125 0
52 125 0
53 125 0
54 125 0
55 125 0
56 125 0
57 125 0
58 125 0
59 125 0
60 125 0
61 125 0
62 125 0
63 125 0
64 125 0
65 125 0
66 125 0
67 125 0
68 125 0
69 125 0
70 125 0
71 125 0
72 125 0
73 125 0
74 125 0
75 125 0
76 125 0
77 125 0
78 125 0
79 125 0
80 125 0
81 125 0
82 125 0
83 125 0
84 125 0
85 125 0
86 125 0
87 125 0
88 125 0
89 125 0
90 125 0
91 125 0
92 125 0
93 125 0
94 125 0
95 125 0
96 125 0
97 125 0
98 125 0
99 125 0
100 125 0
101 125 0.99722501540774111
102 125 0
103 125 0
104 125 0
105 125 0
106 125 0
107 125 0
108 125 0
109 125 0
110 125 0
111 125 0
112 125 0
113 125 0
114 125 0
115 125 0
116 125 0
117 125 0
118 125 0
119 125 0
120 125 0
1 126 0
2 126 0
3 126 0
4 126 0
5 126 0
6 126 0
7 126 0
8 126 0
9 126 0
10 126 0
11 126 0
12 126 0
13 126 0
14 126 0
15 126 0
16 126 0
17 126 0
18 126 0
19 126 0
20 126 0
21 126 0
22 126 0
23 126 0
24 126 0
25 126 0
26 126 0
27 126 0
28 126 0
29 126 0
30 126 0
31 126 0
32 126 0
33 126 0
34 126 0
35 126 0
36 126 0
37 126 0
38 126 0
39 126 0
40 126 0
41 126 0
42 126 0
43 126 0
44 126 0
45 126 0
46 126 0
47 126 0
48 126 0
49 126 0
50 126 0
51 126 0
52 126 0
53 126 0
54 126 0
55 126 0
56 126 0
57 126 0
58 126 0
59 126 0
60 126 0
61 126 0
62 126 0
63 126 0
64 126 0
65 126 0
66 126 0
67 126 0
68 126 0
69 126 0
70 126 0
71 126 0
72 126 0
73 126 0
74 126 0
75 126 0
76 126 0
77 126 0
78 126 0
79 126 0
80 126 0
81 126 0
82 126 0
83 126 0
84 126 0
85 126 0
86 126 0
87 126 0
88 126 0
89 126 0
90 126 0
91 126 0
92 126 0
93 126 0
94 126 0
95 126 0
96 126 0
97 126 0
98 126 0
99 126 0
100 126 0
101 126 0
102 126 0.99722501540774111
103 126 0
104 126 0
105 126 0
106 126 0
107 126 0
108 126 0
109 126 0
110 126 0
111 126 0
112 126 0
113 126 0
114 126 0
115 126 0
116 126 0
117 126 0
118 126 0
119 126 0
120 126 0
1 127 0
2 127 0
3 127 0
4 127 0
5 127 0
6 127 0
7 127 0
8 127 0
9 127 0
10 127 0
11 127 0
12 127 0
13 127 0
14 127 0
15 127 0
16 127 0
17 127 0
18 127 0
19 127 0
20 127 0
21 127 0
22 127 0
23 127 0
24 127 0
25 127 0
26 127 0
27 127 0
28 127 0
29 127 0
30 127 0
31 127 0
32 127 0
33 127 0
34 127 0
35 127 0
36 127 0
37 127 0
38 127 0
39 127 0
40 127 0
41 127 0
42 127 0
43 127 0
44 127 0
45 127 0
46 127 0
47 127 0
48 127 0
49 127 0
50 127 0
51 127 0
52 127 0
53 127 0
54 127 0
55 127 0
56 127 0
57 127 0
58 127 0
59 127 0
60 127 0
61 127 0
62 127 0
63 127 0
64 127 0
65 127 0
66 127 0
67 127 0
68 127 0
69 127 0
70 127 0
71 127 0
72 127 0
73 127 0
74 127 0
75 127 0
76 127 0
77 127 0
78 127 0
79 127 0
80 127 0
81 127 0
82 127 0
83 127 0
84 127 0
85 127 0
86 127 0
87 127 0
88 127 0
89 127 0
90 127 0
91 127 0
92 127 0
93 127 0
94 127 0
95 127 0
96 127 0
97 127 0
98 127 0
99 127 0
100 127 0
101 127 0
102 127 0
103 127 0.99722501540774111
104 127 0
105 127 0
106 127 0
107 127 0
108 127 0
109 127 0
110 127 0
111 127 0
112 127 0
113 127 0
114 127 0
115 127 0
116 127 0
117 127 0
118 127 0
119 127 0
120 127 0
1 128 0
2 128 0
3 128 0
4 128 0
5 128 0
6 128 0
7 128 0
8 128 0
9 128 0
10 128 0
11 128 0
12 128 0
13 128 0
14 128 0
15 128 0
16 128 0
17 128 0
18 128 0
19 128 0
20 128 0
21 128 0
22 128 0
23 128 0
24 128 0
25 128 0
26 128 0
27 128 0
28 128 0
29 128 0
30 128 0
31 128 0
32 128 0
33 128 0
34 128 0
35 128 0
36 128 0
37 128 0
38 128 0
39 128 0
40 128 0
41 128 0
42 128 0
43 128 0
44 128 0
45 128 0
46 128 0
47 128 0
48 128 0
49 128 0
50 128 0
51 128 0.99722501540774111
52 128 0
53 128 0
54 128 0
55 128 0
56 128 0
57 128 0
58 128 0
59 128 0
60 128 0
61 128 0
62 128 0
63 128 0
64 128 0
65 128 0
66 128 0
67 128 0
68 128 0
69 128 0
70 128 0
71 128 0
72 128 0
73 128 0
74 128 0
75 128 0
76 128 0
77 128 0
78 128 0
79 128 0
80 128 0
81 128 0
82 128 0
83 128 0
84 128 0
85 128 0
86 128 0
87 128 0
88 128 0
89 128 0
90 128 0
91 128 0
92 128 0
93 128 0
94 128 0
95 128 0
96 128 0
97 128 0
98 128 0
99 128 0
100 128 0
101 128 0
102 128 0
103 128 0
104 128 0.99722501540774111
105 128 0
106 128 0
107 128 0
108 128 0
109 128 0
110 128 0
111 128 0
112 128 0
113 128 0
114 128 0
115 128 0
116 128 0
117 128 0
118 128 0
119 128 0
120 128 0
1 129 0
2 129 0
3 129 0
4 129 0
5 129 0
6 129 0
7 129 0
8 129 0
9 129 0
10 129 0
11 129 0
12 129 0
13 129 0
14 129 0
15 129 0
16 129 0
17 129 0
18 129 0
19 129 0
20 129 0
21 129 0
22 129 0
23 129 0
24 129 0
25 129 0
26 129 0
27 129 0
28 129 0
29 129 0
30 129 0
31 129 0
32 129 0
33 129 0
34 129 0
35 129 0
36 129 0
37 129 0
38 129 0
39 129 0
40 129 0
41 129 0
42 129 0
43 129 0
44 129 0
45 129 0
46 129 0
47 129 0
48 129 0
49 129 0
50 129 0
51 129 0
52 129 0.99722501540774111
53 129 0
54 129 0
55 129 0
56 129 0
57 129 0
58 129 0
59 129 0
60 129 0
61 129 0
62 129 0
63 129 0
64 129 0
65 129 0
66 129 0
67 129 0
68 129 0
69 129 0
70 129 0
71 129 0
72 129 0
73 129 0
74 129 0
75 129 0
76 129 0
77 129 0
78 129 0
79 129 0
80 129 0
81 129 0
82 129 0
83 129 0
84 129 0
85 129 0
86 129 0
87 129 0
88 129 0
89 129 0
90 129 0
91 129 0
92 129 0
93 129 0
94 129 0
95 129 0
96 129 0
97 129 0
98 129 0
99 129 0
100 129 0
101 129 0
102 129 0
103 129 0
104 129 0
105 129 0.99722501540774111
106 129 0
107 129 0
108 129 0
109 129 0
110 129 0
111 129 0
112 129 0
113 129 0
114 129 0
115 129 0
116 129 0
117 129 0
118 129 0
119 129 0
120 129 0
1 130 0
2 130 0
3 130 0
4 130 0
5 130 0
6 130 0
7 130 0
8 130 0
9 130 0
10 130 0
11 130 0
12 130 0
13 130 0
14 130 0
15 130 0
16 130 0
17 130 0
18 130 0
19 130 0
20 130 0
21 130 0
22 130 0
23 130 0
24 130 0
25 130 0
26 130 0
27 130 0
28 130 0
29 130 0
30 130 0
31 130 0
32 130 0
33 130 0
34 130 0
35 130 0
36 130 0
37 130 0
38 130 0
39 130 0
40 130 0
41 130 0
42 130 0
43 130 0
44 130 0
45 130 0
46 130 0
47 130 0
48 130 0
49 130 0
50 130 0
51 130 0
52 130 0
53 130 0.99722501540774111
54 130 0
55 130 0
56 130 0
57 130 0
58 130 0
59 130 0
60 130 0
61 130 0
62 130 0
63 130 0
64 130 0
65 130 0
66 130 0
67 130 0
68 130 0
69 130 0
70 130 0
71 130 0
72 130 0
73 130 0
74 130 0
75 130 0
76 130 0
77 130 0
78 130 0
79 130 0
80 130 0
81 130 0
82 130 0
83 130 0
84 130 0
85 130 0
86 130 0
87 130 0
88 130 0
89 130 0
90 130 0
91 130 0
92 130 0
93 130 0
94 130 0
95 130 0
96 130 0
97 130 0
98 130 0
99 130 0
100 130 0
101 130 0
102 130 0
103 130 0
104 130 0
105 130 0
106 130 0.99722501540774111
107 130 0
108 130 0
109 130 0
110 130 0
111 130 0
112 130 0
113 130 0
114 130 0
115 130 0
116 130 0
117 130 0
118 130 0
119 130 0
120 130 0
1 131 0
2 131 0
3 131 0
4 131 0
5 131 0
6 131 0
7 131 0
8 131 0
9 131 0
10 131 0
11 131 0
12 131 0
13 131 0
14 131 0
15 131 0
16 131 0
17 131 0
18 131 0
19 131 0
20 131 0
21 131 0
22 131 0
23 131 0
24 131 0
25 131 0
26 131 0
27 131 0
28 131 0
29 131 0
30 131 0
31 131 0
32 131 0
33 131 0
34 131 0
35 131 0
36 131 0
37 131 0
38 131 0
39 131 0
40 131 0
41 131 0
42 131 0
43 131 0
44 131 0
45 131 0
46 131 0
47 131 0
48 131 0
49 131 0
50 131 0
51 131 0
52 131 0
53 131 0
54 131 0.99722501540774111
55 131 0
56 131 0
57 131 0
58 131 0
59 131 0
60 131 0
61 131 0
62 131 0
63 131 0
64 131 0
65 131 0
66 131 0
67 131 0
68 131 0
69 131 0
70 131 0
71 131 0
72 131 0
73 131 0
74 131 0
75 131 0
76 131 0
77 131 0
78 131 0
79 131 0
80 131 0
81 131 0
82 131 0
83 131 0
84 131 0
85 131 0
86 131 0
87 131 0
88 131 0
89 131 0
90 131 0
91 131 0
92 131 0
93 131 0
94 131 0
95 131 0
96 131 0
97 131 0
98 131 0
99 131 0
100 131 0
101 131 0
102 131 0
103 131 0
104 131 0
105 131 0
106 131 0
107 131 0.99722501540774111
108 131 0
109 131 0
110 131 0
111 131 0
112 131 0
113 131 0
114 131 0
115 131 0
116 131 0
117 131 0
118 131 0
119 131 0
120 131 0
1 132 0
2 132 0
3 132 0
4 132 0
5 132 0
6 132 0
7 132 0
8 132 0
9 132 0
10 132 0
11 132 0
12 132 0
13 132 0
14 132 0
15 132 0
16 132 0
17 132 0
18 132 0
19 132 0
20 132 0
21 132 0
22 132 0
23 132 0
24 132 0
25 132 0
26 132 0
27 132 0
28 132 0
29 132 0
30 132 0
31 132 0
32 132 0
33 132 0
34 132 0
35 132 0
36 132 0
37 132 0
38 132 0
39 132 0
40 132 0
41 132 0
42 132 0
43 132 0
44 132 0
45 132 0
46 132 0
47 132 0
48 132 0
49 132 0
50 132 0
51 132 0
52 132 0
53 132 0
54 132 0
55 132 0.99722501540774111
56 132 0
57 132 0
58 132 0
59 132 0
60 132 0
61 132 0
62 132 0
63 132 0
64 132 0
65 132 0
66 132 0
67 132 0
68 132 0
69 132 0
70 132 0
71 132 0
72 132 0
73 132 0
74 132 0
75 132 0
76 132 0
77 132 0
78 132 0
79 132 0
80 132 0
81 132 0
82 132 0
83 132 0
84 132 0
85 132 0
86 132 0
87 132 0
88 132 0
89 132 0
90 132 0
91 132 0
92 132 0
93 132 0
94 132 0
95 132 0
96 132 0
97 132 0
98 132 0
99 132 0
100 132 0
101 132 0
102 132 0
103 132 0
104 132 0
105 132 0
106 132 0
107 132 0
108 132 0.99722501540774111
109 132 0
110 132 0
111 132 0
112 132 0
113 132 0
114 132 0
115 132 0
116 132 0
117 132 0
118 132 0
119 132 0
120 132 0
1 133 0
2 133 0
3 133 0
4 133 0
5 133 0
6 133 0
7 133 0
8 133 0
9 133 0
10 133 0
11 133 0
12 133 0
13 133 0
14 133 0
15 133 0
16 133 0
17 133 0
18 133 0
19 133 0
20 133 0
21 133 0
22 133 0
23 133 0
24 133 0
25 133 0
26 133 0
27 133 0
28 133 0
29 133 0
30 133 0
31 133 0
32 133 0
33 133 0
34 133 0
35 133 0
36 133 0
37 133 0
38 133 0
39 133 0
40 133 0
41 133 0
42 133 0
43 133 0
44 133 0
45 133 0
46 133 0
47 133 0
48 133 0
49 133 0
50 133 0
51 133 0
52 133 0
53 133 0
54 133 0
55 133 0
56 133 0
57 133 0
58 133 0
59 133 0
60 133 0
61 133 0
62 133 0
63 133 0
64 133 0
65 133 0
66 133 0
67 133 0
68 133 0
69 133 0
70 133 0
71 133 0
72 133 0
73 133 0
74 133 0
75 133 0
76 133 0
77 133 0
78 133 0
79 133 0
80 133 0
81 133 0
82 133 0
83 133 0
84 133 0
85 133 0
86 133 0
87 133 0
88 133 0
89 133 0
90 133 0
91 133 0
92 133 0
93 133 0
94 133 0
95 133 0
96 133 0
97 133 0
98 133 0
99 133 0
100 133 0
101 133 0
102 133 0
103 133 0
104 133 0
105 133 0
106 133 0
107 133 0
108 133 0
109 133 0.99722501540774111
110 133 0
111 133 0
112 133 0
113 133 0
114 133 0
115 133 0
116 133 0
117 133 0
118 133 0
119 133 0
120 133 0
1 134 0
2 134 0
3 134 0
4 134 0
5 134 0
6 134 0
7 134 0
8 134 0
9 134 0
10 134 0
11 134 0
12 134 0
13 134 0
14 134 0
15 134 0
16 134 0
17 134 0
18 134 0
19 134 0
20 134 0
21 134 0
22 134 0
23 134 0
24 134 0
25 134 0
26 134 0
27 134 0
28 134 0
29 134 0
30 134 0
31 134 0
32 134 0
33 134 0
34 134 0
35 134 0
36 134 0
37 134 0
38 134 0
39 134 0
40 134 0
41 134 0
42 134 0
43 134 0
44 134 0
45 134 0
46 134 0
47 134 0
48 134 0
49 134 0
50 134 0
51 134 0
52 134 0
53 134 0
54 134 0
55 134 0
56 134 0
57 134 0
58 134 0
59 134 0
60 134 0
61 134 0
62 134 0
63 134 0
64 134 0
65 134 0
66 134 0
67 134 0
68 134 0
69 134 0
70 134 0
71 134 0
72 134 0
73 134 0
74 134 0
75 134 0
76 134 0
77 134 0
78 134 0
79 134 0
80 134 0
81 134 0
82 134 0
83 134 0
84 134 0
85 134 0
86 134 0
87 134 0
88 134 0
89 134 0
90 134 0
91 134 0
92 134 0
93 134 0
94 134 0
95 134 0
96 134 0
97 134 0
98 134 0
99 134 0
100 134 0
101 134 0
102 134 0
103 134 0
104 134 0
105 134 0
106 134 0
107 134 0
108 134 0
109 134 0
110 134 0.99722501540774111
111 134 0
112 134 0
113 134 0
114 134 0
115 134 0
116 134 0
117 134 0
118 134 0
119 134 0
120 134 0
1 135 0
2 135 0
3 135 0
4 135 0
5 135 0
6 135 0
7 135 0
8 135 0
9 135 0
10 135 0
11 135 0
12 135 0
13 135 0
14 135 0
15 135 0
16 135 0
17 135 0
18 135 0
19 135 0
20 135 0
21 135 0
22 135 0
23 135 0
24 135 0
25 135 0
26 135 0
27 135 0
28 135 0
29 135 0
30 135 0
31 135 0
32 135 0
33 135 0
34 135 0
35 135 0
36 135 0
37 135 0
38 135 0
39 135 0
40 135 0
41 135 0
42 135 0
43 135 0
44 135 0
45 135 0
46 135 0
47 135 0
48 135 0
49 135 0
50 135 0
51 135 0
52 135 0
53 135 0
54 135 0
55 135 0
56 135 0
57 135 0
58 135 0
59 135 0
60 135 0
61 135 0
62 135 0
63 135 0
64 135 0
65 135 0
66 135 0
67 135 0
68 135 0
69 135 0
70 135 0
71 135 0
72 135 0
73 135 0
74 135 0
75 135 0
76 135 0
77 135 0
78 135 0
79 135 0
80 135 0
81 135 0
82 135 0
83 135 0
84 135 0
85 135 0
86 135 0
87 135 0
88 135 0
89 135 0
90 135 0
91 135 0
92 135 0
93 135 0
94 135 0
95 135 0
96 135 0
97 135 0
98 135 0
99 135 0
100 135 0
101 135 0
102 135 0
103 135 0
104 135 0
105 135 0
106 135 0
107 135 0
108 135 0
109 135 0
110 135 0
111 135 0.99722501540774111
112 135 0
113 135 0
114 135 0
115 135 0
116 135 0
117 135 0
118 135 0
119 135 0
120 135 0
1 136 0
2 136 0
3 136 0
4 136 0
5 136 0
6 136 0
7 136 0
8 136 0
9 136 0
10 136 0
11 136 0
12 136 0
13 136 0
14 136 0
15 136 0
16 136 0
17 136 0
18 136 0
19 136 0
20 136 0
21 136 0
22 136 0
23 136 0
24 136 0
25 136 0
26 136 0
27 136 0
28 136 0
29 136 0
30 136 0
31 136 0
32 136 0
33 136 0
34 136 0
35 136 0
36 136 0
37 136 0
38 136 0
39 136 0
40 136 0
41 136 0
42 136 0
43 136 0
44 136 0
45 136 0
46 136 0
47 136 0
48 136 0
49 136 0
50 136 0
51 136 0
52 136 0
53 136 0
54 136 0
55 136 0
56 136 0
57 136 0
58 136 0
59 136 0
60 136 0
61 136 0
62 136 0
63 136 0
64 136 0
65 136 0
66 136 0
67 136 0
68 136 0
69 136 0
70 136 0
71 136 0
72 136 0
73 136 0
74 136 0
75 136 0
76 136 0
77 136 0
78 136 0
79 136 0
80 136 0
81 136 0
82 136 0
83 136 0
84 136 0
85 136 0
86 136 0
87 136 0
88 136 0
89 136 0
90 136 0
91 136 0
92 136 0
93 136 0
94 136 0
95 136 0
96 136 0
97 136 0
98 136 0
99 136 0
100 136 0
101 136 0
102 136 0
103 136 0
104 136 0
105 136 0
106 136 0
107 136 0
108 136 0
109 136 0
110 136 0
111 136 0
112 136 0.99722501540774111
113 136 0
114 136 0
115 136 0
116 136 0
117 136 0
118 136 0
119 136 0
120 136 0
1 137 0
2 137 0
3 137 0
4 137 0
5 137 0
6 137 0
7 137 0
8 137 0
9 137 0
10 137 0
11 137 0
12 137 0
13 137 0
14 137 0
15 137 0
16 137 0
17 137 0
18 137 0
19 137 0
20 137 0
21 137 0
22 137 0
23 137 0
24 137 0
25 137 0
26 137 0
27 137 0
28 137 0
29 137 0
30 137 0
31 137 0
32 137 0
33 137 0
34 137 0
35 137 0
36 137 0
37 137 0
38 137 0
39 137 0
40 137 0
41 137 0
42 137 0
43 137 0
44 137 0
45 137 0
46 137 0
47 137 0
48 137 0
49 137 0
50 137 0
51 137 0
52 137 0
53 137 0
54 137 0
55 137 0
56 137 0
57 137 0
58 137 0
59 137 0
60 137 0
61 137 0
62 137 0
63 137 0
64 137 0
65 137 0
66 137 0
67 137 0
68 137 0
69 137 0
70 137 0
71 137 0
72 137 0
73 137 0
74 137 0
75 137 0
76 137 0
77 137 0
78 137 0
79 137 0
80 137 0
81 137 0
82 137 0
83 137 0
84 137 0
85 137 0
86 137 0
87 137 0
88 137 0
89 137 0
90 137 0
91 137 0
92 137 0
93 137 0
94 137 0
95 137 0
96 137 0
97 137 0
98 137 0
99 137 0
100 137 0
101 137 0
102 137 0
103 137 0
104 137 0
105 137 0
106 137 0
107 137 0
108 137 0
109 137 0
110 137 0
111 137 0
112 137 0
113 137 0.99722501540774111
114 137 0
115 137 0
116 137 0
117 137 0
118 137 0
119 137 0
120 137 0
1 138 0
2 138 0
3 138 0
4 138 0
5 138 0
6 138 0
7 138 0
8 138 0
9 138 0
10 138 0
11 138 0
12 138 0
13 138 0
14 138 0
15 138 0
16 138 0
17 138 0
18 138 0
19 138 0
20 138 0
21 138 0
22 138 0
23 138 0
24 138 0
25 138 0
26 138 0
27 138 0
28 138 0
29 138 0
30 138 0
31 138 0
32 138 0
33 138 0
34 138 0
35 138 0
36 138 0
37 138 0
38 138 0
39 138 0
40 138 0
41 138 0
42 138 0
43 138 0
44 138 0
45 138 0
46 138 0
47 138 0
48 138 0
49 138 0
50 138 0
51 138 0
52 138 0
53 138 0
54 138 0
55 138 0
56 138 0
57 138 0
58 138 0
59 138 0
60 138 0
61 138 0
62 138 0
63 138 0
64 138 0
65 138 0
66 138 0
67 138 0
68 138 0
69 138 0
70 138 0
71 138 0
72 138 0
73 138 0
74 138 0
75 138 0
76 138 0
77 138 0
78 138 0
79 138 0
80 138 0
81 138 0
82 138 0
83 138 0
84 138 0
85 138 0
86 138 0
87 138 0
88 138 0
89 138 0
90 138 0
91 138 0
92 138 0
93 138 0
94 138 0
95 138 0
96 138 0
97 138 0
98 138 0
99 138 0
100 138 0
101 138 0
102 138 0
103 138 0
104 138 0
105 138 0
106 138 0
107 138 0
108 138 0
109 138 0
110 138 0
111 138 0
112 138 0
113 138 0
114 138 0.99722501540774111
115 138 0
116 138 0
117 138 0
118 138 0
119 138 0
120 138 0
1 139 0
2 139 0
3 139 0
4 139 0
5 139 0
6 139 0
7 139 0
8 139 0
9 139 0
10 139 0
11 139 0
12 139 0
13 139 0
14 139 0
15 139 0
16 139 0
17 139 0
18 139 0
19 139 0
20 139 0
21 139 0
22 139 0
23 139 0
24 139 0
25 139 0
26 139 0
27 139 0
28 139 0
29 139 0
30 139 0
31 139 0
32 139 0
33 139 0
34 139 0
35 139 0
36 139 0
37 139 0
38 139 0
39 139 0
40 139 0
41 139 0
42 139 0
43 139 0
44 139 0
45 139 0
46 139 0
47 139 0
48 139 0
49 139 0
50 139 0
51 139 0
52 139 0
53 139 0
54 139 0
55 139 0
56 139 0
57 139 0
58 139 0
59 139 0
60 139 0
61 139 0
62 139 0
63 139 0
64 139 0
65 139 0
66 139 0
67 139 0
68 139 0
69 139 0
70 139 0
71 139 0
72 139 0
73 139 0
74 139 0
75 139 0
76 139 0
77 139 0
78 139 0
79 139 0
80 139 0
81 139 0
82 139 0
83 139 0
84 139 0
85 139 0
86 139 0
87 139 0
88 139 0
89 139 0
90 139 0
91 139 0
92 139 0
93 139 0
94 139 0
95 139 0
96 139 0
97 139 0
98 139 0
99 139 0
100 139 0
101 139 0
102 139 0
103 139 0
104 139 0
105 139 0
106 139 0
107 139 0
108 139 0
109 139 0
110 139 0
111 139 0
112 139 0
113 139 0
114 139 0
115 139 0.99722501540774111
116 139 0
117 139 0
118 139 0
119 139 0
120 139 0
1 140 0
2 140 0
3 140 0
4 140 0
5 140 0
6 140 0
7 140 0
8 140 0
9 140 0
10 140 0
11 140 0
12 140 0
13 140 0
14 140 0
15 140 0
16 140 0
17 140 0
18 140 0
19 140 0
20 140 0
21 140 0
22 140 0
23 140 0
24 140 0
25 140 0
26 140 0
27 140 0
28 140 0
29 140 0
30 140 0
31 140 0
32 140 0
33 140 0
34 140 0
35 140 0
36 140 0
37 140 0
38 140 0
39 140 0
40 140 0
41 140 0
42 140 0
43 140 0
44 140 0
45 140 0
46 140 0
47 140 0
48 140 0
49 140 0
50 140 0
51 140 0
52 140 0
53 140 0
54 140 0
55 140 0
56 140 0.99722501540774111
57 140 0
58 140 0
59 140 0
60 140 0
61 140 0
62 140 0
63 140 0
64 140 0
65 140 0
66 140 0
67 140 0
68 140 0
69 140 0
70 140 0
71 140 0
72 140 0
73 140 0
74 140 0
75 140 0
76 140 0
77 140 0
78 140 0
79 140 0
80 140 0
81 140 0
82 140 0
83 140 0
84 140 0
85 140 0
86 140 0
87 140 0
88 140 0
89 140 0
90 140 0
91 140 0
92 140 0
93 140 0
94 140 0
95 140 0
96 140 0
97 140 0
98 140 0
99 140 0
100 140 0
101 140 0
102 140 0
103 140 0
104 140 0
105 140 0
106 140 0
107 140 0
108 140 0
109 140 0
110 140 0
111 140 0
112 140 0
113 140 0
114 140 0
115 140 0
116 140 0.99722501540774111
117 140 0
118 140 0
119 140 0
120 140 0
1 141 0
2 141 0
3 141 0
4 141 0
5 141 0
6 141 0
7 141 0
8 141 0
9 141 0
10 141 0
11 141 0
12 141 0
13 141 0
14 141 0
15 141 0
16 141 0
17 141 0
18 141 0
19 141 0
20 141 0
21 141 0
22 141 0
23 141 0
24 141 0
25 141 0
26 141 0
27 141 0
28 141 0
29 141 0
30 141 0
31 141 0
32 141 0
33 141 0
34 141 0
35 141 0
36 141 0
37 141 0
38 141 0
39 141 0
40 141 0
41 141 0
42 141 0
43 141 0
44 141 0
45 141 0
46 141 0
47 141 0
48 141 0
49 141 0
50 141 0
51 141 0
52 141 0
53 141 0
54 141 0
55 141 0
56 141 0
57 141 0.99722501540774111
58 141 0
59 141 0
60 141 0
61 141 0
62 141 0
63 141 0
64 141 0
65 141 0
66 141 0
67 141 0
68 141 0
69 141 0
70 141 0
71 141 0
72 141 0
73 141 0
74 141 0
75 141 0
76 141 0
77 141 0
78 141 0
79 141 0
80 141 0
81 141 0
82 141 0
83 141 0
84 141 0
85 141 0
86 141 0
87 141 0
88 141 0
89 141 0
90 141 0
91 141 0
92 141 0
93 141 0
94 141 0
95 141 0
96 141 0
97 141 0
98 141 0
99 141 0
100 141 0
101 141 0
102 141 0
103 141 0
104 141 0
105 141 0
106 141 0
107 141 0
108 141 0
109 141 0
110 141 0
111 141 0
112 141 0
113 141 0
114 141 0
115 141 0
116 141 0
117 141 0.99722501540774111
118 141 0
119 141 0
120 141 0
1 142 0
2 142 0
3 142 0
4 142 0
5 142 0
6 142 0
7 142 0
8 142 0
9 142 0
10 142 0
11 142 0
12 142 0
13 142 0
14 142 0
15 142 0
16 142 0
17 142 0
18 142 0
19 142 0
20 142 0
21 142 0
22 142 0
23 142 0
24 142 0
25 142 0
26 142 0
27 142 0
28 142 0
29 142 0
30 142 0
31 142 0
32 142 0
33 142 0
34 142 0
35 142 0
36 142 0
37 142 0
38 142 0
39 142 0
40 142 0
41 142 0
42 142 0
43 142 0
44 142 0
45 142 0
46 142 0
47 142 0
48 142 0
49 142 0
50 142 0
51 142 0
52 142 0
53 142 0
54 142 0
55 142 0
56 142 0
57 142 0
58 142 0.99722501540774111
59 142 0
60 142 0
61 142 0
62 142 0
63 142 0
64 142 0
65 142 0
66 142 0
67 142 0
68 142 0
69 142 0
70 142 0
71 142 0
72 142 0
73 142 0
74 142 0
75 142 0
76 142 0
77 142 0
78 142 0
79 142 0
80 142 0
81 142 0
82 142 0
83 142 0
84 142 0
85 142 0
86 142 0
87 142 0
88 142 0
89 142 0
90 142 0
91 142 0
92 142 0
93 142 0
94 142 0
95 142 0
96 142 0
97 142 0
98 142 0
99 142 0
100 142 0
101 142 0
102 142 0
103 142 0
104 142 0
105 142 0
106 142 0
107 142 0
108 142 0
109 142 0
110 142 0
111 142 0
112 142 0
113 142 0
114 142 0
115 142 0
116 142 0
117 142 0
118 142 0.99722501540774111
119 142 0
120 142 0
1 143 0
2 143 0
3 143 0
4 143 0
5 143 0
6 143 0
7 143 0
8 143 0
9 143 0
10 143 0
11 143 0
12 143 0
13 143 0
14 143 0
15 143 0
16 143 0
17 143 0
18 143 0
19 143 0
20 143 0
21 143 0
22 143 0
23 143 0
24 143 0
25 143 0
26 143 0
27 143 0
28 143 0
29 143 0
30 143 0
31 143 0
32 143 0
33 143 0
34 143 0
35 143 0
36 143 0
37 143 0
38 143 0
39 143 0
40 143 0
41 143 0
42 143 0
43 143 0
44 143 0
45 143 0
46 143 0
47 143 0
48 143 0
49 143 0
50 143 0
51 143 0
52 143 0
53 143 0
54 143 0
55 143 0
56 143 0
57 143 0
58 143 0
59 143 0.99722501540774111
60 143 0
61 143 0
62 143 0
63 143 0
64 143 0
65 143 0
66 143 0
67 143 0
68 143 0
69 143 0
70 143 0
71 143 0
72 143 0
73 143 0
74 143 0
75 143 0
76 143 0
77 143 0
78 143 0
79 143 0
80 143 0
81 143 0
82 143 0
83 143 0
84 143 0
85 143 0
86 143 0
87 143 0
88 143 0
89 143 0
90 143 0
91 143 0
92 143 0
93 143 0
94 143 0
95 143 0
96 143 0
97 143 0
98 143 0
99 143 0
100 143 0
101 143 0
102 143 0
103 143 0
104 143 0
105 143 0
106 143 0
107 143 0
108 143 0
109 143 0
110 143 0
111 143 0
112 143 0
113 143 0
114 143 0
115 143 0
116 143 0
117 143 0
118 143 0
119 143 0.99722501540774111
120 143 0
1 144 0
2 144 0
3 144 0
4 144 0
5 144 0
6 144 0
7 144 0
8 144 0
9 144 0
10 144 0
11 144 0
12 144 0
13 144 0
14 144 0
15 144 0
16 144 0
17 144 0
18 144 0
19 144 0
20 144 0
21 144 0
22 144 0
23 144 0
24 144 0
25 144 0
26 144 0
27 144 0
28 144 0
29 144 0
30 144 0
31 144 0
32 144 0
33 144 0
34 144 0
35 144 0
36 144 0
37 144 0
38 144 0
39 144 0
40 144 0
41 144 0
42 144 0
43 144 0
44 144 0
45 144 0
46 144 0
47 144 0
48 144 0
49 144 0
50 144 0
51 144 0
52 144 0
53 144 0
54 144 0
55 144 0
56 144 0
57 144 0
58 144 0
59 144 0
60 144 0.99722501540774111
61 144 0
62 144 0
63 144 0
64 144 0
65 144 0
66 144 0
67 144 0
68 144 0
69 144 0
70 144 0
71 144 0
72 144 0
73 144 0
74 144 0
75 144 0
76 144 0
77 144 0
78 144 0
79 144 0
80 144 0
81 144 0
82 144 0
83 144 0
84 144 0
85 144 0
86 144 0
87 144 0
88 144 0
89 144 0
90 144 0
91 144 0
92 144 0
93 144 0
94 144 0
95 144 0
96 144 0
97 144 0
98 144 0
99 144 0
100 144 0
101 144 0
102 144 0
103 144 0
104 144 0
105 144 0
106 144 0
107 144 0
108 144 0
109 144 0
110 144 0
111 144 0
112 144 0
113 144 0
114 144 0
115 144 0
116 144 0
117 144 0
118 144 0
119 144 0
120 144 0.99722501540774111
121 145 -0.33824549504874424
122 145 -0
123 145 -0
124 145 -0
125 145 -0
126 145 -0
127 145 -0
128 145 -0
129 145 -0
130 145 -0
131 145 -0
132 145 -0
133 145 -0
134 145 -0
135 145 -0
136 145 -0
137 145 -0
138 145 -0
139 145 -0
140 145 -0
141 145 -0
142 145 -0
143 145 -0
144 145 -0
145 145 -0
146 145 -0
147 145 -0
148 145 -0
149 145 -0
150 145 -0
151 145 -0
152 145 -0
153 145 -0
154 145 -0
155 145 -0
156 145 -0
157 145 -0
158 145 -0
159 145 -0
160 145 -0
161 145 -0
162 145 -0
163 145 -0
164 145 -0
165 145 -0
166 145 -0
167 145 -0
168 145 -0
169 145 -0
170 145 -0
171 145 -0
172 145 -0
173 145 -0
174 145 -0
175 145 -0
176 145 -0
177 145 -0
178 145 -0
179 145 -0
180 145 -0
181 145 -0.9779954441855957
182 145 -0
183 145 -0
184 145 -0
185 145 -0
186 145 -0
187 145 -0
188 145 -0
189 145 -0
190 145 -0
191 145 -0
192 145 -0
193 145 -0
194 145 -0
195 145 -0
196 145 -0
197 145 -0
198 145 -0
199 145 -0
200 145 -0
201 145 -0
202 145 -0
203 145 -0
204 145 -0
205 145 -0
206 145 -0
207 145 -0
208 145 -0
209 145 -0
210 145 -0
211 145 -0
212 145 -0
213 145 -0
214 145 -0
215 145 -0
216 145 -0
217 145 -0
218 145 -0
219 145 -0
220 145 -0
221 145 -0
222 145 -0
223 145 -0
224 145 -0
225 145 -0
226 145 -0
227 145 -0
228 145 -0
229 145 -0
230 145 -0
231 145 -0
232 145 -0
233 145 -0
234 145 -0
235 145 -0
236 145 -0
237 145 -0
238 145 -0
239 145 -0
240 145 -0
121 146 -0
122 146 -0.33824549504874424
123 146 -0
124 146 -0
125 146 -0
126 146 -0
127 146 -0
128 146 -0
129 146 -0
130 146 -0
131 146 -0
132 146 -0
133 146 -0
134 146 -0
135 146 -0
136 146 -0
137 146 -0
138 146 -0
139 146 -0
140 146 -0
141 146 -0
142 146 -0
143 146 -0
144 146 -0
145 146 -0
146 146 -0
147 146 -0
148 146 -0
149 146 -0
150 146 -0
151 146 -0
152 146 -0
153 146 -0
154 146 -0
155 146 -0
156 146 -0
157 146 -0
158 146 -0
159 146 -0
160 146 -0
161 146 -0
162 146 -0
163 146 -0
164 146 -0
165 146 -0
166 146 -0
167 146 -0
168 146 -0
169 146 -0
170 146 -0
171 146 -0
172 146 -0
173 146 -0
174 146 -0
175 146 -0
176 146 -0
177 146 -0
178 146 -0
179 146 -0
180 146 -0
181 146 -0
182 146 -0.9779954441855957
183 146 -0
184 146 -0
185 146 -0
186 146 -0
187 146 -0
188 146 -0
189 146 -0
190 146 -0
191 146 -0
192 146 -0
193 146 -0
194 146 -0
195 146 -0
196 146 -0
197 146 -0
198 146 -0
199 146 -0
200 146 -0
201 146 -0
202 146 -0
203 146 -0
204 146 -0
205 146 -0
206 146 -0
207 146 -0
208 146 -0
209 146 -0
210 146 -0
211 146 -0
212 146 -0
213 146 -0
214 146 -0
215 146 -0
216 146 -0
217 146 -0
218 146 -0
219 146 -0
220 146 -0
221 146 -0
222 146 -0
223 146 -0
224 146 -0
225 146 -0
226 146 -0
227 146 -0
228 146 -0
229 146 -0
230 146 -0
231 146 -0
232 146 -0
233 146 -0
234 146 -0
235 146 -0
236 146 -0
237 146 -0
238 146 -0
239 146 -0
240 146 -0
121 147 -0
122 147 -0
123 147 -0.33824549504874424
124 147 -0
125 147 -0
126 147 -0
127 147 -0
128 147 -0
129 147 -0
130 147 -0
131 147 -0
132 147 -0
133 147 -0
134 147 -0
135 147 -0
136 147 -0
137 147 -0
138 147 -0
139 147 -0
140 147 -0
141 147 -0
142 147 -0
143 147 -0
144 147 -0
145 147 -0
146 147 -0
147 147 -0
148 147 -0
149 147 -0
150 147 -0
151 147 -0
152 147 -0
153 147 -0
154 147 -0
155 147 -0
156 147 -0
157 147 -0
158 147 -0
159 147 -0
160 147 -0
161 147 -0
162 147 -0
163 147 -0
164 147 -0
165 147 -0
166 147 -0
167 147 -0
168 147 -0
169 147 -0
170 147 -0
171 147 -0
172 147 -0
173 147 -0
174 147 -0
175 147 -0
176 147 -0
177 147 -0
178 147 -0
179 147 -0
180 147 -0
181 147 -0
182 147 -0
183 147 -0.9779954441855957
184 147 -0
185 147 -0
186 147 -0
187 147 -0
188 147 -0
189 147 -0
190 147 -0
191 147 -0
192 147 -0
193 147 -0
194 147 -0
195 147 -0
196 147 -0
197 147 -0
198 147 -0
199 147 -0
200 147 -0
201 147 -0
202 147 -0
203 147 -0
204 147 -0
205 147 -0
206 147 -0
207 147 -0
208 147 -0
209 147 -0
210 147 -0
211 147 -0
212 147 -0
213 147 -0
214 147 -0
215 147 -0
216 147 -0
217 147 -0
218 147 -0
219 147 -0
220 147 -0
221 147 -0
222 147 -0
223 147 -0
224 147 -0
225 147 -0
226 147 -0
227 147 -0
228 147 -0
229 147 -0
230 147 -0
231 147 -0
232 147 -0
233 147 -0
234 147 -0
235 147 -0
236 147 -0
237 147 -0
238 147 -0
239 147 -0
240 147 -0
121 148 -0
122 148 -0
123 148 -0
124 148 -0.33824549504874424
125 148 -0
126 148 -0
127 148 -0
128 148 -0
129 148 -0
130 148 -0
131 148 -0
132 148 -0
133 148 -0
134 148 -0
135 148 -0
136 148 -0
137 148 -0
138 148 -0
139 148 -0
140 148 -0
141 148 -0
142 148 -0
143 148 -0
144 148 -0
145 148 -0
146 148 -0
147 148 -0
148 148 -0
149 148 -0
150 148 -0
151 148 -0
152 148 -0
153 148 -0
154 148 -0
155 148 -0
156 148 -0
157 148 -0
158 148 -0
159 148 -0
160 148 -0
161 148 -0
162 148 -0
163 148 -0
164 148 -0
165 148 -0
166 148 -0
167 148 -0
168 148 -0
169 148 -0
170 148 -0
171 148 -0
172 148 -0
173 148 -0
174 148 -0
175 148 -0
176 148 -0
177 148 -0
178 148 -0
179 148 -0
180 148 -0
181 148 -0
182 148 -0
183 148 -0
184 148 -0.9779954441855957
185 148 -0
186 148 -0
187 148 -0
188 148 -0
189 148 -0
190 148 -0
191 148 -0
192 148 -0
193 148 -0
194 148 -0
195 148 -0
196 148 -0
197 148 -0
198 148 -0
199 148 -0
200 148 -0
201 148 -0
202 148 -0
203 148 -0
204 148 -0
205 148 -0
206 148 -0
207 148 -0
208 148 -0
209 148 -0
210 148 -0
211 148 -0
212 148 -0
213 148 -0
214 148 -0
215 148 -0
216 148 -0
217 148 -0
218 148 -0
219 148 -0
220 148 -0
221 148 -0
222 148 -0
223 148 -0
224 148 -0
225 148 -0
226 148 -0
227 148 -0
228 148 -0
229 148 -0
230 148 -0
231 148 -0
232 148 -0
233 148 -0
234 148 -0
235 148 -0
236 148 -0
237 148 -0
238 148 -0
239 148 -0
240 148 -0
121 149 -0
122 149 -0
123 149 -0
124 149 -0
125 149 -0.33824549504874424
126 149 -0
127 149 -0
128 149 -0
129 149 -0
130 149 -0
131 149 -0
132 149 -0
133 149 -0
134 149 -0
135 149 -0
136 149 -0
137 149 -0
138 149 -0
139 149 -0
140 149 -0
141 149 -0
142 149 -0
143 149 -0
144 149 -0
145 149 -0
146 149 -0
147 149 -0
148 149 -0
149 149 -0
150 149 -0
151 149 -0
152 149 -0
153 149 -0
154 149 -0
155 149 -0
156 149 -0
157 149 -0
158 149 -0
159 149 -0
160 149 -0
161 149 -0
162 149 -0
163 149 -0
164 149 -0
165 149 -0
166 149 -0
167 149 -0
168 149 -0
169 149 -0
170 149 -0
171 149 -0
172 149 -0
173 149 -0
174 149 -0
175 149 -0
176 149 -0
177 149 -0
178 149 -0
179 149 -0
180 149 -0
181 149 -0
182 149 -0
183 149 -0
184 149 -0
185 149 -0.9779954441855957
186 149 -0
187 149 -0
188 149 -0
189 149 -0
190 149 -0
191 149 -0
192 149 -0
193 149 -0
194 149 -0
195 149 -0
196 149 -0
197 149 -0
198 149 -0
199 149 -0
200 149 -0
201 149 -0
202 149 -0
203 149 -0
204 149 -0
205 149 -0
206 149 -0
207 149 -0
208 149 -0
209 149 -0
210 149 -0
211 149 -0
212 149 -0
213 149 -0
214 149 -0
215 149 -0
216 149 -0
217 149 -0
218 149 -0
219 149 -0
220 149 -0
221 149 -0
222 149 -0
223 149 -0
224 149 -0
225 149 -0
226 149 -0
227 149 -0
228 149 -0
229 149 -0
230 149 -0
231 149 -0
232 149 -0
233 149 -0
234 149 -0
235 149 -0
236 149 -0
237 149 -0
238 149 -0
239 149 -0
240 149 -0
121 150 -0
122 150 -0
123 150 -0
124 150 -0
125 150 -0
126 150 -0.33824549504874424
127 150 -0
128 150 -0
129 150 -0
130 150 -0
131 150 -0
132 150 -0
133 150 -0
134 150 -0
135 150 -0
136 150 -0
137 150 -0
138 150 -0
139 150 -0
140 150 -0
141 150 -0
142 150 -0
143 150 -0
144 150 -0
145 150 -0
146 150 -0
147 150 -0
148 150 -0
149 150 -0
150 150 -0
151 150 -0
152 150 -0
153 150 -0
154 150 -0
155 150 -0
156 150 -0
157 150 -0
158 150 -0
159 150 -0
160 150 -0
161 150 -0
162 150 -0
163 150 -0
164 150 -0
165 150 -0
166 150 -0
167 150 -0
168 150 -0
169 150 -0
170 150 -0
171 150 -0
172 150 -0
173 150 -0
174 150 -0
175 150 -0
176 150 -0
177 150 -0
178 150 -0
179 150 -0
180 150 -0
181 150 -0
182 150 -0
183 150 -0
184 150 -0
185 150 -0
186 150 -0
187 150 -0
188 150 -0
189 150 -0
190 150 -0
191 150 -0
192 150 -0
193 150 -0
194 150 -0
195 150 -0
196 150 -0
197 150 -0
198 150 -0
199 150 -0
200 150 -0
201 150 -0
202 150 -0
203 150 -0
204 150 -0
205 150 -0
206 150 -0
207 150 -0
208 150 -0
209 150 -0
210 150 -0
211 150 -0
212 150 -0
213 150 -0
214 150 -0
215 150 -0
216 150 -0
217 150 -0
218 150 -0
219 150 -0
220 150 -0
221 150 -0
222 150 -0
223 150 -0
224 150 -0
225 150 -0
226 150 -0
227 150 -0
228 150 -0
229 150 -0
230 150 -0
231 150 -0
232 150 -0
233 150 -0
234 150 -0
235 150 -0
236 150 -0
237 150 -0
238 150 -0
239 150 -0
240 150 -0
121 151 -0
122 151 -0
123 151 -0
124 151 -0
125 151 -0
126 151 -0
127 151 -0.33824549504874424
128 151 -0
129 151 -0
130 151 -0
131 151 -0
132 151 -0
133 151 -0
134 151 -0
135 151 -0
136 151 -0
137 151 -0
138 151 -0
139 151 -0
140 151 -0
141 151 -0
142 151 -0
143 151 -0
144 151 -0
145 151 -0
146 151 -0
147 151 -0
148 151 -0
149 151 -0
150 151 -0
151 151 -0
152 151 -0
153 151 -0
154 151 -0
155 151 -0
156 151 -0
157 151 -0
158 151 -0
159 151 -0
160 151 -0
161 151 -0
162 151 -0
163 151 -0
164 151 -0
165 151 -0
166 151 -0
167 151 -0
168 151 -0
169 151 -0
170 151 -0
171 151 -0
172 151 -0
173 151 -0
174 151 -0
175 151 -0
176 151 -0
177 151 -0
178 151 -0
179 151 -0
180 151 -0
181 151 -0
182 151 -0
183 151 -0
184 151 -0
185 151 -0
186 151 -0
187 151 -0
188 151 -0
189 151 -0
190 151 -0
191 151 -0
192 151 -0
193 151 -0
194 151 -0
195 151 -0
196 151 -0
197 151 -0
198 151 -0
199 151 -0
200 151 -0
201 151 -0
202 151 -0
203 151 -0
204 151 -0
205 151 -0
206 151 -0
207 151 -0
208 151 -0
209 151 -0
210 151 -0
211 151 -0
212 151 -0
213 151 -0
214 151 -0
215 151 -0
216 151 -0
217 151 -0
218 151 -0
219 151 -0
220 151 -0
221 151 -0
222 151 -0
223 151 -0
224 151 -0
225 151 -0
226 151 -0
227 151 -0
228 151 -0
229 151 -0
230 151 -0
231 151 -0
232 151 -0
233 151 -0
234 151 -0
235 151 -0
236 151 -0
237 151 -0
238 151 -0
239 151 -0
240 151 -0
121 152 -0
122 152 -0
123 152 -0
124 152 -0
125 152 -0
126 152 -0
127 152 -0
128 152 -0.33824549504874424
129 152 -0
130 152 -0
131 152 -0
132 152 -0
133 152 -0
134 152 -0
135 152 -0
136 152 -0
137 152 -0
138 152 -0
139 152 -0
140 152 -0
141 152 -0
142 152 -0
143 152 -0
144 152 -0
145 152 -0
146 152 -0
147 152 -0
148 152 -0
149 152 -0
150 152 -0
151 152 -0
152 152 -0
153 152 -0
154 152 -0
155 152 -0
156 152 -0
157 152 -0
158 152 -0
159 152 -0
160 152 -0
161 152 -0
162 152 -0
163 152 -0
164 152 -0
165 152 -0
166 152 -0
167 152 -0
168 152 -0
169 152 -0
170 152 -0
171 152 -0
172 152 -0
173 152 -0
174 152 -0
175 152 -0
176 152 -0
177 152 -0
178 152 -0
179 152 -0
180 152 -0
181 152 -0
182 152 -0
183 152 -0
184 152 -0
185 152 -0
186 152 -0
187 152 -0
188 152 -0
189 152 -0
190 152 -0
191 152 -0
192 152 -0
193 152 -0
194 152 -0
195 152 -0
196 152 -0
197 152 -0
198 152 -0
199 152 -0
200 152 -0
201 152 -0
202 152 -0
203 152 -0
204 152 -0
205 152 -0
206 152 -0
207 152 -0
208 152 -0
209 152 -0
210 152 -0
211 152 -0
212 152 -0
213 152 -0
214 152 -0
215 152 -0
216 152 -0
217 152 -0
218 152 -0
219 152 -0
220 152 -0
221 152 -0
222 152 -0
223 152 -0
224 152 -0
225 152 -0
226 152 -0
227 152 -0
228 152 -0
229 152 -0
230 152 -0
231 152 -0
232 152 -0
233 152 -0
234 152 -0
235 152 -0
236 152 -0
237 152 -0
238 152 -0
239 152 -0
240 152 -0
121 153 -0
122 153 -0
123 153 -0
124 153 -0
125 153 -0
126 153 -0
127 153 -0
128 153 -0
129 153 -0.33824549504874424
130 153 -0
131 153 -0
132 153 -0
133 153 -0
134 153 -0
135 153 -0
136 153 -0
137 153 -0
138 153 -0
139 153 -0
140 153 -0
141 153 -0
142 153 -0
143 153 -0
144 153 -0
145 153 -0
146 153 -0
147 153 -0
148 153 -0
149 153 -0
150 153 -0
151 153 -0
152 153 -0
153 153 -0
154 153 -0
155 153 -0
156 153 -0
157 153 -0
158 153 -0
159 153 -0
160 153 -0
161 153 -0
162 153 -0
163 153 -0
164 153 -0
165 153 -0
166 153 -0
167 153 -0
168 153 -0
169 153 -0
170 153 -0
171 153 -0
172 153 -0
173 153 -0
174 153 -0
175 153 -0
176 153 -0
177 153 -0
178 153 -0
179 153 -0
180 153 -0
181 153 -0
182 153 -0
183 153 -0
184 153 -0
185 153 -0
186 153 -0
187 153 -0
188 153 -0
189 153 -0
190 153 -0
191 153 -0
192 153 -0
193 153 -0
194 153 -0
195 153 -0
196 153 -0
197 153 -0
198 153 -0
199 153 -0
200 153 -0
201 153 -0
202 153 -0
203 153 -0
204 153 -0
205 153 -0
206 153 -0
207 153 -0
208 153 -0
209 153 -0
210 153 -0
211 153 -0
212 153 -0
213 153 -0
214 153 -0
215 153 -0
216 153 -0
217 153 -0
218 153 -0
219 153 -0
220 153 -0
221 153 -0
222 153 -0
223 153 -0
224 153 -0
225 153 -0
226 153 -0
227 153 -0
228 153 -0
229 153 -0
230 153 -0
231 153 -0
232 153 -0
233 153 -0
234 153 -0
235 153 -0
236 153 -0
237 153 -0
238 153 -0
239 153 -0
240 153 -0
121 154 -0
122 154 -0
123 154 -0
124 154 -0
125 154 -0
126 154 -0
127 154 -0
128 154 -0
129 154 -0
130 154 -0.33824549504874424
131 154 -0
132 154 -0
133 154 -0
134 154 -0
135 154 -0
136 154 -0
137 154 -0
138 154 -0
139 154 -0
140 154 -0
141 154 -0
142 154 -0
143 154 -0
144 154 -0
145 154 -0
146 154 -0
147 154 -0
148 154 -0
149 154 -0
150 154 -0
151 154 -0
152 154 -0
153 154 -0
154 154 -0
155 154 -0
156 154 -0
157 154 -0
158 154 -0
159 154 -0
160 154 -0
161 154 -0
162 154 -0
163 154 -0
164 154 -0
165 154 -0
166 154 -0
167 154 -0
168 154 -0
169 154 -0
170 154 -0
171 154 -0
172 154 -0
173 154 -0
174 154 -0
175 154 -0
176 154 -0
177 154 -0
178 154 -0
179 154 -0
180 154 -0
181 154 -0
182 154 -0
183 154 -0
184 154 -0
185 154 -0
186 154 -0
187 154 -0
188 154 -0
189 154 -0
190 154 -0
191 154 -0
192 154 -0
193 154 -0
194 154 -0
195 154 -0
196 154 -0
197 154 -0
198 154 -0
199 154 -0
200 154 -0
201 154 -0
202 154 -0
203 154 -0
204 154 -0
205 154 -0
206 154 -0
207 154 -0
208 154 -0
209 154 -0
210 154 -0
211 154 -0
212 154 -0
213 154 -0
214 154 -0
215 154 -0
216 154 -0
217 154 -0
218 154 -0
219 154 -0
220 154 -0
221 154 -0
222 154 -0
223 154 -0
224 154 -0
225 154 -0
226 154 -0
227 154 -0
228 154 -0
229 154 -0
230 154 -0
231 154 -0
232 154 -0
233 154 -0
234 154 -0
235 154 -0
236 154 -0
237 154 -0
238 154 -0
239 154 -0
240 154 -0
121 155 -0
122 155 -0
123 155 -0
124 155 -0
125 155 -0
126 155 -0
127 155 -0
128 155 -0
129 155 -0
130 155 -0
131 155 -0.33824549504874424
132 155 -0
133 155 -0
134 155 -0
135 155 -0
136 155 -0
137 155 -0
138 155 -0
139 155 -0
140 155 -0
141 155 -0
142 155 -0
143 155 -0
144 155 -0
145 155 -0
146 155 -0
147 155 -0
148 155 -0
149 155 -0
150 155 -0
151 155 -0
152 155 -0
153 155 -0
154 155 -0
155 155 -0
156 155 -0
157 155 -0
158 155 -0
159 155 -0
160 155 -0
161 155 -0
162 155 -0
163 155 -0
164 155 -0
165 155 -0
166 155 -0
167 155 -0
168 155 -0
169 155 -0
170 155 -0
171 155 -0
172 155 -0
173 155 -0
174 155 -0
175 155 -0
176 155 -0
177 155 -0
178 155 -0
179 155 -0
180 155 -0
181 155 -0
182 155 -0
183 155 -0
184 155 -0
185 155 -0
186 155 -0
187 155 -0
188 155 -0
189 155 -0
190 155 -0
191 155 -0
192 155 -0
193 155 -0
194 155 -0
195 155 -0
196 155 -0
197 155 -0
198 155 -0
199 155 -0
200 155 -0
201 155 -0
202 155 -0
203 155 -0
204 155 -0
205 155 -0
206 155 -0
207 155 -0
208 155 -0
209 155 -0
210 155 -0
211 155 -0
212 155 -0
213 155 -0
214 155 -0
215 155 -0
216 155 -0
217 155 -0
218 155 -0
219 155 -0
220 155 -0
221 155 -0
222 155 -0
223 155 -0
224 155 -0
225 155 -0
226 155 -0
227 155 -0
228 155 -0
229 155 -0
230 155 -0
231 155 -0
232 155 -0
233 155 -0
234 155 -0
235 155 -0
236 155 -0
237 155 -0
238 155 -0
239 155 -0
240 155 -0
121 156 -0
122 156 -0
123 156 -0
124 156 -0
125 156 -0
126 156 -0
127 156 -0
128 156 -0
129 156 -0
130 156 -0
131 156 -0
132 156 -0.33824549504874424
133 156 -0
134 156 -0
135 156 -0
136 156 -0
137 156 -0
138 156 -0
139 156 -0
140 156 -0
141 156 -0
142 156 -0
143 156 -0
144 156 -0
145 156 -0
146 156 -0
147 156 -0
148 156 -0
149 156 -0
150 156 -0
151 156 -0
152 156 -0
153 156 -0
154 156 -0
155 156 -0
156 156 -0
157 156 -0
158 156 -0
159 156 -0
160 156 -0
161 156 -0
162 156 -0
163 156 -0
164 156 -0
165 156 -0
166 156 -0
167 156 -0
168 156 -0
169 156 -0
170 156 -0
171 156 -0
172 156 -0
173 156 -0
174 156 -0
175 156 -0
176 156 -0
177 156 -0
178 156 -0
179 156 -0
180 156 -0
181 156 -0
182 156 -0
183 156 -0
184 156 -0
185 156 -0
186 156 -0
187 156 -0
188 156 -0
189 156 -0
190 156 -0
191 156 -0
192 156 -0
193 156 -0
194 156 -0
195 156 -0
196 156 -0
197 156 -0
198 156 -0
199 156 -0
200 156 -0
201 156 -0
202 156 -0
203 156 -0
204 156 -0
205 156 -0
206 156 -0
207 156 -0
208 156 -0
209 156 -0
210 156 -0
211 156 -0
212 156 -0
213 156 -0
214 156 -0
215 156 -0
216 156 -0
217 156 -0
218 156 -0
219 156 -0
220 156 -0
221 156 -0
222 156 -0
223 156 -0
224 156 -0
225 156 -0
226 156 -0
227 156 -0
228 156 -0
229 156 -0
230 156 -0
231 156 -0
232 156 -0
233 156 -0
234 156 -0
235 156 -0
236 156 -0
237 156 -0
238 156 -0
239 156 -0
240 156 -0
121 157 -0
122 157 -0
123 157 -0
124 157 -0
125 157 -0
126 157 -0
127 157 -0
128 157 -0
129 157 -0
130 157 -0
131 157 -0
132 157 -0
133 157 -0.33824549504874424
134 157 -0
135 157 -0
136 157 -0
137 157 -0
138 157 -0
139 157 -0
140 157 -0
141 157 -0
142 157 -0
143 157 -0
144 157 -0
145 157 -0
146 157 -0
147 157 -0
148 157 -0
149 157 -0
150 157 -0
151 157 -0
152 157 -0
153 157 -0
154 157 -0
155 157 -0
156 157 -0
157 157 -0
158 157 -0
159 157 -0
160 157 -0
161 157 -0
162 157 -0
163 157 -0
164 157 -0
165 157 -0
166 157 -0
167 157 -0
168 157 -0
169 157 -0
170 157 -0
171 157 -0
172 157 -0
173 157 -0
174 157 -0
175 157 -0
176 157 -0
177 157 -0
178 157 -0
179 157 -0
180 157 -0
181 157 -0
182 157 -0
183 157 -0
184 157 -0
185 157 -0
186 157 -0.9779954441855957
187 157 -0
188 157 -0
189 157 -0
190 157 -0
191 157 -0
192 157 -0
193 157 -0
194 157 -0
195 157 -0
196 157 -0
197 157 -0
198 157 -0
199 157 -0
200 157 -0
201 157 -0
202 157 -0
203 157 -0
204 157 -0
205 157 -0
206 157 -0
207 157 -0
208 157 -0
209 157 -0
210 157 -0
211 157 -0
212 157 -0
213 157 -0
214 157 -0
215 157 -0
216 157 -0
217 157 -0
218 157 -0
219 157 -0
220 157 -0
221 157 -0
222 157 -0
223 157 -0
224 157 -0
225 157 -0
226 157 -0
227 157 -0
228 157 -0
229 157 -0
230 157 -0
231 157 -0
232 157 -0
233 157 -0
234 157 -0
235 157 -0
236 157 -0
237 157 -0
238 157 -0
239 157 -0
240 157 -0
121 158 -0
122 158 -0
123 158 -0
124 158 -0
125 158 -0
126 158 -0
127 158 -0
128 158 -0
129 158 -0
130 158 -0
131 158 -0
132 158 -0
133 158 -0
134 158 -0.33824549504874424
135 158 -0
136 158 -0
137 158 -0
138 158 -0
139 158 -0
140 158 -0
141 158 -0
142 158 -0
143 158 -0
144 158 -0
145 158 -0
146 158 -0
147 158 -0
148 158 -0
149 158 -0
150 158 -0
151 158 -0
152 158 -0
153 158 -0
154 158 -0
155 158 -0
156 158 -0
157 158 -0
158 158 -0
159 158 -0
160 158 -0
161 158 -0
162 158 -0
163 158 -0
164 158 -0
165 158 -0
166 158 -0
167 158 -0
168 158 -0
169 158 -0
170 158 -0
171 158 -0
172 158 -0
173 158 -0
174 158 -0
175 158 -0
176 158 -0
177 158 -0
178 158 -0
179 158 -0
180 158 -0
181 158 -0
182 158 -0
183 158 -0
184 158 -0
185 158 -0
186 158 -0
187 158 -0.9779954441855957
188 158 -0
189 158 -0
190 158 -0
191 158 -0
192 158 -0
193 158 -0
194 158 -0
195 158 -0
196 158 -0
197 158 -0
198 158 -0
199 158 -0
200 158 -0
201 158 -0
202 158 -0
203 158 -0
204 158 -0
205 158 -0
206 158 -0
207 158 -0
208 158 -0
209 158 -0
210 158 -0
211 158 -0
212 158 -0
213 158 -0
214 158 -0
215 158 -0
216 158 -0
217 158 -0
218 158 -0
219 158 -0
220 158 -0
221 158 -0
222 158 -0
223 158 -0
224 158 -0
225 158 -0
226 158 -0
227 158 -0
228 158 -0
229 158 -0
230 158 -0
231 158 -0
232 158 -0
233 158 -0
234 158 -0
235 158 -0
236 158 -0
237 158 -0
238 158 -0
239 158 -0
240 158 -0
121 159 -0
122 159 -0
123 159 -0
124 159 -0
125 159 -0
126 159 -0
127 159 -0
128 159 -0
129 159 -0
130 159 -0
131 159 -0
132 159 -0
133 159 -0
134 159 -0
135 159 -0.33824549504874424
136 159 -0
137 159 -0
138 159 -0
139 159 -0
140 159 -0
141 159 -0
142 159 -0
143 159 -0
144 159 -0
145 159 -0
146 159 -0
147 159 -0
148 159 -0
149 159 -0
150 159 -0
151 159 -0
152 159 -0
153 159 -0
154 159 -0
155 159 -0
156 159 -0
157 159 -0
158 159 -0
159 159 -0
160 159 -0
161 159 -0
162 159 -0
163 159 -0
164 159 -0
165 159 -0
166 159 -0
167 159 -0
168 159 -0
169 159 -0
170 159 -0
171 159 -0
172 159 -0
173 159 -0
174 159 -0
175 159 -0
176 159 -0
177 159 -0
178 159 -0
179 159 -0
180 159 -0
181 159 -0
182 159 -0
183 159 -0
184 159 -0
185 159 -0
186 159 -0
187 159 -0
188 159 -0.9779954441855957
189 159 -0
190 159 -0
191 159 -0
192 159 -0
193 159 -0
194 159 -0
195 159 -0
196 159 -0
197 159 -0
198 159 -0
199 159 -0
200 159 -0
201 159 -0
202 159 -0
203 159 -0
204 159 -0
205 159 -0
206 159 -0
207 159 -0
208 159 -0
209 159 -0
210 159 -0
211 159 -0
212 159 -0
213 159 -0
214 159 -0
215 159 -0
216 159 -0
217 159 -0
218 159 -0
219 159 -0
220 159 -0
221 159 -0
222 159 -0
223 159 -0
224 159 -0
225 159 -0
226 159 -0
227 159 -0
228 159 -0
229 159 -0
230 159 -0
231 159 -0
232 159 -0
233 159 -0
234 159 -0
235 159 -0
236 159 -0
237 159 -0
238 159 -0
239 159 -0
240 159 -0
121 160 -0
122 160 -0
123 160 -0
124 160 -0
125 160 -0
126 160 -0
127 160 -0
128 160 -0
129 160 -0
130 160 -0
131 160 -0
132 160 -0
133 160 -0
134 160 -0
135 160 -0
136 160 -0.33824549504874424
137 160 -0
138 160 -0
139 160 -0
140 160 -0
141 160 -0
142 160 -0
143 160 -0
144 160 -0
145 160 -0
146 160 -0
147 160 -0
148 160 -0
149 160 -0
150 160 -0
151 160 -0
152 160 -0
153 160 -0
154 160 -0
155 160 -0
156 160 -0
157 160 -0
158 160 -0
159 160 -0
160 160 -0
161 160 -0
162 160 -0
163 160 -0
164 160 -0
165 160 -0
166 160 -0
167 160 -0
168 160 -0
169 160 -0
170 160 -0
171 160 -0
172 160 -0
173 160 -0
174 160 -0
175 160 -0
176 160 -0
177 160 -0
178 160 -0
179 160 -0
180 160 -0
181 160 -0
182 160 -0
183 160 -0
184 160 -0
185 160 -0
186 160 -0
187 160 -0
188 160 -0
189 160 -0.9779954441855957
190 160 -0
191 160 -0
192 160 -0
193 160 -0
194 160 -0
195 160 -0
196 160 -0
197 160 -0
198 160 -0
199 160 -0
200 160 -0
201 160 -0
202 160 -0
203 160 -0
204 160 -0
205 160 -0
206 160 -0
207 160 -0
208 160 -0
209 160 -0
210 160 -0
211 160 -0
212 160 -0
213 160 -0
214 160 -0
215 160 -0
216 160 -0
217 160 -0
218 160 -0
219 160 -0
220 160 -0
221 160 -0
222 160 -0
223 160 -0
224 160 -0
225 160 -0
226 160 -0
227 160 -0
228 160 -0
229 160 -0
230 160 -0
231 160 -0
232 160 -0
233 160 -0
234 160 -0
235 160 -0
236 160 -0
237 160 -0
238 160 -0
239 160 -0
240 160 -0
121 161 -0
122 161 -0
123 161 -0
124 161 -0
125 161 -0
126 161 -0
127 161 -0
128 161 -0
129 161 -0
130 161 -0
131 161 -0
132 161 -0
133 161 -0
134 161 -0
135 161 -0
136 161 -0
137 161 -0.33824549504874424
138 161 -0
139 161 -0
140 161 -0
141 161 -0
142 161 -0
143 161 -0
144 161 -0
145 161 -0
146 161 -0
147 161 -0
148 161 -0
149 161 -0
150 161 -0
151 161 -0
152 161 -0
153 161 -0
154 161 -0
155 161 -0
156 161 -0
157 161 -0
158 161 -0
159 161 -0
160 161 -0
161 161 -0
162 161 -0
163 161 -0
164 161 -0
165 161 -0
166 161 -0
167 161 -0
168 161 -0
169 161 -0
170 161 -0
171 161 -0
172 161 -0
173 161 -0
174 161 -0
175 161 -0
176 161 -0
177 161 -0
178 161 -0
179 161 -0
180 161 -0
181 161 -0
182 161 -0
183 161 -0
184 161 -0
185 161 -0
186 161 -0
187 161 -0
188 161 -0
189 161 -0
190 161 -0.9779954441855957
191 161 -0
192 161 -0
193 161 -0
194 161 -0
195 161 -0
196 161 -0
197 161 -0
198 161 -0
199 161 -0
200 161 -0
201 161 -0
202 161 -0
203 161 -0
204 161 -0
205 161 -0
206 161 -0
207 161 -0
208 161 -0
209 161 -0
210 161 -0
211 161 -0
212 161 -0
213 161 -0
214 161 -0
215 161 -0
216 161 -0
217 161 -0
218 161 -0
219 161 -0
220 161 -0
221 161 -0
222 161 -0
223 161 -0
224 161 -0
225 161 -0
226 161 -0
227 161 -0
228 161 -0
229 161 -0
230 161 -0
231 161 -0
232 161 -0
233 161 -0
234 161 -0
235 161 -0
236 161 -0
237 161 -0
238 161 -0
239 161 -0
240 161 -0
121 162 -0
122 162 -0
123 162 -0
124 162 -0
125 162 -0
126 162 -0
127 162 -0
128 162 -0
129 162 -0
130 162 -0
131 162 -0
132 162 -0
133 162 -0
134 162 -0
135 162 -0
136 162 -0
137 162 -0
138 162 -0.33824549504874424
139 162 -0
140 162 -0
141 162 -0
142 162 -0
143 162 -0
144 162 -0
145 162 -0
146 162 -0
147 162 -0
148 162 -0
149 162 -0
150 162 -0
151 162 -0
152 162 -0
153 162 -0
154 162 -0
155 162 -0
156 162 -0
157 162 -0
158 162 -0
159 162 -0
160 162 -0
161 162 -0
162 162 -0
163 162 -0
164 162 -0
165 162 -0
166 162 -0
167 162 -0
168 162 -0
169 162 -0
170 162 -0
171 162 -0
172 162 -0
173 162 -0
174 162 -0
175 162 -0
176 162 -0
177 162 -0
178 162 -0
179 162 -0
180 162 -0
181 162 -0
182 162 -0
183 162 -0
184 162 -0
185 162 -0
186 162 -0
187 162 -0
188 162 -0
189 162 -0
190 162 -0
191 162 -0
192 162 -0
193 162 -0
194 162 -0
195 162 -0
196 162 -0
197 162 -0
198 162 -0
199 162 -0
200 162 -0
201 162 -0
202 162 -0
203 162 -0
204 162 -0
205 162 -0
206 162 -0
207 162 -0
208 162 -0
209 162 -0
210 162 -0
211 162 -0
212 162 -0
213 162 -0
214 162 -0
215 162 -0
216 162 -0
217 162 -0
218 162 -0
219 162 -0
220 162 -0
221 162 -0
222 162 -0
223 162 -0
224 162 -0
225 162 -0
226 162 -0
227 162 -0
228 162 -0
229 162 -0
230 162 -0
231 162 -0
232 162 -0
233 162 -0
234 162 -0
235 162 -0
236 162 -0
237 162 -0
238 162 -0
239 162 -0
240 162 -0
121 163 -0
122 163 -0
123 163 -0
124 163 -0
125 163 -0
126 163 -0
127 163 -0
128 163 -0
129 163 -0
130 163 -0
131 163 -0
132 163 -0
133 163 -0
134 163 -0
135 163 -0
136 163 -0
137 163 -0
138 163 -0
139 163 -0.33824549504874424
140 163 -0
141 163 -0
142 163 -0
143 163 -0
144 163 -0
145 163 -0
146 163 -0
147 163 -0
148 163 -0
149 163 -0
150 163 -0
151 163 -0
152 163 -0
153 163 -0
154 163 -0
155 163 -0
156 163 -0
157 163 -0
158 163 -0
159 163 -0
160 163 -0
161 163 -0
162 163 -0
163 163 -0
164 163 -0
165 163 -0
166 163 -0
167 163 -0
168 163 -0
169 163 -0
170 163 -0
171 163 -0
172 163 -0
173 163 -0
174 163 -0
175 163 -0
176 163 -0
177 163 -0
178 163 -0
179 163 -0
180 163 -0
181 163 -0
182 163 -0
183 163 -0
184 163 -0
185 163 -0
186 163 -0
187 163 -0
188 163 -0
189 163 -0
190 163 -0
191 163 -0
192 163 -0
193 163 -0
194 163 -0
195 163 -0
196 163 -0
197 163 -0
198 163 -0
199 163 -0
200 163 -0
201 163 -0
202 163 -0
203 163 -0
204 163 -0
205 163 -0
206 163 -0
207 163 -0
208 163 -0
209 163 -0
210 163 -0
211 163 -0
212 163 -0
213 163 -0
214 163 -0
215 163 -0
216 163 -0
217 163 -0
218 163 -0
219 163 -0
220 163 -0
221 163 -0
222 163 -0
223 163 -0
224 163 -0
225 163 -0
226 163 -0
227 163 -0
228 163 -0
229 163 -0
230 163 -0
231 163 -0
232 163 -0
233 163 -0
234 163 -0
235 163 -0
236 163 -0
237 163 -0
238 163 -0
239 163 -0
240 163 -0
121 164 -0
122 164 -0
123 164 -0
124 164 -0
125 164 -0
126 164 -0
127 164 -0
128 164 -0
129 164 -0
130 164 -0
131 164 -0
132 164 -0
133 164 -0
134 164 -0
135 164 -0
136 164 -0
137 164 -0
138 164 -0
139 164 -0
140 164 -0.33824549504874424
141 164 -0
142 164 -0
143 164 -0
144 164 -0
145 164 -0
146 164 -0
147 164 -0
148 164 -0
149 164 -0
150 164 -0
151 164 -0
152 164 -0
153 164 -0
154 164 -0
155 164 -0
156 164 -0
157 164 -0
158 164 -0
159 164 -0
160 164 -0
161 164 -0
162 164 -0
163 164 -0
164 164 -0
165 164 -0
166 164 -0
167 164 -0
168 164 -0
169 164 -0
170 164 -0
171 164 -0
172 164 -0
173 164 -0
174 164 -0
175 164 -0
176 164 -0
177 164 -0
178 164 -0
179 164 -0
180 164 -0
181 164 -0
182 164 -0
183 164 -0
184 164 -0
185 164 -0
186 164 -0
187 164 -0
188 164 -0
189 164 -0
190 164 -0
191 164 -0
192 164 -0
193 164 -0
194 164 -0
195 164 -0
196 164 -0
197 164 -0
198 164 -0
199 164 -0
200 164 -0
201 164 -0
202 164 -0
203 164 -0
204 164 -0
205 164 -0
206 164 -0
207 164 -0
208 164 -0
209 164 -0
210 164 -0
211 164 -0
212 164 -0
213 164 -0
214 164 -0
215 164 -0
216 164 -0
217 164 -0
218 164 -0
219 164 -0
220 164 -0
221 164 -0
222 164 -0
223 164 -0
224 164 -0
225 164 -0
226 164 -0
227 164 -0
228 164 -0
229 164 -0
230 164 -0
231 164 -0
232 164 -0
233 164 -0
234 164 -0
235 164 -0
236 164 -0
237 164 -0
238 164 -0
239 164 -0
240 164 -0
121 165 -0
122 165 -0
123 165 -0
124 165 -0
125 165 -0
126 165 -0
127 165 -0
128 165 -0
129 165 -0
130 165 -0
131 165 -0
132 165 -0
133 165 -0
134 165 -0
135 165 -0
136 165 -0
137 165 -0
138 165 -0
139 165 -0
140 165 -0
141 165 -0.33824549504874424
142 165 -0
143 165 -0
144 165 -0
145 165 -0
146 165 -0
147 165 -0
148 165 -0
149 165 -0
150 165 -0
151 165 -0
152 165 -0
153 165 -0
154 165 -0
155 165 -0
156 165 -0
157 165 -0
158 165 -0
159 165 -0
160 165 -0
161 165 -0
162 165 -0
163 165 -0
164 165 -0
165 165 -0
166 165 -0
167 165 -0
168 165 -0
169 165 -0
170 165 -0
171 165 -0
172 165 -0
173 165 -0
174 165 -0
175 165 -0
176 165 -0
177 165 -0
178 165 -0
179 165 -0
180 165 -0
181 165 -0
182 165 -0
183 165 -0
184 165 -0
185 165 -0
186 165 -0
187 165 -0
188 165 -0
189 165 -0
190 165 -0
191 165 -0
192 165 -0
193 165 -0
194 165 -0
195 165 -0
196 165 -0
197 165 -0
198 165 -0
199 165 -0
200 165 -0
201 165 -0
202 165 -0
203 165 -0
204 165 -0
205 165 -0
206 165 -0
207 165 -0
208 165 -0
209 165 -0
210 165 -0
211 165 -0
212 165 -0
213 165 -0
214 165 -0
215 165 -0
216 165 -0
217 165 -0
218 165 -0
219 165 -0
220 165 -0
221 165 -0
222 165 -0
223 165 -0
224 165 -0
225 165 -0
226 165 -0
227 165 -0
228 165 -0
229 165 -0
230 165 -0
231 165 -0
232 165 -0
233 165 -0
234 165 -0
235 165 -0
236 165 -0
237 165 -0
238 165 -0
239 165 -0
240 165 -0
121 166 -0
122 166 -0
123 166 -0
124 166 -0
125 166 -0
126 166 -0
127 166 -0
128 166 -0
129 166 -0
130 166 -0
131 166 -0
132 166 -0
133 166 -0
134 166 -0
135 166 -0
136 166 -0
137 166 -0
138 166 -0
139 166 -0
140 166 -0
141 166 -0
142 166 -0.33824549504874424
143 166 -0
144 166 -0
145 166 -0
146 166 -0
147 166 -0
148 166 -0
149 166 -0
150 166 -0
151 166 -0
152 166 -0
153 166 -0
154 166 -0
155 166 -0
156 166 -0
157 166 -0
158 166 -0
159 166 -0
160 166 -0
161 166 -0
162 166 -0
163 166 -0
164 166 -0
165 166 -0
166 166 -0
167 166 -0
168 166 -0
169 166 -0
170 166 -0
171 166 -0
172 166 -0
173 166 -0
174 166 -0
175 166 -0
176 166 -0
177 166 -0
178 166 -0
179 166 -0
180 166 -0
181 166 -0
182 166 -0
183 166 -0
184 166 -0
185 166 -0
186 166 -0
187 166 -0
188 166 -0
189 166 -0
190 166 -0
191 166 -0
192 166 -0
193 166 -0
194 166 -0
195 166 -0
196 166 -0
197 166 -0
198 166 -0
199 166 -0
200 166 -0
201 166 -0
202 166 -0
203 166 -0
204 166 -0
205 166 -0
206 166 -0
207 166 -0
208 166 -0
209 166 -0
210 166 -0
211 166 -0
212 166 -0
213 166 -0
214 166 -0
215 166 -0
216 166 -0
217 166 -0
218 166 -0
219 166 -0
220 166 -0
221 166 -0
222 166 -0
223 166 -0
224 166 -0
225 166 -0
226 166 -0
227 166 -0
228 166 -0
229 166 -0
230 166 -0
231 166 -0
232 166 -0
233 166 -0
234 166 -0
235 166 -0
236 166 -0
237 166 -0
238 166 -0
239 166 -0
240 166 -0
121 167 -0
122 167 -0
123 167 -0
124 167 -0
125 167 -0
126 167 -0
127 167 -0
128 167 -0
129 167 -0
130 167 -0
131 167 -0
132 167 -0
133 167 -0
134 167 -0
135 167 -0
136 167 -0
137 167 -0
138 167 -0
139 167 -0
140 167 -0
141 167 -0
142 167 -0
143 167 -0.33824549504874424
144 167 -0
145 167 -0
146 167 -0
147 167 -0
148 167 -0
149 167 -0
150 167 -0
151 167 -0
152 167 -0
153 167 -0
154 167 -0
155 167 -0
156 167 -0
157 167 -0
158 167 -0
159 167 -0
160 167 -0
161 167 -0
162 167 -0
163 167 -0
164 167 -0
165 167 -0
166 167 -0
167 167 -0
168 167 -0
169 167 -0
170 167 -0
171 167 -0
172 167 -0
173 167 -0
174 167 -0
175 167 -0
176 167 -0
177 167 -0
178 167 -0
179 167 -0
180 167 -0
181 167 -0
182 167 -0
183 167 -0
184 167 -0
185 167 -0
186 167 -0
187 167 -0
188 167 -0
189 167 -0
190 167 -0
191 167 -0
192 167 -0
193 167 -0
194 167 -0
195 167 -0
196 167 -0
197 167 -0
198 167 -0
199 167 -0
200 167 -0
201 167 -0
202 167 -0
203 167 -0
204 167 -0
205 167 -0
206 167 -0
207 167 -0
208 167 -0
209 167 -0
210 167 -0
211 167 -0
212 167 -0
213 167 -0
214 167 -0
215 167 -0
216 167 -0
217 167 -0
218 167 -0
219 167 -0
220 167 -0
221 167 -0
222 167 -0
223 167 -0
224 167 -0
225 167 -0
226 167 -0
227 167 -0
228 167 -0
229 167 -0
230 167 -0
231 167 -0
232 167 -0
233 167 -0
234 167 -0
235 167 -0
236 167 -0
237 167 -0
238 167 -0
239 167 -0
240 167 -0
121 168 -0
122 168 -0
123 168 -0
124 168 -0
125 168 -0
126 168 -0
127 168 -0
128 168 -0
129 168 -0
130 168 -0
131 168 -0
132 168 -0
133 168 -0
134 168 -0
135 168 -0
136 168 -0
137 168 -0
138 168 -0
139 168 -0
140 168 -0
141 168 -0
142 168 -0
143 168 -0
144 168 -0.33824549504874424
145 168 -0
146 168 -0
147 168 -0
148 168 -0
149 168 -0
150 168 -0
151 168 -0
152 168 -0
153 168 -0
154 168 -0
155 168 -0
156 168 -0
157 168 -0
158 168 -0
159 168 -0
160 168 -0
161 168 -0
162 168 -0
163 168 -0
164 168 -0
165 168 -0
166 168 -0
167 168 -0
168 168 -0
169 168 -0
170 168 -0
171 168 -0
172 168 -0
173 168 -0
174 168 -0
175 168 -0
176 168 -0
177 168 -0
178 168 -0
179 168 -0
180 168 -0
181 168 -0
182 168 -0
183 168 -0
184 168 -0
185 168 -0
186 168 -0
187 168 -0
188 168 -0
189 168 -0
190 168 -0
191 168 -0
192 168 -0
193 168 -0
194 168 -0
195 168 -0
196 168 -0
197 168 -0
198 168 -0
199 168 -0
200 168 -0
201 168 -0
202 168 -0
203 168 -0
204 168 -0
205 168 -0
206 168 -0
207 168 -0
208 168 -0
209 168 -0
210 168 -0
211 168 -0
212 168 -0
213 168 -0
214 168 -0
215 168 -0
216 168 -0
217 168 -0
218 168 -0
219 168 -0
220 168 -0
221 168 -0
222 168 -0
223 168 -0
224 168 -0
225 168 -0
226 168 -0
227 168 -0
228 168 -0
229 168 -0
230 168 -0
231 168 -0
232 168 -0
233 168 -0
234 168 -0
235 168 -0
236 168 -0
237 168 -0
238 168 -0
239 168 -0
240 168 -0
121 169 -0
122 169 -0
123 169 -0
124 169 -0
125 169 -0
126 169 -0
127 169 -0
128 169 -0
129 169 -0
130 169 -0
131 169 -0
132 169 -0
133 169 -0
134 169 -0
135 169 -0
136 169 -0
137 169 -0
138 169 -0
139 169 -0
140 169 -0
141 169 -0
142 169 -0
143 169 -0
144 169 -0
145 169 -0.33824549504874424
146 169 -0
147 169 -0
148 169 -0
149 169 -0
150 169 -0
151 169 -0
152 169 -0
153 169 -0
154 169 -0
155 169 -0
156 169 -0
157 169 -0
158 169 -0
159 169 -0
160 169 -0
161 169 -0
162 169 -0
163 169 -0
164 169 -0
165 169 -0
166 169 -0
167 169 -0
168 169 -0
169 169 -0
170 169 -0
171 169 -0
172 169 -0
173 169 -0
174 169 -0
175 169 -0
176 169 -0
177 169 -0
178 169 -0
179 169 -0
180 169 -0
181 169 -0
182 169 -0
183 169 -0
184 169 -0
185 169 -0
186 169 -0
187 169 -0
188 169 -0
189 169 -0
190 169 -0
191 169 -0.9779954441855957
192 169 -0
193 169 -0
194 169 -0
195 169 -0
196 169 -0
197 169 -0
198 169 -0
199 169 -0
200 169 -0
201 169 -0
202 169 -0
203 169 -0
204 169 -0
205 169 -0
206 169 -0
207 169 -0
208 169 -0
209 169 -0
210 169 -0
211 169 -0
212 169 -0
213 169 -0
214 169 -0
215 169 -0
216 169 -0
217 169 -0
218 169 -0
219 169 -0
220 169 -0
221 169 -0
222 169 -0
223 169 -0
224 169 -0
225 169 -0
226 169 -0
227 169 -0
228 169 -0
229 169 -0
230 169 -0
231 169 -0
232 169 -0
233 169 -0
234 169 -0
235 169 -0
236 169 -0
237 169 -0
238 169 -0
239 169 -0
240 169 -0
121 170 -0
122 170 -0
123 170 -0
124 170 -0
125 170 -0
126 170 -0
127 170 -0
128 170 -0
129 170 -0
130 170 -0
131 170 -0
132 170 -0
133 170 -0
134 170 -0
135 170 -0
136 170 -0
137 170 -0
138 170 -0
139 170 -0
140 170 -0
141 170 -0
142 170 -0
143 170 -0
144 170 -0
145 170 -0
146 170 -0.33824549504874424
147 170 -0
148 170 -0
149 170 -0
150 170 -0
151 170 -0
152 170 -0
153 170 -0
154 170 -0
155 170 -0
156 170 -0
157 170 -0
158 170 -0
159 170 -0
160 170 -0
161 170 -0
162 170 -0
163 170 -0
164 170 -0
165 170 -0
166 170 -0
167 170 -0
168 170 -0
169 170 -0
170 170 -0
171 170 -0
172 170 -0
173 170 -0
174 170 -0
175 170 -0
176 170 -0
177 170 -0
178 170 -0
179 170 -0
180 170 -0
181 170 -0
182 170 -0
183 170 -0
184 170 -0
185 170 -0
186 170 -0
187 170 -0
188 170 -0
189 170 -0
190 170 -0
191 170 -0
192 170 -0.9779954441855957
193 170 -0
194 170 -0
195 170 -0
196 170 -0
197 170 -0
198 170 -0
199 170 -0
200 170 -0
201 170 -0
202 170 -0
203 170 -0
204 170 -0
205 170 -0
206 170 -0
207 170 -0
208 170 -0
209 170 -0
210 170 -0
211 170 -0
212 170 -0
213 170 -0
214 170 -0
215 170 -0
216 170 -0
217 170 -0
218 170 -0
219 170 -0
220 170 -0
221 170 -0
222 170 -0
223 170 -0
224 170 -0
225 170 -0
226 170 -0
227 170 -0
228 170 -0
229 170 -0
230 170 -0
231 170 -0
232 170 -0
233 170 -0
234 170 -0
235 170 -0
236 170 -0
237 170 -0
238 170 -0
239 170 -0
240 170 -0
121 171 -0
122 171 -0
123 171 -0
124 171 -0
125 171 -0
126 171 -0
127 171 -0
128 171 -0
129 171 -0
130 171 -0
131 171 -0
132 171 -0
133 171 -0
134 171 -0
135 171 -0
136 171 -0
137 171 -0
138 171 -0
139 171 -0
140 171 -0
141 171 -0
142 171 -0
143 171 -0
144 171 -0
145 171 -0
146 171 -0
147 171 -0.33824549504874424
148 171 -0
149 171 -0
150 171 -0
151 171 -0
152 171 -0
153 171 -0
154 171 -0
155 171 -0
156 171 -0
157 171 -0
158 171 -0
159 171 -0
160 171 -0
161 171 -0
162 171 -0
163 171 -0
164 171 -0
165 171 -0
166 171 -0
167 171 -0
168 171 -0
169 171 -0
170 171 -0
171 171 -0
172 171 -0
173 171 -0
174 171 -0
175 171 -0
176 171 -0
177 171 -0
178 171 -0
179 171 -0
180 171 -0
181 171 -0
182 171 -0
183 171 -0
184 171 -0
185 171 -0
186 171 -0
187 171 -0
188 171 -0
189 171 -0
190 171 -0
191 171 -0
192 171 -0
193 171 -0.9779954441855957
194 171 -0
195 171 -0
196 171 -0
197 171 -0
198 171 -0
199 171 -0
200 171 -0
201 171 -0
202 171 -0
203 171 -0
204 171 -0
205 171 -0
206 171 -0
207 171 -0
208 171 -0
209 171 -0
210 171 -0
211 171 -0
212 171 -0
213 171 -0
214 171 -0
215 171 -0
216 171 -0
217 171 -0
218 171 -0
219 171 -0
220 171 -0
221 171 -0
222 171 -0
223 171 -0
224 171 -0
225 171 -0
226 171 -0
227 171 -0
228 171 -0
229 171 -0
230 171 -0
231 171 -0
232 171 -0
233 171 -0
234 171 -0
235 171 -0
236 171 -0
237 171 -0
238 171 -0
239 171 -0
240 171 -0
121 172 -0
122 172 -0
123 172 -0
124 172 -0
125 172 -0
126 172 -0
127 172 -0
128 172 -0
129 172 -0
130 172 -0
131 172 -0
132 172 -0
133 172 -0
134 172 -0
135 172 -0
136 172 -0
137 172 -0
138 172 -0
139 172 -0
140 172 -0
141 172 -0
142 172 -0
143 172 -0
144 172 -0
145 172 -0
146 172 -0
147 172 -0
148 172 -0.33824549504874424
149 172 -0
150 172 -0
151 172 -0
152 172 -0
153 172 -0
154 172 -0
155 172 -0
156 172 -0
157 172 -0
158 172 -0
159 172 -0
160 172 -0
161 172 -0
162 172 -0
163 172 -0
164 172 -0
165 172 -0
166 172 -0
167 172 -0
168 172 -0
169 172 -0
170 172 -0
171 172 -0
172 172 -0
173 172 -0
174 172 -0
175 172 -0
176 172 -0
177 172 -0
178 172 -0
179 172 -0
180 172 -0
181 172 -0
182 172 -0
183 172 -0
184 172 -0
185 172 -0
186 172 -0
187 172 -0
188 172 -0
189 172 -0
190 172 -0
191 172 -0
192 172 -0
193 172 -0
194 172 -0.9779954441855957
195 172 -0
196 172 -0
197 172 -0
198 172 -0
199 172 -0
200 172 -0
201 172 -0
202 172 -0
203 172 -0
204 172 -0
205 172 -0
206 172 -0
207 172 -0
208 172 -0
209 172 -0
210 172 -0
211 172 -0
212 172 -0
213 172 -0
214 172 -0
215 172 -0
216 172 -0
217 172 -0
218 172 -0
219 172 -0
220 172 -0
221 172 -0
222 172 -0
223 172 -0
224 172 -0
225 172 -0
226 172 -0
227 172 -0
228 172 -0
229 172 -0
230 172 -0
231 172 -0
232 172 -0
233 172 -0
234 172 -0
235 172 -0
236 172 -0
237 172 -0
238 172 -0
239 172 -0
240 172 -0
121 173 -0
122 173 -0
123 173 -0
124 173 -0
125 173 -0
126 173 -0
127 173 -0
128 173 -0
129 173 -0
130 173 -0
131 173 -0
132 173 -0
133 173 -0
134 173 -0
135 173 -0
136 173 -0
137 173 -0
138 173 -0
139 173 -0
140 173 -0
141 173 -0
142 173 -0
143 173 -0
144 173 -0
145 173 -0
146 173 -0
147 173 -0
148 173 -0
149 173 -0.33824549504874424
150 173 -0
151 173 -0
152 173 -0
153 173 -0
154 173 -0
155 173 -0
156 173 -0
157 173 -0
158 173 -0
159 173 -0
160 173 -0
161 173 -0
162 173 -0
163 173 -0
164 173 -0
165 173 -0
166 173 -0
167 173 -0
168 173 -0
169 173 -0
170 173 -0
171 173 -0
172 173 -0
173 173 -0
174 173 -0
175 173 -0
176 173 -0
177 173 -0
178 173 -0
179 173 -0
180 173 -0
181 173 -0
182 173 -0
183 173 -0
184 173 -0
185 173 -0
186 173 -0
187 173 -0
188 173 -0
189 173 -0
190 173 -0
191 173 -0
192 173 -0
193 173 -0
194 173 -0
195 173 -0.9779954441855957
196 173 -0
197 173 -0
198 173 -0
199 173 -0
200 173 -0
201 173 -0
202 173 -0
203 173 -0
204 173 -0
205 173 -0
206 173 -0
207 173 -0
208 173 -0
209 173 -0
210 173 -0
211 173 -0
212 173 -0
213 173 -0
214 173 -0
215 173 -0
216 173 -0
217 173 -0
218 173 -0
219 173 -0
220 173 -0
221 173 -0
222 173 -0
223 173 -0
224 173 -0
225 173 -0
226 173 -0
227 173 -0
228 173 -0
229 173 -0
230 173 -0
231 173 -0
232 173 -0
233 173 -0
234 173 -0
235 173 -0
236 173 -0
237 173 -0
238 173 -0
239 173 -0
240 173 -0
121 174 -0
122 174 -0
123 174 -0
124 174 -0
125 174 -0
126 174 -0
127 174 -0
128 174 -0
129 174 -0
130 174 -0
131 174 -0
132 174 -0
133 174 -0
134 174 -0
135 174 -0
136 174 -0
137 174 -0
138 174 -0
139 174 -0
140 174 -0
141 174 -0
142 174 -0
143 174 -0
144 174 -0
145 174 -0
146 174 -0
147 174 -0
148 174 -0
149 174 -0
150 174 -0.33824549504874424
151 174 -0
152 174 -0
153 174 -0
154 174 -0
155 174 -0
156 174 -0
157 174 -0
158 174 -0
159 174 -0
160 174 -0
161 174 -0
162 174 -0
163 174 -0
164 174 -0
165 174 -0
166 174 -0
167 174 -0
168 174 -0
169 174 -0
170 174 -0
171 174 -0
172 174 -0
173 174 -0
174 174 -0
175 174 -0
176 174 -0
177 174 -0
178 174 -0
179 174 -0
180 174 -0
181 174 -0
182 174 -0
183 174 -0
184 174 -0
185 174 -0
186 174 -0
187 174 -0
188 174 -0
189 174 -0
190 174 -0
191 174 -0
192 174 -0
193 174 -0
194 174 -0
195 174 -0
196 174 -0
197 174 -0
198 174 -0
199 174 -0
200 174 -0
201 174 -0
202 174 -0
203 174 -0
204 174 -0
205 174 -0
206 174 -0
207 174 -0
208 174 -0
209 174 -0
210 174 -0
211 174 -0
212 174 -0
213 174 -0
214 174 -0
215 174 -0
216 174 -0
217 174 -0
218 174 -0
219 174 -0
220 174 -0
221 174 -0
222 174 -0
223 174 -0
224 174 -0
225 174 -0
226 174 -0
227 174 -0
228 174 -0
229 174 -0
230 174 -0
231 174 -0
232 174 -0
233 174 -0
234 174 -0
235 174 -0
236 174 -0
237 174 -0
238 174 -0
239 174 -0
240 174 -0
121 175 -0
122 175 -0
123 175 -0
124 175 -0
125 175 -0
126 175 -0
127 175 -0
128 175 -0
129 175 -0
130 175 -0
131 175 -0
132 175 -0
133 175 -0
134 175 -0
135 175 -0
136 175 -0
137 175 -0
138 175 -0
139 175 -0
140 175 -0
141 175 -0
142 175 -0
143 175 -0
144 175 -0
145 175 -0
146 175 -0
147 175 -0
148 175 -0
149 175 -0
150 175 -0
151 175 -0.33824549504874424
152 175 -0
153 175 -0
154 175 -0
155 175 -0
156 175 -0
157 175 -0
158 175 -0
159 175 -0
160 175 -0
161 175 -0
162 175 -0
163 175 -0
164 175 -0
165 175 -0
166 175 -0
167 175 -0
168 175 -0
169 175 -0
170 175 -0
171 175 -0
172 175 -0
173 175 -0
174 175 -0
175 175 -0
176 175 -0
177 175 -0
178 175 -0
179 175 -0
180 175 -0
181 175 -0
182 175 -0
183 175 -0
184 175 -0
185 175 -0
186 175 -0
187 175 -0
188 175 -0
189 175 -0
190 175 -0
191 175 -0
192 175 -0
193 175 -0
194 175 -0
195 175 -0
196 175 -0
197 175 -0
198 175 -0
199 175 -0
200 175 -0
201 175 -0
202 175 -0
203 175 -0
204 175 -0
205 175 -0
206 175 -0
207 175 -0
208 175 -0
209 175 -0
210 175 -0
211 175 -0
212 175 -0
213 175 -0
214 175 -0
215 175 -0
216 175 -0
217 175 -0
218 175 -0
219 175 -0
220 175 -0
221 175 -0
222 175 -0
223 175 -0
224 175 -0
225 175 -0
226 175 -0
227 175 -0
228 175 -0
229 175 -0
230 175 -0
231 175 -0
232 175 -0
233 175 -0
234 175 -0
235 175 -0
236 175 -0
237 175 -0
238 175 -0
239 175 -0
240 175 -0
121 176 -0
122 176 -0
123 176 -0
124 176 -0
125 176 -0
126 176 -0
127 176 -0
128 176 -0
129 176 -0
130 176 -0
131 176 -0
132 176 -0
133 176 -0
134 176 -0
135 176 -0
136 176 -0
137 176 -0
138 176 -0
139 176 -0
140 176 -0
141 176 -0
142 176 -0
143 176 -0
144 176 -0
145 176 -0
146 176 -0
147 176 -0
148 176 -0
149 176 -0
150 176 -0
151 176 -0
152 176 -0.33824549504874424
153 176 -0
154 176 -0
155 176 -0
156 176 -0
157 176 -0
158 176 -0
159 176 -0
160 176 -0
161 176 -0
162 176 -0
163 176 -0
164 176 -0
165 176 -0
166 176 -0
167 176 -0
168 176 -0
169 176 -0
170 176 -0
171 176 -0
172 176 -0
173 176 -0
174 176 -0
175 176 -0
176 176 -0
177 176 -0
178 176 -0
179 176 -0
180 176 -0
181 176 -0
182 176 -0
183 176 -0
184 176 -0
185 176 -0
186 176 -0
187 176 -0
188 176 -0
189 176 -0
190 176 -0
191 176 -0
192 176 -0
193 176 -0
194 176 -0
195 176 -0
196 176 -0
197 176 -0
198 176 -0
199 176 -0
200 176 -0
201 176 -0
202 176 -0
203 176 -0
204 176 -0
205 176 -0
206 176 -0
207 176 -0
208 176 -0
209 176 -0
210 176 -0
211 176 -0
212 176 -0
213 176 -0
214 176 -0
215 176 -0
216 176 -0
217 176 -0
218 176 -0
219 176 -0
220 176 -0
221 176 -0
222 176 -0
223 176 -0
224 176 -0
225 176 -0
226 176 -0
227 176 -0
228 176 -0
229 176 -0
230 176 -0
231 176 -0
232 176 -0
233 176 -0
234 176 -0
235 176 -0
236 176 -0
237 176 -0
238 176 -0
239 176 -0
240 176 -0
121 177 -0
122 177 -0
123 177 -0
124 177 -0
125 177 -0
126 177 -0
127 177 -0
128 177 -0
129 177 -0
130 177 -0
131 177 -0
132 177 -0
133 177 -0
134 177 -0
135 177 -0
136 177 -0
137 177 -0
138 177 -0
139 177 -0
140 177 -0
141 177 -0
142 177 -0
143 177 -0
144 177 -0
145 177 -0
146 177 -0
147 177 -0
148 177 -0
149 177 -0
150 177 -0
151 177 -0
152 177 -0
153 177 -0.33824549504874424
154 177 -0
155 177 -0
156 177 -0
157 177 -0
158 177 -0
159 177 -0
160 177 -0
161 177 -0
162 177 -0
163 177 -0
164 177 -0
165 177 -0
166 177 -0
167 177 -0
168 177 -0
169 177 -0
170 177 -0
171 177 -0
172 177 -0
173 177 -0
174 177 -0
175 177 -0
176 177 -0
177 177 -0
178 177 -0
179 177 -0
180 177 -0
181 177 -0
182 177 -0
183 177 -0
184 177 -0
185 177 -0
186 177 -0
187 177 -0
188 177 -0
189 177 -0
190 177 -0
191 177 -0
192 177 -0
193 177 -0
194 177 -0
195 177 -0
196 177 -0
197 177 -0
198 177 -0
199 177 -0
200 177 -0
201 177 -0
202 177 -0
203 177 -0
204 177 -0
205 177 -0
206 177 -0
207 177 -0
208 177 -0
209 177 -0
210 177 -0
211 177 -0
212 177 -0
213 177 -0
214 177 -0
215 177 -0
216 177 -0
217 177 -0
218 177 -0
219 177 -0
220 177 -0
221 177 -0
222 177 -0
223 177 -0
224 177 -0
225 177 -0
226 177 -0
227 177 -0
228 177 -0
229 177 -0
230 177 -0
231 177 -0
232 177 -0
233 177 -0
234 177 -0
235 177 -0
236 177 -0
237 177 -0
238 177 -0
239 177 -0
240 177 -0
121 178 -0
122 178 -0
123 178 -0
124 178 -0
125 178 -0
126 178 -0
127 178 -0
128 178 -0
129 178 -0
130 178 -0
131 178 -0
132 178 -0
133 178 -0
134 178 -0
135 178 -0
136 178 -0
137 178 -0
138 178 -0
139 178 -0
140 178 -0
141 178 -0
142 178 -0
143 178 -0
144 178 -0
145 178 -0
146 178 -0
147 178 -0
148 178 -0
149 178 -0
150 178 -0
151 178 -0
152 178 -0
153 178 -0
154 178 -0.33824549504874424
155 178 -0
156 178 -0
157 178 -0
158 178 -0
159 178 -0
160 178 -0
161 178 -0
162 178 -0
163 178 -0
164 178 -0
165 178 -0
166 178 -0
167 178 -0
168 178 -0
169 178 -0
170 178 -0
171 178 -0
172 178 -0
173 178 -0
174 178 -0
175 178 -0
176 178 -0
177 178 -0
178 178 -0
179 178 -0
180 178 -0
181 178 -0
182 178 -0
183 178 -0
184 178 -0
185 178 -0
186 178 -0
187 178 -0
188 178 -0
189 178 -0
190 178 -0
191 178 -0
192 178 -0
193 178 -0
194 178 -0
195 178 -0
196 178 -0
197 178 -0
198 178 -0
199 178 -0
200 178 -0
201 178 -0
202 178 -0
203 178 -0
204 178 -0
205 178 -0
206 178 -0
207 178 -0
208 178 -0
209 178 -0
210 178 -0
211 178 -0
212 178 -0
213 178 -0
214 178 -0
215 178 -0
216 178 -0
217 178 -0
218 178 -0
219 178 -0
220 178 -0
221 178 -0
222 178 -0
223 178 -0
224 178 -0
225 178 -0
226 178 -0
227 178 -0
228 178 -0
229 178 -0
230 178 -0
231 178 -0
232 178 -0
233 178 -0
234 178 -0
235 178 -0
236 178 -0
237 178 -0
238 178 -0
239 178 -0
240 178 -0
121 179 -0
122 179 -0
123 179 -0
124 179 -0
125 179 -0
126 179 -0
127 179 -0
128 179 -0
129 179 -0
130 179 -0
131 179 -0
132 179 -0
133 179 -0
134 179 -0
135 179 -0
136 179 -0
137 179 -0
138 179 -0
139 179 -0
140 179 -0
141 179 -0
142 179 -0
143 179 -0
144 179 -0
145 179 -0
146 179 -0
147 179 -0
148 179 -0
149 179 -0
150 179 -0
151 179 -0
152 179 -0
153 179 -0
154 179 -0
155 179 -0.33824549504874424
156 179 -0
157 179 -0
158 179 -0
159 179 -0
160 179 -0
161 179 -0
162 179 -0
163 179 -0
164 179 -0
165 179 -0
166 179 -0
167 179 -0
168 179 -0
169 179 -0
170 179 -0
171 179 -0
172 179 -0
173 179 -0
174 179 -0
175 179 -0
176 179 -0
177 179 -0
178 179 -0
179 179 -0
180 179 -0
181 179 -0
182 179 -0
183 179 -0
184 179 -0
185 179 -0
186 179 -0
187 179 -0
188 179 -0
189 179 -0
190 179 -0
191 179 -0
192 179 -0
193 179 -0
194 179 -0
195 179 -0
196 179 -0
197 179 -0
198 179 -0
199 179 -0
200 179 -0
201 179 -0
202 179 -0
203 179 -0
204 179 -0
205 179 -0
206 179 -0
207 179 -0
208 179 -0
209 179 -0
210 179 -0
211 179 -0
212 179 -0
213 179 -0
214 179 -0
215 179 -0
216 179 -0
217 179 -0
218 179 -0
219 179 -0
220 179 -0
221 179 -0
222 179 -0
223 179 -0
224 179 -0
225 179 -0
226 179 -0
227 179 -0
228 179 -0
229 179 -0
230 179 -0
231 179 -0
232 179 -0
233 179 -0
234 179 -0
235 179 -0
236 179 -0
237 179 -0
238 179 -0
239 179 -0
240 179 -0
121 180 -0
122 180 -0
123 180 -0
124 180 -0
125 180 -0
126 180 -0
127 180 -0
128 180 -0
129 180 -0
130 180 -0
131 180 -0
132 180 -0
133 180 -0
134 180 -0
135 180 -0
136 180 -0
137 180 -0
138 180 -0
139 180 -0
140 180 -0
141 180 -0
142 180 -0
143 180 -0
144 180 -0
145 180 -0
146 180 -0
147 180 -0
148 180 -0
149 180 -0
150 180 -0
151 180 -0
152 180 -0
153 180 -0
154 180 -0
155 180 -0
156 180 -0.33824549504874424
157 180 -0
158 180 -0
159 180 -0
160 180 -0
161 180 -0
162 180 -0
163 180 -0
164 180 -0
165 180 -0
166 180 -0
167 180 -0
168 180 -0
169 180 -0
170 180 -0
171 180 -0
172 180 -0
173 180 -0
174 180 -0
175 180 -0
176 180 -0
177 180 -0
178 180 -0
179 180 -0
180 180 -0
181 180 -0
182 180 -0
183 180 -0
184 180 -0
185 180 -0
186 180 -0
187 180 -0
188 180 -0
189 180 -0
190 180 -0
191 180 -0
192 180 -0
193 180 -0
194 180 -0
195 180 -0
196 180 -0
197 180 -0
198 180 -0
199 180 -0
200 180 -0
201 180 -0
202 180 -0
203 180 -0
204 180 -0
205 180 -0
206 180 -0
207 180 -0
208 180 -0
209 180 -0
210 180 -0
211 180 -0
212 180 -0
213 180 -0
214 180 -0
215 180 -0
216 180 -0
217 180 -0
218 180 -0
219 180 -0
220 180 -0
221 180 -0
222 180 -0
223 180 -0
224 180 -0
225 180 -0
226 180 -0
227 180 -0
228 180 -0
229 180 -0
230 180 -0
231 180 -0
232 180 -0
233 180 -0
234 180 -0
235 180 -0
236 180 -0
237 180 -0
238 180 -0
239 180 -0
240 180 -0
121 181 -0
122 181 -0
123 181 -0
124 181 -0
125 181 -0
126 181 -0
127 181 -0
128 181 -0
129 181 -0
130 181 -0
131 181 -0
132 181 -0
133 181 -0
134 181 -0
135 181 -0
136 181 -0
137 181 -0
138 181 -0
139 181 -0
140 181 -0
141 181 -0
142 181 -0
143 181 -0
144 181 -0
145 181 -0
146 181 -0
147 181 -0
148 181 -0
149 181 -0
150 181 -0
151 181 -0
152 181 -0
153 181 -0
154 181 -0
155 181 -0
156 181 -0
157 181 -0.33824549504874424
158 181 -0
159 181 -0
160 181 -0
161 181 -0
162 181 -0
163 181 -0
164 181 -0
165 181 -0
166 181 -0
167 181 -0
168 181 -0
169 181 -0
170 181 -0
171 181 -0
172 181 -0
173 181 -0
174 181 -0
175 181 -0
176 181 -0
177 181 -0
178 181 -0
179 181 -0
180 181 -0
181 181 -0
182 181 -0
183 181 -0
184 181 -0
185 181 -0
186 181 -0
187 181 -0
188 181 -0
189 181 -0
190 181 -0
191 181 -0
192 181 -0
193 181 -0
194 181 -0
195 181 -0
196 181 -0.9779954441855957
197 181 -0
198 181 -0
199 181 -0
200 181 -0
201 181 -0
202 181 -0
203 181 -0
204 181 -0
205 181 -0
206 181 -0
207 181 -0
208 181 -0
209 181 -0
210 181 -0
211 181 -0
212 181 -0
213 181 -0
214 181 -0
215 181 -0
216 181 -0
217 181 -0
218 181 -0
219 181 -0
220 181 -0
221 181 -0
222 181 -0
223 181 -0
224 181 -0
225 181 -0
226 181 -0
227 181 -0
228 181 -0
229 181 -0
230 181 -0
231 181 -0
232 181 -0
233 181 -0
234 181 -0
235 181 -0
236 181 -0
237 181 -0
238 181 -0
239 181 -0
240 181 -0
121 182 -0
122 182 -0
123 182 -0
124 182 -0
125 182 -0
126 182 -0
127 182 -0
128 182 -0
129 182 -0
130 182 -0
131 182 -0
132 182 -0
133 182 -0
134 182 -0
135 182 -0
136 182 -0
137 182 -0
138 182 -0
139 182 -0
140 182 -0
141 182 -0
142 182 -0
143 182 -0
144 182 -0
145 182 -0
146 182 -0
147 182 -0
148 182 -0
149 182 -0
150 182 -0
151 182 -0
152 182 -0
153 182 -0
154 182 -0
155 182 -0
156 182 -0
157 182 -0
158 182 -0.33824549504874424
159 182 -0
160 182 -0
161 182 -0
162 182 -0
163 182 -0
164 182 -0
165 182 -0
166 182 -0
167 182 -0
168 182 -0
169 182 -0
170 182 -0
171 182 -0
172 182 -0
173 182 -0
174 182 -0
175 182 -0
176 182 -0
177 182 -0
178 182 -0
179 182 -0
180 182 -0
181 182 -0
182 182 -0
183 182 -0
184 182 -0
185 182 -0
186 182 -0
187 182 -0
188 182 -0
189 182 -0
190 182 -0
191 182 -0
192 182 -0
193 182 -0
194 182 -0
195 182 -0
196 182 -0
197 182 -0.9779954441855957
198 182 -0
199 182 -0
200 182 -0
201 182 -0
202 182 -0
203 182 -0
204 182 -0
205 182 -0
206 182 -0
207 182 -0
208 182 -0
209 182 -0
210 182 -0
211 182 -0
212 182 -0
213 182 -0
214 182 -0
215 182 -0
216 182 -0
217 182 -0
218 182 -0
219 182 -0
220 182 -0
221 182 -0
222 182 -0
223 182 -0
224 182 -0
225 182 -0
226 182 -0
227 182 -0
228 182 -0
229 182 -0
230 182 -0
231 182 -0
232 182 -0
233 182 -0
234 182 -0
235 182 -0
236 182 -0
237 182 -0
238 182 -0
239 182 -0
240 182 -0
121 183 -0
122 183 -0
123 183 -0
124 183 -0
125 183 -0
126 183 -0
127 183 -0
128 183 -0
129 183 -0
130 183 -0
131 183 -0
132 183 -0
133 183 -0
134 183 -0
135 183 -0
136 183 -0
137 183 -0
138 183 -0
139 183 -0
140 183 -0
141 183 -0
142 183 -0
143 183 -0
144 183 -0
145 183 -0
146 183 -0
147 183 -0
148 183 -0
149 183 -0
150 183 -0
151 183 -0
152 183 -0
153 183 -0
154 183 -0
155 183 -0
156 183 -0
157 183 -0
158 183 -0
159 183 -0.33824549504874424
160 183 -0
161 183 -0
162 183 -0
163 183 -0
164 183 -0
165 183 -0
166 183 -0
167 183 -0
168 183 -0
169 183 -0
170 183 -0
171 183 -0
172 183 -0
173 183 -0
174 183 -0
175 183 -0
176 183 -0
177 183 -0
178 183 -0
179 183 -0
180 183 -0
181 183 -0
182 183 -0
183 183 -0
184 183 -0
185 183 -0
186 183 -0
187 183 -0
188 183 -0
189 183 -0
190 183 -0
191 183 -0
192 183 -0
193 183 -0
194 183 -0
195 183 -0
196 183 -0
197 183 -0
198 183 -0.9779954441855957
199 183 -0
200 183 -0
201 183 -0
202 183 -0
203 183 -0
204 183 -0
205 183 -0
206 183 -0
207 183 -0
208 183 -0
209 183 -0
210 183 -0
211 183 -0
212 183 -0
213 183 -0
214 183 -0
215 183 -0
216 183 -0
217 183 -0
218 183 -0
219 183 -0
220 183 -0
221 183 -0
222 183 -0
223 183 -0
224 183 -0
225 183 -0
226 183 -0
227 183 -0
228 183 -0
229 183 -0
230 183 -0
231 183 -0
232 183 -0
233 183 -0
234 183 -0
235 183 -0
236 183 -0
237 183 -0
238 183 -0
239 183 -0
240 183 -0
121 184 -0
122 184 -0
123 184 -0
124 184 -0
125 184 -0
126 184 -0
127 184 -0
128 184 -0
129 184 -0
130 184 -0
131 184 -0
132 184 -0
133 184 -0
134 184 -0
135 184 -0
136 184 -0
137 184 -0
138 184 -0
139 184 -0
140 184 -0
141 184 -0
142 184 -0
143 184 -0
144 184 -0
145 184 -0
146 184 -0
147 184 -0
148 184 -0
149 184 -0
150 184 -0
151 184 -0
152 184 -0
153 184 -0
154 184 -0
155 184 -0
156 184 -0
157 184 -0
158 184 -0
159 184 -0
160 184 -0.33824549504874424
161 184 -0
162 184 -0
163 184 -0
164 184 -0
165 184 -0
166 184 -0
167 184 -0
168 184 -0
169 184 -0
170 184 -0
171 184 -0
172 184 -0
173 184 -0
174 184 -0
175 184 -0
176 184 -0
177 184 -0
178 184 -0
179 184 -0
180 184 -0
181 184 -0
182 184 -0
183 184 -0
184 184 -0
185 184 -0
186 184 -0
187 184 -0
188 184 -0
189 184 -0
190 184 -0
191 184 -0
192 184 -0
193 184 -0
194 184 -0
195 184 -0
196 184 -0
197 184 -0
198 184 -0
199 184 -0.9779954441855957
200 184 -0
201 184 -0
202 184 -0
203 184 -0
204 184 -0
205 184 -0
206 184 -0
207 184 -0
208 184 -0
209 184 -0
210 184 -0
211 184 -0
212 184 -0
213 184 -0
214 184 -0
215 184 -0
216 184 -0
217 184 -0
218 184 -0
219 184 -0
220 184 -0
221 184 -0
222 184 -0
223 184 -0
224 184 -0
225 184 -0
226 184 -0
227 184 -0
228 184 -0
229 184 -0
230 184 -0
231 184 -0
232 184 -0
233 184 -0
234 184 -0
235 184 -0
236 184 -0
237 184 -0
238 184 -0
239 184 -0
240 184 -0
121 185 -0
122 185 -0
123 185 -0
124 185 -0
125 185 -0
126 185 -0
127 185 -0
128 185 -0
129 185 -0
130 185 -0
131 185 -0
132 185 -0
133 185 -0
134 185 -0
135 185 -0
136 185 -0
137 185 -0
138 185 -0
139 185 -0
140 185 -0
141 185 -0
142 185 -0
143 185 -0
144 185 -0
145 185 -0
146 185 -0
147 185 -0
148 185 -0
149 185 -0
150 185 -0
151 185 -0
152 185 -0
153 185 -0
154 185 -0
155 185 -0
156 185 -0
157 185 -0
158 185 -0
159 185 -0
160 185 -0
161 185 -0.33824549504874424
162 185 -0
163 185 -0
164 185 -0
165 185 -0
166 185 -0
167 185 -0
168 185 -0
169 185 -0
170 185 -0
171 185 -0
172 185 -0
173 185 -0
174 185 -0
175 185 -0
176 185 -0
177 185 -0
178 185 -0
179 185 -0
180 185 -0
181 185 -0
182 185 -0
183 185 -0
184 185 -0
185 185 -0
186 185 -0
187 185 -0
188 185 -0
189 185 -0
190 185 -0
191 185 -0
192 185 -0
193 185 -0
194 185 -0
195 185 -0
196 185 -0
197 185 -0
198 185 -0
199 185 -0
200 185 -0.9779954441855957
201 185 -0
202 185 -0
203 185 -0
204 185 -0
205 185 -0
206 185 -0
207 185 -0
208 185 -0
209 185 -0
210 185 -0
211 185 -0
212 185 -0
213 185 -0
214 185 -0
215 185 -0
216 185 -0
217 185 -0
218 185 -0
219 185 -0
220 185 -0
221 185 -0
222 185 -0
223 185 -0
224 185 -0
225 185 -0
226 185 -0
227 185 -0
228 185 -0
229 185 -0
230 185 -0
231 185 -0
232 185 -0
233 185 -0
234 185 -0
235 185 -0
236 185 -0
237 185 -0
238 185 -0
239 185 -0
240 185 -0
121 186 -0
122 186 -0
123 186 -0
124 186 -0
125 186 -0
126 186 -0
127 186 -0
128 186 -0
129 186 -0
130 186 -0
131 186 -0
132 186 -0
133 186 -0
134 186 -0
135 186 -0
136 186 -0
137 186 -0
138 186 -0
139 186 -0
140 186 -0
141 186 -0
142 186 -0
143 186 -0
144 186 -0
145 186 -0
146 186 -0
147 186 -0
148 186 -0
149 186 -0
150 186 -0
151 186 -0
152 186 -0
153 186 -0
154 186 -0
155 186 -0
156 186 -0
157 186 -0
158 186 -0
159 186 -0
160 186 -0
161 186 -0
162 186 -0.33824549504874424
163 186 -0
164 186 -0
165 186 -0
166 186 -0
167 186 -0
168 186 -0
169 186 -0
170 186 -0
171 186 -0
172 186 -0
173 186 -0
174 186 -0
175 186 -0
176 186 -0
177 186 -0
178 186 -0
179 186 -0
180 186 -0
181 186 -0
182 186 -0
183 186 -0
184 186 -0
185 186 -0
186 186 -0
187 186 -0
188 186 -0
189 186 -0
190 186 -0
191 186 -0
192 186 -0
193 186 -0
194 186 -0
195 186 -0
196 186 -0
197 186 -0
198 186 -0
199 186 -0
200 186 -0
201 186 -0
202 186 -0
203 186 -0
204 186 -0
205 186 -0
206 186 -0
207 186 -0
208 186 -0
209 186 -0
210 186 -0
211 186 -0
212 186 -0
213 186 -0
214 186 -0
215 186 -0
216 186 -0
217 186 -0
218 186 -0
219 186 -0
220 186 -0
221 186 -0
222 186 -0
223 186 -0
224 186 -0
225 186 -0
226 186 -0
227 186 -0
228 186 -0
229 186 -0
230 186 -0
231 186 -0
232 186 -0
233 186 -0
234 186 -0
235 186 -0
236 186 -0
237 186 -0
238 186 -0
239 186 -0
240 186 -0
121 187 -0
122 187 -0
123 187 -0
124 187 -0
125 187 -0
126 187 -0
127 187 -0
128 187 -0
129 187 -0
130 187 -0
131 187 -0
132 187 -0
133 187 -0
134 187 -0
135 187 -0
136 187 -0
137 187 -0
138 187 -0
139 187 -0
140 187 -0
141 187 -0
142 187 -0
143 187 -0
144 187 -0
145 187 -0
146 187 -0
147 187 -0
148 187 -0
149 187 -0
150 187 -0
151 187 -0
152 187 -0
153 187 -0
154 187 -0
155 187 -0
156 187 -0
157 187 -0
158 187 -0
159 187 -0
160 187 -0
161 187 -0
162 187 -0
163 187 -0.33824549504874424
164 187 -0
165 187 -0
166 187 -0
167 187 -0
168 187 -0
169 187 -0
170 187 -0
171 187 -0
172 187 -0
173 187 -0
174 187 -0
175 187 -0
176 187 -0
177 187 -0
178 187 -0
179 187 -0
180 187 -0
181 187 -0
182 187 -0
183 187 -0
184 187 -0
185 187 -0
186 187 -0
187 187 -0
188 187 -0
189 187 -0
190 187 -0
191 187 -0
192 187 -0
193 187 -0
194 187 -0
195 187 -0
196 187 -0
197 187 -0
198 187 -0
199 187 -0
200 187 -0
201 187 -0
202 187 -0
203 187 -0
204 187 -0
205 187 -0
206 187 -0
207 187 -0
208 187 -0
209 187 -0
210 187 -0
211 187 -0
212 187 -0
213 187 -0
214 187 -0
215 187 -0
216 187 -0
217 187 -0
218 187 -0
219 187 -0
220 187 -0
221 187 -0
222 187 -0
223 187 -0
224 187 -0
225 187 -0
226 187 -0
227 187 -0
228 187 -0
229 187 -0
230 187 -0
231 187 -0
232 187 -0
233 187 -0
234 187 -0
235 187 -0
236 187 -0
237 187 -0
238 187 -0
239 187 -0
240 187 -0
121 188 -0
122 188 -0
123 188 -0
124 188 -0
125 188 -0
126 188 -0
127 188 -0
128 188 -0
129 188 -0
130 188 -0
131 188 -0
132 188 -0
133 188 -0
134 188 -0
135 188 -0
136 188 -0
137 188 -0
138 188 -0
139 188 -0
140 188 -0
141 188 -0
142 188 -0
143 188 -0
144 188 -0
145 188 -0
146 188 -0
147 188 -0
148 188 -0
149 188 -0
150 188 -0
151 188 -0
152 188 -0
153 188 -0
154 188 -0
155 188 -0
156 188 -0
157 188 -0
158 188 -0
159 188 -0
160 188 -0
161 188 -0
162 188 -0
163 188 -0
164 188 -0.33824549504874424
165 188 -0
166 188 -0
167 188 -0
168 188 -0
169 188 -0
170 188 -0
171 188 -0
172 188 -0
173 188 -0
174 188 -0
175 188 -0
176 188 -0
177 188 -0
178 188 -0
179 188 -0
180 188 -0
181 188 -0
182 188 -0
183 188 -0
184 188 -0
185 188 -0
186 188 -0
187 188 -0
188 188 -0
189 188 -0
190 188 -0
191 188 -0
192 188 -0
193 188 -0
194 188 -0
195 188 -0
196 188 -0
197 188 -0
198 188 -0
199 188 -0
200 188 -0
201 188 -0
202 188 -0
203 188 -0
204 188 -0
205 188 -0
206 188 -0
207 188 -0
208 188 -0
209 188 -0
210 188 -0
211 188 -0
212 188 -0
213 188 -0
214 188 -0
215 188 -0
216 188 -0
217 188 -0
218 188 -0
219 188 -0
220 188 -0
221 188 -0
222 188 -0
223 188 -0
224 188 -0
225 188 -0
226 188 -0
227 188 -0
228 188 -0
229 188 -0
230 188 -0
231 188 -0
232 188 -0
233 188 -0
234 188 -0
235 188 -0
236 188 -0
237 188 -0
238 188 -0
239 188 -0
240 188 -0
121 189 -0
122 189 -0
123 189 -0
124 189 -0
125 189 -0
126 189 -0
127 189 -0
128 189 -0
129 189 -0
130 189 -0
131 189 -0
132 189 -0
133 189 -0
134 189 -0
135 189 -0
136 189 -0
137 189 -0
138 189 -0
139 189 -0
140 189 -0
141 189 -0
142 189 -0
143 189 -0
144 189 -0
145 189 -0
146 189 -0
147 189 -0
148 189 -0
149 189 -0
150 189 -0
151 189 -0
152 189 -0
153 189 -0
154 189 -0
155 189 -0
156 189 -0
157 189 -0
158 189 -0
159 189 -0
160 189 -0
161 189 -0
162 189 -0
163 189 -0
164 189 -0
165 189 -0.33824549504874424
166 189 -0
167 189 -0
168 189 -0
169 189 -0
170 189 -0
171 189 -0
172 189 -0
173 189 -0
174 189 -0
175 189 -0
176 189 -0
177 189 -0
178 189 -0
179 189 -0
180 189 -0
181 189 -0
182 189 -0
183 189 -0
184 189 -0
185 189 -0
186 189 -0
187 189 -0
188 189 -0
189 189 -0
190 189 -0
191 189 -0
192 189 -0
193 189 -0
194 189 -0
195 189 -0
196 189 -0
197 189 -0
198 189 -0
199 189 -0
200 189 -0
201 189 -0
202 189 -0
203 189 -0
204 189 -0
205 189 -0
206 189 -0
207 189 -0
208 189 -0
209 189 -0
210 189 -0
211 189 -0
212 189 -0
213 189 -0
214 189 -0
215 189 -0
216 189 -0
217 189 -0
218 189 -0
219 189 -0
220 189 -0
221 189 -0
222 189 -0
223 189 -0
224 189 -0
225 189 -0
226 189 -0
227 189 -0
228 189 -0
229 189 -0
230 189 -0
231 189 -0
232 189 -0
233 189 -0
234 189 -0
235 189 -0
236 189 -0
237 189 -0
238 189 -0
239 189 -0
240 189 -0
121 190 -0
122 190 -0
123 190 -0
124 190 -0
125 190 -0
126 190 -0
127 190 -0
128 190 -0
129 190 -0
130 190 -0
131 190 -0
132 190 -0
133 190 -0
134 190 -0
135 190 -0
136 190 -0
137 190 -0
138 190 -0
139 190 -0
140 190 -0
141 190 -0
142 190 -0
143 190 -0
144 190 -0
145 190 -0
146 190 -0
147 190 -0
148 190 -0
149 190 -0
150 190 -0
151 190 -0
152 190 -0
153 190 -0
154 190 -0
155 190 -0
156 190 -0
157 190 -0
158 190 -0
159 190 -0
160 190 -0
161 190 -0
162 190 -0
163 190 -0
164 190 -0
165 190 -0
166 190 -0.33824549504874424
167 190 -0
168 190 -0
169 190 -0
170 190 -0
171 190 -0
172 190 -0
173 190 -0
174 190 -0
175 190 -0
176 190 -0
177 190 -0
178 190 -0
179 190 -0
180 190 -0
181 190 -0
182 190 -0
183 190 -0
184 190 -0
185 190 -0
186 190 -0
187 190 -0
188 190 -0
189 190 -0
190 190 -0
191 190 -0
192 190 -0
193 190 -0
194 190 -0
195 190 -0
196 190 -0
197 190 -0
198 190 -0
199 190 -0
200 190 -0
201 190 -0
202 190 -0
203 190 -0
204 190 -0
205 190 -0
206 190 -0
207 190 -0
208 190 -0
209 190 -0
210 190 -0
211 190 -0
212 190 -0
213 190 -0
214 190 -0
215 190 -0
216 190 -0
217 190 -0
218 190 -0
219 190 -0
220 190 -0
221 190 -0
222 190 -0
223 190 -0
224 190 -0
225 190 -0
226 190 -0
227 190 -0
228 190 -0
229 190 -0
230 190 -0
231 190 -0
232 190 -0
233 190 -0
234 190 -0
235 190 -0
236 190 -0
237 190 -0
238 190 -0
239 190 -0
240 190 -0
121 191 -0
122 191 -0
123 191 -0
124 191 -0
125 191 -0
126 191 -0
127 191 -0
128 191 -0
129 191 -0
130 191 -0
131 191 -0
132 191 -0
133 191 -0
134 191 -0
135 191 -0
136 191 -0
137 191 -0
138 191 -0
139 191 -0
140 191 -0
141 191 -0
142 191 -0
143 191 -0
144 191 -0
145 191 -0
146 191 -0
147 191 -0
148 191 -0
149 191 -0
150 191 -0
151 191 -0
152 191 -0
153 191 -0
154 191 -0
155 191 -0
156 191 -0
157 191 -0
158 191 -0
159 191 -0
160 191 -0
161 191 -0
162 191 -0
163 191 -0
164 191 -0
165 191 -0
166 191 -0
167 191 -0.33824549504874424
168 191 -0
169 191 -0
170 191 -0
171 191 -0
172 191 -0
173 191 -0
174 191 -0
175 191 -0
176 191 -0
177 191 -0
178 191 -0
179 191 -0
180 191 -0
181 191 -0
182 191 -0
183 191 -0
184 191 -0
185 191 -0
186 191 -0
187 191 -0
188 191 -0
189 191 -0
190 191 -0
191 191 -0
192 191 -0
193 191 -0
194 191 -0
195 191 -0
196 191 -0
197 191 -0
198 191 -0
199 191 -0
200 191 -0
201 191 -0
202 191 -0
203 191 -0
204 191 -0
205 191 -0
206 191 -0
207 191 -0
208 191 -0
209 191 -0
210 191 -0
211 191 -0
212 191 -0
213 191 -0
214 191 -0
215 191 -0
216 191 -0
217 191 -0
218 191 -0
219 191 -0
220 191 -0
221 191 -0
222 191 -0
223 191 -0
224 191 -0
225 191 -0
226 191 -0
227 191 -0
228 191 -0
229 191 -0
230 191 -0
231 191 -0
232 191 -0
233 191 -0
234 191 -0
235 191 -0
236 191 -0
237 191 -0
238 191 -0
239 191 -0
240 191 -0
121 192 -0
122 192 -0
123 192 -0
124 192 -0
125 192 -0
126 192 -0
127 192 -0
128 192 -0
129 192 -0
130 192 -0
131 192 -0
132 192 -0
133 192 -0
134 192 -0
135 192 -0
136 192 -0
137 192 -0
138 192 -0
139 192 -0
140 192 -0
141 192 -0
142 192 -0
143 192 -0
144 192 -0
145 192 -0
146 192 -0
147 192 -0
148 192 -0
149 192 -0
150 192 -0
151 192 -0
152 192 -0
153 192 -0
154 192 -0
155 192 -0
156 192 -0
157 192 -0
158 192 -0
159 192 -0
160 192 -0
161 192 -0
162 192 -0
163 192 -0
164 192 -0
165 192 -0
166 192 -0
167 192 -0
168 192 -0.33824549504874424
169 192 -0
170 192 -0
171 192 -0
172 192 -0
173 192 -0
174 192 -0
175 192 -0
176 192 -0
177 192 -0
178 192 -0
179 192 -0
180 192 -0
181 192 -0
182 192 -0
183 192 -0
184 192 -0
185 192 -0
186 192 -0
187 192 -0
188 192 -0
189 192 -0
190 192 -0
191 192 -0
192 192 -0
193 192 -0
194 192 -0
195 192 -0
196 192 -0
197 192 -0
198 192 -0
199 192 -0
200 192 -0
201 192 -0
202 192 -0
203 192 -0
204 192 -0
205 192 -0
206 192 -0
207 192 -0
208 192 -0
209 192 -0
210 192 -0
211 192 -0
212 192 -0
213 192 -0
214 192 -0
215 192 -0
216 192 -0
217 192 -0
218 192 -0
219 192 -0
220 192 -0
221 192 -0
222 192 -0
223 192 -0
224 192 -0
225 192 -0
226 192 -0
227 192 -0
228 192 -0
229 192 -0
230 192 -0
231 192 -0
232 192 -0
233 192 -0
234 192 -0
235 192 -0
236 192 -0
237 192 -0
238 192 -0
239 192 -0
240 192 -0
121 193 -0
122 193 -0
123 193 -0
124 193 -0
125 193 -0
126 193 -0
127 193 -0
128 193 -0
129 193 -0
130 193 -0
131 193 -0
132 193 -0
133 193 -0
134 193 -0
135 193 -0
136 193 -0
137 193 -0
138 193 -0
139 193 -0
140 193 -0
141 193 -0
142 193 -0
143 193 -0
144 193 -0
145 193 -0
146 193 -0
147 193 -0
148 193 -0
149 193 -0
150 193 -0
151 193 -0
152 193 -0
153 193 -0
154 193 -0
155 193 -0
156 193 -0
157 193 -0
158 193 -0
159 193 -0
160 193 -0
161 193 -0
162 193 -0
163 193 -0
164 193 -0
165 193 -0
166 193 -0
167 193 -0
168 193 -0
169 193 -0.33824549504874424
170 193 -0
171 193 -0
172 193 -0
173 193 -0
174 193 -0
175 193 -0
176 193 -0
177 193 -0
178 193 -0
179 193 -0
180 193 -0
181 193 -0
182 193 -0
183 193 -0
184 193 -0
185 193 -0
186 193 -0
187 193 -0
188 193 -0
189 193 -0
190 193 -0
191 193 -0
192 193 -0
193 193 -0
194 193 -0
195 193 -0
196 193 -0
197 193 -0
198 193 -0
199 193 -0
200 193 -0
201 193 -0.9779954441855957
202 193 -0
203 193 -0
204 193 -0
205 193 -0
206 193 -0
207 193 -0
208 193 -0
209 193 -0
210 193 -0
211 193 -0
212 193 -0
213 193 -0
214 193 -0
215 193 -0
216 193 -0
217 193 -0
218 193 -0
219 193 -0
220 193 -0
221 193 -0
222 193 -0
223 193 -0
224 193 -0
225 193 -0
226 193 -0
227 193 -0
228 193 -0
229 193 -0
230 193 -0
231 193 -0
232 193 -0
233 193 -0
234 193 -0
235 193 -0
236 193 -0
237 193 -0
238 193 -0
239 193 -0
240 193 -0
121 194 -0
122 194 -0
123 194 -0
124 194 -0
125 194 -0
126 194 -0
127 194 -0
128 194 -0
129 194 -0
130 194 -0
131 194 -0
132 194 -0
133 194 -0
134 194 -0
135 194 -0
136 194 -0
137 194 -0
138 194 -0
139 194 -0
140 194 -0
141 194 -0
142 194 -0
143 194 -0
144 194 -0
145 194 -0
146 194 -0
147 194 -0
148 194 -0
149 194 -0
150 194 -0
151 194 -0
152 194 -0
153 194 -0
154 194 -0
155 194 -0
156 194 -0
157 194 -0
158 194 -0
159 194 -0
160 194 -0
161 194 -0
162 194 -0
163 194 -0
164 194 -0
165 194 -0
166 194 -0
167 194 -0
168 194 -0
169 194 -0
170 194 -0.33824549504874424
171 194 -0
172 194 -0
173 194 -0
174 194 -0
175 194 -0
176 194 -0
177 194 -0
178 194 -0
179 194 -0
180 194 -0
181 194 -0
182 194 -0
183 194 -0
184 194 -0
185 194 -0
186 194 -0
187 194 -0
188 194 -0
189 194 -0
190 194 -0
191 194 -0
192 194 -0
193 194 -0
194 194 -0
195 194 -0
196 194 -0
197 194 -0
198 194 -0
199 194 -0
200 194 -0
201 194 -0
202 194 -0.9779954441855957
203 194 -0
204 194 -0
205 194 -0
206 194 -0
207 194 -0
208 194 -0
209 194 -0
210 194 -0
211 194 -0
212 194 -0
213 194 -0
214 194 -0
215 194 -0
216 194 -0
217 194 -0
218 194 -0
219 194 -0
220 194 -0
221 194 -0
222 194 -0
223 194 -0
224 194 -0
225 194 -0
226 194 -0
227 194 -0
228 194 -0
229 194 -0
230 194 -0
231 194 -0
232 194 -0
233 194 -0
234 194 -0
235 194 -0
236 194 -0
237 194 -0
238 194 -0
239 194 -0
240 194 -0
121 195 -0
122 195 -0
123 195 -0
124 195 -0
125 195 -0
126 195 -0
127 195 -0
128 195 -0
129 195 -0
130 195 -0
131 195 -0
132 195 -0
133 195 -0
134 195 -0
135 195 -0
136 195 -0
137 195 -0
138 195 -0
139 195 -0
140 195 -0
141 195 -0
142 195 -0
143 195 -0
144 195 -0
145 195 -0
146 195 -0
147 195 -0
148 195 -0
149 195 -0
150 195 -0
151 195 -0
152 195 -0
153 195 -0
154 195 -0
155 195 -0
156 195 -0
157 195 -0
158 195 -0
159 195 -0
160 195 -0
161 195 -0
162 195 -0
163 195 -0
164 195 -0
165 195 -0
166 195 -0
167 195 -0
168 195 -0
169 195 -0
170 195 -0
171 195 -0.33824549504874424
172 195 -0
173 195 -0
174 195 -0
175 195 -0
176 195 -0
177 195 -0
178 195 -0
179 195 -0
180 195 -0
181 195 -0
182 195 -0
183 195 -0
184 195 -0
185 195 -0
186 195 -0
187 195 -0
188 195 -0
189 195 -0
190 195 -0
191 195 -0
192 195 -0
193 195 -0
194 195 -0
195 195 -0
196 195 -0
197 195 -0
198 195 -0
199 195 -0
200 195 -0
201 195 -0
202 195 -0
203 195 -0.9779954441855957
204 195 -0
205 195 -0
206 195 -0
207 195 -0
208 195 -0
209 195 -0
210 195 -0
211 195 -0
212 195 -0
213 195 -0
214 195 -0
215 195 -0
216 195 -0
217 195 -0
218 195 -0
219 195 -0
220 195 -0
221 195 -0
222 195 -0
223 195 -0
224 195 -0
225 195 -0
226 195 -0
227 195 -0
228 195 -0
229 195 -0
230 195 -0
231 195 -0
232 195 -0
233 195 -0
234 195 -0
235 195 -0
236 195 -0
237 195 -0
238 195 -0
239 195 -0
240 195 -0
121 196 -0
122 196 -0
123 196 -0
124 196 -0
125 196 -0
126 196 -0
127 196 -0
128 196 -0
129 196 -0
130 196 -0
131 196 -0
132 196 -0
133 196 -0
134 196 -0
135 196 -0
136 196 -0
137 196 -0
138 196 -0
139 196 -0
140 196 -0
141 196 -0
142 196 -0
143 196 -0
144 196 -0
145 196 -0
146 196 -0
147 196 -0
148 196 -0
149 196 -0
150 196 -0
151 196 -0
152 196 -0
153 196 -0
154 196 -0
155 196 -0
156 196 -0
157 196 -0
158 196 -0
159 196 -0
160 196 -0
161 196 -0
162 196 -0
163 196 -0
164 196 -0
165 196 -0
166 196 -0
167 196 -0
168 196 -0
169 196 -0
170 196 -0
171 196 -0
172 196 -0.33824549504874424
173 196 -0
174 196 -0
175 196 -0
176 196 -0
177 196 -0
178 196 -0
179 196 -0
180 196 -0
181 196 -0
182 196 -0
183 196 -0
184 196 -0
185 196 -0
186 196 -0
187 196 -0
188 196 -0
189 196 -0
190 196 -0
191 196 -0
192 196 -0
193 196 -0
194 196 -0
195 196 -0
196 196 -0
197 196 -0
198 196 -0
199 196 -0
200 196 -0
201 196 -0
202 196 -0
203 196 -0
204 196 -0.9779954441855957
205 196 -0
206 196 -0
207 196 -0
208 196 -0
209 196 -0
210 196 -0
211 196 -0
212 196 -0
213 196 -0
214 196 -0
215 196 -0
216 196 -0
217 196 -0
218 196 -0
219 196 -0
220 196 -0
221 196 -0
222 196 -0
223 196 -0
224 196 -0
225 196 -0
226 196 -0
227 196 -0
228 196 -0
229 196 -0
230 196 -0
231 196 -0
232 196 -0
233 196 -0
234 196 -0
235 196 -0
236 196 -0
237 196 -0
238 196 -0
239 196 -0
240 196 -0
121 197 -0
122 197 -0
123 197 -0
124 197 -0
125 197 -0
126 197 -0
127 197 -0
128 197 -0
129 197 -0
130 197 -0
131 197 -0
132 197 -0
133 197 -0
134 197 -0
135 197 -0
136 197 -0
137 197 -0
138 197 -0
139 197 -0
140 197 -0
141 197 -0
142 197 -0
143 197 -0
144 197 -0
145 197 -0
146 197 -0
147 197 -0
148 197 -0
149 197 -0
150 197 -0
151 197 -0
152 197 -0
153 197 -0
154 197 -0
155 197 -0
156 197 -0
157 197 -0
158 197 -0
159 197 -0
160 197 -0
161 197 -0
162 197 -0
163 197 -0
164 197 -0
165 197 -0
166 197 -0
167 197 -0
168 197 -0
169 197 -0
170 197 -0
171 197 -0
172 197 -0
173 197 -0.33824549504874424
174 197 -0
175 197 -0
176 197 -0
177 197 -0
178 197 -0
179 197 -0
180 197 -0
181 197 -0
182 197 -0
183 197 -0
184 197 -0
185 197 -0
186 197 -0
187 197 -0
188 197 -0
189 197 -0
190 197 -0
191 197 -0
192 197 -0
193 197 -0
194 197 -0
195 197 -0
196 197 -0
197 197 -0
198 197 -0
199 197 -0
200 197 -0
201 197 -0
202 197 -0
203 197 -0
204 197 -0
205 197 -0.9779954441855957
206 197 -0
207 197 -0
208 197 -0
209 197 -0
210 197 -0
211 197 -0
212 197 -0
213 197 -0
214 197 -0
215 197 -0
216 197 -0
217 197 -0
218 197 -0
219 197 -0
220 197 -0
221 197 -0
222 197 -0
223 197 -0
224 197 -0
225 197 -0
226 197 -0
227 197 -0
228 197 -0
229 197 -0
230 197 -0
231 197 -0
232 197 -0
233 197 -0
234 197 -0
235 197 -0
236 197 -0
237 197 -0
238 197 -0
239 197 -0
240 197 -0
121 198 -0
122 198 -0
123 198 -0
124 198 -0
125 198 -0
126 198 -0
127 198 -0
128 198 -0
129 198 -0
130 198 -0
131 198 -0
132 198 -0
133 198 -0
134 198 -0
135 198 -0
136 198 -0
137 198 -0
138 198 -0
139 198 -0
140 198 -0
141 198 -0
142 198 -0
143 198 -0
144 198 -0
145 198 -0
146 198 -0
147 198 -0
148 198 -0
149 198 -0
150 198 -0
151 198 -0
152 198 -0
153 198 -0
154 198 -0
155 198 -0
156 198 -0
157 198 -0
158 198 -0
159 198 -0
160 198 -0
161 198 -0
162 198 -0
163 198 -0
164 198 -0
165 198 -0
166 198 -0
167 198 -0
168 198 -0
169 198 -0
170 198 -0
171 198 -0
172 198 -0
173 198 -0
174 198 -0.33824549504874424
175 198 -0
176 198 -0
177 198 -0
178 198 -0
179 198 -0
180 198 -0
181 198 -0
182 198 -0
183 198 -0
184 198 -0
185 198 -0
186 198 -0
187 198 -0
188 198 -0
189 198 -0
190 198 -0
191 198 -0
192 198 -0
193 198 -0
194 198 -0
195 198 -0
196 198 -0
197 198 -0
198 198 -0
199 198 -0
200 198 -0
201 198 -0
202 198 -0
203 198 -0
204 198 -0
205 198 -0
206 198 -0
207 198 -0
208 198 -0
209 198 -0
210 198 -0
211 198 -0
212 198 -0
213 198 -0
214 198 -0
215 198 -0
216 198 -0
217 198 -0
218 198 -0
219 198 -0
220 198 -0
221 198 -0
222 198 -0
223 198 -0
224 198 -0
225 198 -0
226 198 -0
227 198 -0
228 198 -0
229 198 -0
230 198 -0
231 198 -0
232 198 -0
233 198 -0
234 198 -0
235 198 -0
236 198 -0
237 198 -0
238 198 -0
239 198 -0
240 198 -0
121 199 -0
122 199 -0
123 199 -0
124 199 -0
125 199 -0
126 199 -0
127 199 -0
128 199 -0
129 199 -0
130 199 -0
131 199 -0
132 199 -0
133 199 -0
134 199 -0
135 199 -0
136 199 -0
137 199 -0
138 199 -0
139 199 -0
140 199 -0
141 199 -0
142 199 -0
143 199 -0
144 199 -0
145 199 -0
146 199 -0
147 199 -0
148 199 -0
149 199 -0
150 199 -0
151 199 -0
152 199 -0
153 199 -0
154 199 -0
155 199 -0
156 199 -0
157 199 -0
158 199 -0
159 199 -0
160 199 -0
161 199 -0
162 199 -0
163 199 -0
164 199 -0
165 199 -0
166 199 -0
167 199 -0
168 199 -0
169 199 -0
170 199 -0
171 199 -0
172 199 -0
173 199 -0
174 199 -0
175 199 -0.33824549504874424
176 199 -0
177 199 -0
178 199 -0
179 199 -0
180 199 -0
181 199 -0
182 199 -0
183 199 -0
184 199 -0
185 199 -0
186 199 -0
187 199 -0
188 199 -0
189 199 -0
190 199 -0
191 199 -0
192 199 -0
193 199 -0
194 199 -0
195 199 -0
196 199 -0
197 199 -0
198 199 -0
199 199 -0
200 199 -0
201 199 -0
202 199 -0
203 199 -0
204 199 -0
205 199 -0
206 199 -0
207 199 -0
208 199 -0
209 199 -0
210 199 -0
211 199 -0
212 199 -0
213 199 -0
214 199 -0
215 199 -0
216 199 -0
217 199 -0
218 199 -0
219 199 -0
220 199 -0
221 199 -0
222 199 -0
223 199 -0
224 199 -0
225 199 -0
226 199 -0
227 199 -0
228 199 -0
229 199 -0
230 199 -0
231 199 -0
232 199 -0
233 199 -0
234 199 -0
235 199 -0
236 199 -0
237 199 -0
238 199 -0
239 199 -0
240 199 -0
121 200 -0
122 200 -0
123 200 -0
124 200 -0
125 200 -0
126 200 -0
127 200 -0
128 200 -0
129 200 -0
130 200 -0
131 200 -0
132 200 -0
133 200 -0
134 200 -0
135 200 -0
136 200 -0
137 200 -0
138 200 -0
139 200 -0
140 200 -0
141 200 -0
142 200 -0
143 200 -0
144 200 -0
145 200 -0
146 200 -0
147 200 -0
148 200 -0
149 200 -0
150 200 -0
151 200 -0
152 200 -0
153 200 -0
154 200 -0
155 200 -0
156 200 -0
157 200 -0
158 200 -0
159 200 -0
160 200 -0
161 200 -0
162 200 -0
163 200 -0
164 200 -0
165 200 -0
166 200 -0
167 200 -0
168 200 -0
169 200 -0
170 200 -0
171 200 -0
172 200 -0
173 200 -0
174 200 -0
175 200 -0
176 200 -0.33824549504874424
177 200 -0
178 200 -0
179 200 -0
180 200 -0
181 200 -0
182 200 -0
183 200 -0
184 200 -0
185 200 -0
186 200 -0
187 200 -0
188 200 -0
189 200 -0
190 200 -0
191 200 -0
192 200 -0
193 200 -0
194 200 -0
195 200 -0
196 200 -0
197 200 -0
198 200 -0
199 200 -0
200 200 -0
201 200 -0
202 200 -0
203 200 -0
204 200 -0
205 200 -0
206 200 -0
207 200 -0
208 200 -0
209 200 -0
210 200 -0
211 200 -0
212 200 -0
213 200 -0
214 200 -0
215 200 -0
216 200 -0
217 200 -0
218 200 -0
219 200 -0
220 200 -0
221 200 -0
222 200 -0
223 200 -0
224 200 -0
225 200 -0
226 200 -0
227 200 -0
228 200 -0
229 200 -0
230 200 -0
231 200 -0
232 200 -0
233 200 -0
234 200 -0
235 200 -0
236 200 -0
237 200 -0
238 200 -0
239 200 -0
240 200 -0
121 201 -0
122 201 -0
123 201 -0
124 201 -0
125 201 -0
126 201 -0
127 201 -0
128 201 -0
129 201 -0
130 201 -0
131 201 -0
132 201 -0
133 201 -0
134 201 -0
135 201 -0
136 201 -0
137 201 -0
138 201 -0
139 201 -0
140 201 -0
141 201 -0
142 201 -0
143 201 -0
144 201 -0
145 201 -0
146 201 -0
147 201 -0
148 201 -0
149 201 -0
150 201 -0
151 201 -0
152 201 -0
153 201 -0
154 201 -0
155 201 -0
156 201 -0
157 201 -0
158 201 -0
159 201 -0
160 201 -0
161 201 -0
162 201 -0
163 201 -0
164 201 -0
165 201 -0
166 201 -0
167 201 -0
168 201 -0
169 201 -0
170 201 -0
171 201 -0
172 201 -0
173 201 -0
174 201 -0
175 201 -0
176 201 -0
177 201 -0.33824549504874424
178 201 -0
179 201 -0
180 201 -0
181 201 -0
182 201 -0
183 201 -0
184 201 -0
185 201 -0
186 201 -0
187 201 -0
188 201 -0
189 201 -0
190 201 -0
191 201 -0
192 201 -0
193 201 -0
194 201 -0
195 201 -0
196 201 -0
197 201 -0
198 201 -0
199 201 -0
200 201 -0
201 201 -0
202 201 -0
203 201 -0
204 201 -0
205 201 -0
206 201 -0
207 201 -0
208 201 -0
209 201 -0
210 201 -0
211 201 -0
212 201 -0
213 201 -0
214 201 -0
215 201 -0
216 201 -0
217 201 -0
218 201 -0
219 201 -0
220 201 -0
221 201 -0
222 201 -0
223 201 -0
224 201 -0
225 201 -0
226 201 -0
227 201 -0
228 201 -0
229 201 -0
230 201 -0
231 201 -0
232 201 -0
233 201 -0
234 201 -0
235 201 -0
236 201 -0
237 201 -0
238 201 -0
239 201 -0
240 201 -0
121 202 -0
122 202 -0
123 202 -0
124 202 -0
125 202 -0
126 202 -0
127 202 -0
128 202 -0
129 202 -0
130 202 -0
131 202 -0
132 202 -0
133 202 -0
134 202 -0
135 202 -0
136 202 -0
137 202 -0
138 202 -0
139 202 -0
140 202 -0
141 202 -0
142 202 -0
143 202 -0
144 202 -0
145 202 -0
146 202 -0
147 202 -0
148 202 -0
149 202 -0
150 202 -0
151 202 -0
152 202 -0
153 202 -0
154 202 -0
155 202 -0
156 202 -0
157 202 -0
158 202 -0
159 202 -0
160 202 -0
161 202 -0
162 202 -0
163 202 -0
164 202 -0
165 202 -0
166 202 -0
167 202 -0
168 202 -0
169 202 -0
170 202 -0
171 202 -0
172 202 -0
173 202 -0
174 202 -0
175 202 -0
176 202 -0
177 202 -0
178 202 -0.33824549504874424
179 202 -0
180 202 -0
181 202 -0
182 202 -0
183 202 -0
184 202 -0
185 202 -0
186 202 -0
187 202 -0
188 202 -0
189 202 -0
190 202 -0
191 202 -0
192 202 -0
193 202 -0
194 202 -0
195 202 -0
196 202 -0
197 202 -0
198 202 -0
199 202 -0
200 202 -0
201 202 -0
202 202 -0
203 202 -0
204 202 -0
205 202 -0
206 202 -0
207 202 -0
208 202 -0
209 202 -0
210 202 -0
211 202 -0
212 202 -0
213 202 -0
214 202 -0
215 202 -0
216 202 -0
217 202 -0
218 202 -0
219 202 -0
220 202 -0
221 202 -0
222 202 -0
223 202 -0
224 202 -0
225 202 -0
226 202 -0
227 202 -0
228 202 -0
229 202 -0
230 202 -0
231 202 -0
232 202 -0
233 202 -0
234 202 -0
235 202 -0
236 202 -0
237 202 -0
238 202 -0
239 202 -0
240 202 -0
121 203 -0
122 203 -0
123 203 -0
124 203 -0
125 203 -0
126 203 -0
127 203 -0
128 203 -0
129 203 -0
130 203 -0
131 203 -0
132 203 -0
133 203 -0
134 203 -0
135 203 -0
136 203 -0
137 203 -0
138 203 -0
139 203 -0
140 203 -0
141 203 -0
142 203 -0
143 203 -0
144 203 -0
145 203 -0
146 203 -0
147 203 -0
148 203 -0
149 203 -0
150 203 -0
151 203 -0
152 203 -0
153 203 -0
154 203 -0
155 203 -0
156 203 -0
157 203 -0
158 203 -0
159 203 -0
160 203 -0
161 203 -0
162 203 -0
163 203 -0
164 203 -0
165 203 -0
166 203 -0
167 203 -0
168 203 -0
169 203 -0
170 203 -0
171 203 -0
172 203 -0
173 203 -0
174 203 -0
175 203 -0
176 203 -0
177 203 -0
178 203 -0
179 203 -0.33824549504874424
180 203 -0
181 203 -0
182 203 -0
183 203 -0
184 203 -0
185 203 -0
186 203 -0
187 203 -0
188 203 -0
189 203 -0
190 203 -0
191 203 -0
192 203 -0
193 203 -0
194 203 -0
195 203 -0
196 203 -0
197 203 -0
198 203 -0
199 203 -0
200 203 -0
201 203 -0
202 203 -0
203 203 -0
204 203 -0
205 203 -0
206 203 -0
207 203 -0
208 203 -0
209 203 -0
210 203 -0
211 203 -0
212 203 -0
213 203 -0
214 203 -0
215 203 -0
216 203 -0
217 203 -0
218 203 -0
219 203 -0
220 203 -0
221 203 -0
222 203 -0
223 203 -0
224 203 -0
225 203 -0
226 203 -0
227 203 -0
228 203 -0
229 203 -0
230 203 -0
231 203 -0
232 203 -0
233 203 -0
234 203 -0
235 203 -0
236 203 -0
237 203 -0
238 203 -0
239 203 -0
240 203 -0
121 204 -0
122 204 -0
123 204 -0
124 204 -0
125 204 -0
126 204 -0
127 204 -0
128 204 -0
129 204 -0
130 204 -0
131 204 -0
132 204 -0
133 204 -0
134 204 -0
135 204 -0
136 204 -0
137 204 -0
138 204 -0
139 204 -0
140 204 -0
141 204 -0
142 204 -0
143 204 -0
144 204 -0
145 204 -0
146 204 -0
147 204 -0
148 204 -0
149 204 -0
150 204 -0
151 204 -0
152 204 -0
153 204 -0
154 204 -0
155 204 -0
156 204 -0
157 204 -0
158 204 -0
159 204 -0
160 204 -0
161 204 -0
162 204 -0
163 204 -0
164 204 -0
165 204 -0
166 204 -0
167 204 -0
168 204 -0
169 204 -0
170 204 -0
171 204 -0
172 204 -0
173 204 -0
174 204 -0
175 204 -0
176 204 -0
177 204 -0
178 204 -0
179 204 -0
180 204 -0.33824549504874424
181 204 -0
182 204 -0
183 204 -0
184 204 -0
185 204 -0
186 204 -0
187 204 -0
188 204 -0
189 204 -0
190 204 -0
191 204 -0
192 204 -0
193 204 -0
194 204 -0
195 204 -0
196 204 -0
197 204 -0
198 204 -0
199 204 -0
200 204 -0
201 204 -0
202 204 -0
203 204 -0
204 204 -0
205 204 -0
206 204 -0
207 204 -0
208 204 -0
209 204 -0
210 204 -0
211 204 -0
212 204 -0
213 204 -0
214 204 -0
215 204 -0
216 204 -0
217 204 -0
218 204 -0
219 204 -0
220 204 -0
221 204 -0
222 204 -0
223 204 -0
224 204 -0
225 204 -0
226 204 -0
227 204 -0
228 204 -0
229 204 -0
230 204 -0
231 204 -0
232 204 -0
233 204 -0
234 204 -0
235 204 -0
236 204 -0
237 204 -0
238 204 -0
239 204 -0
240 204 -0
121 205 -0
122 205 -0
123 205 -0
124 205 -0
125 205 -0
126 205 -0
127 205 -0
128 205 -0
129 205 -0
130 205 -0
131 205 -0
132 205 -0
133 205 -0
134 205 -0
135 205 -0
136 205 -0
137 205 -0
138 205 -0
139 205 -0
140 205 -0
141 205 -0
142 205 -0
143 205 -0
144 205 -0
145 205 -0
146 205 -0
147 205 -0
148 205 -0
149 205 -0
150 205 -0
151 205 -0
152 205 -0
153 205 -0
154 205 -0
155 205 -0
156 205 -0
157 205 -0
158 205 -0
159 205 -0
160 205 -0
161 205 -0
162 205 -0
163 205 -0
164 205 -0
165 205 -0
166 205 -0
167 205 -0
168 205 -0
169 205 -0
170 205 -0
171 205 -0
172 205 -0
173 205 -0
174 205 -0
175 205 -0
176 205 -0
177 205 -0
178 205 -0
179 205 -0
180 205 -0
181 205 -0
182 205 -0
183 205 -0
184 205 -0
185 205 -0
186 205 -0
187 205 -0
188 205 -0
189 205 -0
190 205 -0
191 205 -0
192 205 -0
193 205 -0
194 205 -0
195 205 -0
196 205 -0
197 205 -0
198 205 -0
199 205 -0
200 205 -0
201 205 -0
202 205 -0
203 205 -0
204 205 -0
205 205 -0
206 205 -0.9779954441855957
207 205 -0
208 205 -0
209 205 -0
210 205 -0
211 205 -0
212 205 -0
213 205 -0
214 205 -0
215 205 -0
216 205 -0
217 205 -0
218 205 -0
219 205 -0
220 205 -0
221 205 -0
222 205 -0
223 205 -0
224 205 -0
225 205 -0
226 205 -0
227 205 -0
228 205 -0
229 205 -0
230 205 -0
231 205 -0
232 205 -0
233 205 -0
234 205 -0
235 205 -0
236 205 -0
237 205 -0
238 205 -0
239 205 -0
240 205 -0
121 206 -0
122 206 -0
123 206 -0
124 206 -0
125 206 -0
126 206 -0
127 206 -0
128 206 -0
129 206 -0
130 206 -0
131 206 -0
132 206 -0
133 206 -0
134 206 -0
135 206 -0
136 206 -0
137 206 -0
138 206 -0
139 206 -0
140 206 -0
141 206 -0
142 206 -0
143 206 -0
144 206 -0
145 206 -0
146 206 -0
147 206 -0
148 206 -0
149 206 -0
150 206 -0
151 206 -0
152 206 -0
153 206 -0
154 206 -0
155 206 -0
156 206 -0
157 206 -0
158 206 -0
159 206 -0
160 206 -0
161 206 -0
162 206 -0
163 206 -0
164 206 -0
165 206 -0
166 206 -0
167 206 -0
168 206 -0
169 206 -0
170 206 -0
171 206 -0
172 206 -0
173 206 -0
174 206 -0
175 206 -0
176 206 -0
177 206 -0
178 206 -0
179 206 -0
180 206 -0
181 206 -0
182 206 -0
183 206 -0
184 206 -0
185 206 -0
186 206 -0
187 206 -0
188 206 -0
189 206 -0
190 206 -0
191 206 -0
192 206 -0
193 206 -0
194 206 -0
195 206 -0
196 206 -0
197 206 -0
198 206 -0
199 206 -0
200 206 -0
201 206 -0
202 206 -0
203 206 -0
204 206 -0
205 206 -0
206 206 -0
207 206 -0.9779954441855957
208 206 -0
209 206 -0
210 206 -0
211 206 -0
212 206 -0
213 206 -0
214 206 -0
215 206 -0
216 206 -0
217 206 -0
218 206 -0
219 206 -0
220 206 -0
221 206 -0
222 206 -0
223 206 -0
224 206 -0
225 206 -0
226 206 -0
227 206 -0
228 206 -0
229 206 -0
230 206 -0
231 206 -0
232 206 -0
233 206 -0
234 206 -0
235 206 -0
236 206 -0
237 206 -0
238 206 -0
239 206 -0
240 206 -0
121 207 -0
122 207 -0
123 207 -0
124 207 -0
125 207 -0
126 207 -0
127 207 -0
128 207 -0
129 207 -0
130 207 -0
131 207 -0
132 207 -0
133 207 -0
134 207 -0
135 207 -0
136 207 -0
137 207 -0
138 207 -0
139 207 -0
140 207 -0
141 207 -0
142 207 -0
143 207 -0
144 207 -0
145 207 -0
146 207 -0
147 207 -0
148 207 -0
149 207 -0
150 207 -0
151 207 -0
152 207 -0
153 207 -0
154 207 -0
155 207 -0
156 207 -0
157 207 -0
158 207 -0
159 207 -0
160 207 -0
161 207 -0
162 207 -0
163 207 -0
164 207 -0
165 207 -0
166 207 -0
167 207 -0
168 207 -0
169 207 -0
170 207 -0
171 207 -0
172 207 -0
173 207 -0
174 207 -0
175 207 -0
176 207 -0
177 207 -0
178 207 -0
179 207 -0
180 207 -0
181 207 -0
182 207 -0
183 207 -0
184 207 -0
185 207 -0
186 207 -0
187 207 -0
188 207 -0
189 207 -0
190 207 -0
191 207 -0
192 207 -0
193 207 -0
194 207 -0
195 207 -0
196 207 -0
197 207 -0
198 207 -0
199 207 -0
200 207 -0
201 207 -0
202 207 -0
203 207 -0
204 207 -0
205 207 -0
206 207 -0
207 207 -0
208 207 -0.9779954441855957
209 207 -0
210 207 -0
211 207 -0
212 207 -0
213 207 -0
214 207 -0
215 207 -0
216 207 -0
217 207 -0
218 207 -0
219 207 -0
220 207 -0
221 207 -0
222 207 -0
223 207 -0
224 207 -0
225 207 -0
226 207 -0
227 207 -0
228 207 -0
229 207 -0
230 207 -0
231 207 -0
232 207 -0
233 207 -0
234 207 -0
235 207 -0
236 207 -0
237 207 -0
238 207 -0
239 207 -0
240 207 -0
121 208 -0
122 208 -0
123 208 -0
124 208 -0
125 208 -0
126 208 -0
127 208 -0
128 208 -0
129 208 -0
130 208 -0
131 208 -0
132 208 -0
133 208 -0
134 208 -0
135 208 -0
136 208 -0
137 208 -0
138 208 -0
139 208 -0
140 208 -0
141 208 -0
142 208 -0
143 208 -0
144 208 -0
145 208 -0
146 208 -0
147 208 -0
148 208 -0
149 208 -0
150 208 -0
151 208 -0
152 208 -0
153 208 -0
154 208 -0
155 208 -0
156 208 -0
157 208 -0
158 208 -0
159 208 -0
160 208 -0
161 208 -0
162 208 -0
163 208 -0
164 208 -0
165 208 -0
166 208 -0
167 208 -0
168 208 -0
169 208 -0
170 208 -0
171 208 -0
172 208 -0
173 208 -0
174 208 -0
175 208 -0
176 208 -0
177 208 -0
178 208 -0
179 208 -0
180 208 -0
181 208 -0
182 208 -0
183 208 -0
184 208 -0
185 208 -0
186 208 -0
187 208 -0
188 208 -0
189 208 -0
190 208 -0
191 208 -0
192 208 -0
193 208 -0
194 208 -0
195 208 -0
196 208 -0
197 208 -0
198 208 -0
199 208 -0
200 208 -0
201 208 -0
202 208 -0
203 208 -0
204 208 -0
205 208 -0
206 208 -0
207 208 -0
208 208 -0
209 208 -0.9779954441855957
210 208 -0
211 208 -0
212 208 -0
213 208 -0
214 208 -0
215 208 -0
216 208 -0
217 208 -0
218 208 -0
219 208 -0
220 208 -0
221 208 -0
222 208 -0
223 208 -0
224 208 -0
225 208 -0
226 208 -0
227 208 -0
228 208 -0
229 208 -0
230 208 -0
231 208 -0
232 208 -0
233 208 -0
234 208 -0
235 208 -0
236 208 -0
237 208 -0
238 208 -0
239 208 -0
240 208 -0
121 209 -0
122 209 -0
123 209 -0
124 209 -0
125 209 -0
126 209 -0
127 209 -0
128 209 -0
129 209 -0
130 209 -0
131 209 -0
132 209 -0
133 209 -0
134 209 -0
135 209 -0
136 209 -0
137 209 -0
138 209 -0
139 209 -0
140 209 -0
141 209 -0
142 209 -0
143 209 -0
144 209 -0
145 209 -0
146 209 -0
147 209 -0
148 209 -0
149 209 -0
150 209 -0
151 209 -0
152 209 -0
153 209 -0
154 209 -0
155 209 -0
156 209 -0
157 209 -0
158 209 -0
159 209 -0
160 209 -0
161 209 -0
162 209 -0
163 209 -0
164 209 -0
165 209 -0
166 209 -0
167 209 -0
168 209 -0
169 209 -0
170 209 -0
171 209 -0
172 209 -0
173 209 -0
174 209 -0
175 209 -0
176 209 -0
177 209 -0
178 209 -0
179 209 -0
180 209 -0
181 209 -0
182 209 -0
183 209 -0
184 209 -0
185 209 -0
186 209 -0
187 209 -0
188 209 -0
189 209 -0
190 209 -0
191 209 -0
192 209 -0
193 209 -0
194 209 -0
195 209 -0
196 209 -0
197 209 -0
198 209 -0
199 209 -0
200 209 -0
201 209 -0
202 209 -0
203 209 -0
204 209 -0
205 209 -0
206 209 -0
207 209 -0
208 209 -0
209 209 -0
210 209 -0.9779954441855957
211 209 -0
212 209 -0
213 209 -0
214 209 -0
215 209 -0
216 209 -0
217 209 -0
218 209 -0
219 209 -0
220 209 -0
221 209 -0
222 209 -0
223 209 -0
224 209 -0
225 209 -0
226 209 -0
227 209 -0
228 209 -0
229 209 -0
230 209 -0
231 209 -0
232 209 -0
233 209 -0
234 209 -0
235 209 -0
236 209 -0
237 209 -0
238 209 -0
239 209 -0
240 209 -0
121 210 -0
122 210 -0
123 210 -0
124 210 -0
125 210 -0
126 210 -0
127 210 -0
128 210 -0
129 210 -0
130 210 -0
131 210 -0
132 210 -0
133 210 -0
134 210 -0
135 210 -0
136 210 -0
137 210 -0
138 210 -0
139 210 -0
140 210 -0
141 210 -0
142 210 -0
143 210 -0
144 210 -0
145 210 -0
146 210 -0
147 210 -0
148 210 -0
149 210 -0
150 210 -0
151 210 -0
152 210 -0
153 210 -0
154 210 -0
155 210 -0
156 210 -0
157 210 -0
158 210 -0
159 210 -0
160 210 -0
161 210 -0
162 210 -0
163 210 -0
164 210 -0
165 210 -0
166 210 -0
167 210 -0
168 210 -0
169 210 -0
170 210 -0
171 210 -0
172 210 -0
173 210 -0
174 210 -0
175 210 -0
176 210 -0
177 210 -0
178 210 -0
179 210 -0
180 210 -0
181 210 -0
182 210 -0
183 210 -0
184 210 -0
185 210 -0
186 210 -0
187 210 -0
188 210 -0
189 210 -0
190 210 -0
191 210 -0
192 210 -0
193 210 -0
194 210 -0
195 210 -0
196 210 -0
197 210 -0
198 210 -0
199 210 -0
200 210 -0
201 210 -0
202 210 -0
203 210 -0
204 210 -0
205 210 -0
206 210 -0
207 210 -0
208 210 -0
209 210 -0
210 210 -0
211 210 -0
212 210 -0
213 210 -0
214 210 -0
215 210 -0
216 210 -0
217 210 -0
218 210 -0
219 210 -0
220 210 -0
221 210 -0
222 210 -0
223 210 -0
224 210 -0
225 210 -0
226 210 -0
227 210 -0
228 210 -0
229 210 -0
230 210 -0
231 210 -0
232 210 -0
233 210 -0
234 210 -0
235 210 -0
236 210 -0
237 210 -0
238 210 -0
239 210 -0
240 210 -0
121 211 -0
122 211 -0
123 211 -0
124 211 -0
125 211 -0
126 211 -0
127 211 -0
128 211 -0
129 211 -0
130 211 -0
131 211 -0
132 211 -0
133 211 -0
134 211 -0
135 211 -0
136 211 -0
137 211 -0
138 211 -0
139 211 -0
140 211 -0
141 211 -0
142 211 -0
143 211 -0
144 211 -0
145 211 -0
146 211 -0
147 211 -0
148 211 -0
149 211 -0
150 211 -0
151 211 -0
152 211 -0
153 211 -0
154 211 -0
155 211 -0
156 211 -0
157 211 -0
158 211 -0
159 211 -0
160 211 -0
161 211 -0
162 211 -0
163 211 -0
164 211 -0
165 211 -0
166 211 -0
167 211 -0
168 211 -0
169 211 -0
170 211 -0
171 211 -0
172 211 -0
173 211 -0
174 211 -0
175 211 -0
176 211 -0
177 211 -0
178 211 -0
179 211 -0
180 211 -0
181 211 -0
182 211 -0
183 211 -0
184 211 -0
185 211 -0
186 211 -0
187 211 -0
188 211 -0
189 211 -0
190 211 -0
191 211 -0
192 211 -0
193 211 -0
194 211 -0
195 211 -0
196 211 -0
197 211 -0
198 211 -0
199 211 -0
200 211 -0
201 211 -0
202 211 -0
203 211 -0
204 211 -0
205 211 -0
206 211 -0
207 211 -0
208 211 -0
209 211 -0
210 211 -0
211 211 -0
212 211 -0
213 211 -0
214 211 -0
215 211 -0
216 211 -0
217 211 -0
218 211 -0
219 211 -0
220 211 -0
221 211 -0
222 211 -0
223 211 -0
224 211 -0
225 211 -0
226 211 -0
227 211 -0
228 211 -0
229 211 -0
230 211 -0
231 211 -0
232 211 -0
233 211 -0
234 211 -0
235 211 -0
236 211 -0
237 211 -0
238 211 -0
239 211 -0
240 211 -0
121 212 -0
122 212 -0
123 212 -0
124 212 -0
125 212 -0
126 212 -0
127 212 -0
128 212 -0
129 212 -0
130 212 -0
131 212 -0
132 212 -0
133 212 -0
134 212 -0
135 212 -0
136 212 -0
137 212 -0
138 212 -0
139 212 -0
140 212 -0
141 212 -0
142 212 -0
143 212 -0
144 212 -0
145 212 -0
146 212 -0
147 212 -0
148 212 -0
149 212 -0
150 212 -0
151 212 -0
152 212 -0
153 212 -0
154 212 -0
155 212 -0
156 212 -0
157 212 -0
158 212 -0
159 212 -0
160 212 -0
161 212 -0
162 212 -0
163 212 -0
164 212 -0
165 212 -0
166 212 -0
167 212 -0
168 212 -0
169 212 -0
170 212 -0
171 212 -0
172 212 -0
173 212 -0
174 212 -0
175 212 -0
176 212 -0
177 212 -0
178 212 -0
179 212 -0
180 212 -0
181 212 -0
182 212 -0
183 212 -0
184 212 -0
185 212 -0
186 212 -0
187 212 -0
188 212 -0
189 212 -0
190 212 -0
191 212 -0
192 212 -0
193 212 -0
194 212 -0
195 212 -0
196 212 -0
197 212 -0
198 212 -0
199 212 -0
200 212 -0
201 212 -0
202 212 -0
203 212 -0
204 212 -0
205 212 -0
206 212 -0
207 212 -0
208 212 -0
209 212 -0
210 212 -0
211 212 -0
212 212 -0
213 212 -0
214 212 -0
215 212 -0
216 212 -0
217 212 -0
218 212 -0
219 212 -0
220 212 -0
221 212 -0
222 212 -0
223 212 -0
224 212 -0
225 212 -0
226 212 -0
227 212 -0
228 212 -0
229 212 -0
230 212 -0
231 212 -0
232 212 -0
233 212 -0
234 212 -0
235 212 -0
236 212 -0
237 212 -0
238 212 -0
239 212 -0
240 212 -0
121 213 -0
122 213 -0
123 213 -0
124 213 -0
125 213 -0
126 213 -0
127 213 -0
128 213 -0
129 213 -0
130 213 -0
131 213 -0
132 213 -0
133 213 -0
134 213 -0
135 213 -0
136 213 -0
137 213 -0
138 213 -0
139 213 -0
140 213 -0
141 213 -0
142 213 -0
143 213 -0
144 213 -0
145 213 -0
146 213 -0
147 213 -0
148 213 -0
149 213 -0
150 213 -0
151 213 -0
152 213 -0
153 213 -0
154 213 -0
155 213 -0
156 213 -0
157 213 -0
158 213 -0
159 213 -0
160 213 -0
161 213 -0
162 213 -0
163 213 -0
164 213 -0
165 213 -0
166 213 -0
167 213 -0
168 213 -0
169 213 -0
170 213 -0
171 213 -0
172 213 -0
173 213 -0
174 213 -0
175 213 -0
176 213 -0
177 213 -0
178 213 -0
179 213 -0
180 213 -0
181 213 -0
182 213 -0
183 213 -0
184 213 -0
185 213 -0
186 213 -0
187 213 -0
188 213 -0
189 213 -0
190 213 -0
191 213 -0
192 213 -0
193 213 -0
194 213 -0
195 213 -0
196 213 -0
197 213 -0
198 213 -0
199 213 -0
200 213 -0
201 213 -0
202 213 -0
203 213 -0
204 213 -0
205 213 -0
206 213 -0
207 213 -0
208 213 -0
209 213 -0
210 213 -0
211 213 -0
212 213 -0
213 213 -0
214 213 -0
215 213 -0
216 213 -0
217 213 -0
218 213 -0
219 213 -0
220 213 -0
221 213 -0
222 213 -0
223 213 -0
224 213 -0
225 213 -0
226 213 -0
227 213 -0
228 213 -0
229 213 -0
230 213 -0
231 213 -0
232 213 -0
233 213 -0
234 213 -0
235 213 -0
236 213 -0
237 213 -0
238 213 -0
239 213 -0
240 213 -0
121 214 -0
122 214 -0
123 214 -0
124 214 -0
125 214 -0
126 214 -0
127 214 -0
128 214 -0
129 214 -0
130 214 -0
131 214 -0
132 214 -0
133 214 -0
134 214 -0
135 214 -0
136 214 -0
137 214 -0
138 214 -0
139 214 -0
140 214 -0
141 214 -0
142 214 -0
143 214 -0
144 214 -0
145 214 -0
146 214 -0
147 214 -0
148 214 -0
149 214 -0
150 214 -0
151 214 -0
152 214 -0
153 214 -0
154 214 -0
155 214 -0
156 214 -0
157 214 -0
158 214 -0
159 214 -0
160 214 -0
161 214 -0
162 214 -0
163 214 -0
164 214 -0
165 214 -0
166 214 -0
167 214 -0
168 214 -0
169 214 -0
170 214 -0
171 214 -0
172 214 -0
173 214 -0
174 214 -0
175 214 -0
176 214 -0
177 214 -0
178 214 -0
179 214 -0
180 214 -0
181 214 -0
182 214 -0
183 214 -0
184 214 -0
185 214 -0
186 214 -0
187 214 -0
188 214 -0
189 214 -0
190 214 -0
191 214 -0
192 214 -0
193 214 -0
194 214 -0
195 214 -0
196 214 -0
197 214 -0
198 214 -0
199 214 -0
200 214 -0
201 214 -0
202 214 -0
203 214 -0
204 214 -0
205 214 -0
206 214 -0
207 214 -0
208 214 -0
209 214 -0
210 214 -0
211 214 -0
212 214 -0
213 214 -0
214 214 -0
215 214 -0
216 214 -0
217 214 -0
218 214 -0
219 214 -0
220 214 -0
221 214 -0
222 214 -0
223 214 -0
224 214 -0
225 214 -0
226 214 -0
227 214 -0
228 214 -0
229 214 -0
230 214 -0
231 214 -0
232 214 -0
233 214 -0
234 214 -0
235 214 -0
236 214 -0
237 214 -0
238 214 -0
239 214 -0
240 214 -0
121 215 -0
122 215 -0
123 215 -0
124 215 -0
125 215 -0
126 215 -0
127 215 -0
128 215 -0
129 215 -0
130 215 -0
131 215 -0
132 215 -0
133 215 -0
134 215 -0
135 215 -0
136 215 -0
137 215 -0
138 215 -0
139 215 -0
140 215 -0
141 215 -0
142 215 -0
143 215 -0
144 215 -0
145 215 -0
146 215 -0
147 215 -0
148 215 -0
149 215 -0
150 215 -0
151 215 -0
152 215 -0
153 215 -0
154 215 -0
155 215 -0
156 215 -0
157 215 -0
158 215 -0
159 215 -0
160 215 -0
161 215 -0
162 215 -0
163 215 -0
164 215 -0
165 215 -0
166 215 -0
167 215 -0
168 215 -0
169 215 -0
170 215 -0
171 215 -0
172 215 -0
173 215 -0
174 215 -0
175 215 -0
176 215 -0
177 215 -0
178 215 -0
179 215 -0
180 215 -0
181 215 -0
182 215 -0
183 215 -0
184 215 -0
185 215 -0
186 215 -0
187 215 -0
188 215 -0
189 215 -0
190 215 -0
191 215 -0
192 215 -0
193 215 -0
194 215 -0
195 215 -0
196 215 -0
197 215 -0
198 215 -0
199 215 -0
200 215 -0
201 215 -0
202 215 -0
203 215 -0
204 215 -0
205 215 -0
206 215 -0
207 215 -0
208 215 -0
209 215 -0
210 215 -0
211 215 -0
212 215 -0
213 215 -0
214 215 -0
215 215 -0
216 215 -0
217 215 -0
218 215 -0
219 215 -0
220 215 -0
221 215 -0
222 215 -0
223 215 -0
224 215 -0
225 215 -0
226 215 -0
227 215 -0
228 215 -0
229 215 -0
230 215 -0
231 215 -0
232 215 -0
233 215 -0
234 215 -0
235 215 -0
236 215 -0
237 215 -0
238 215 -0
239 215 -0
240 215 -0
121 216 -0
122 216 -0
123 216 -0
124 216 -0
125 216 -0
126 216 -0
127 216 -0
128 216 -0
129 216 -0
130 216 -0
131 216 -0
132 216 -0
133 216 -0
134 216 -0
135 216 -0
136 216 -0
137 216 -0
138 216 -0
139 216 -0
140 216 -0
141 216 -0
142 216 -0
143 216 -0
144 216 -0
145 216 -0
146 216 -0
147 216 -0
148 216 -0
149 216 -0
150 216 -0
151 216 -0
152 216 -0
153 216 -0
154 216 -0
155 216 -0
156 216 -0
157 216 -0
158 216 -0
159 216 -0
160 216 -0
161 216 -0
162 216 -0
163 216 -0
164 216 -0
165 216 -0
166 216 -0
167 216 -0
168 216 -0
169 216 -0
170 216 -0
171 216 -0
172 216 -0
173 216 -0
174 216 -0
175 216 -0
176 216 -0
177 216 -0
178 216 -0
179 216 -0
180 216 -0
181 216 -0
182 216 -0
183 216 -0
184 216 -0
185 216 -0
186 216 -0
187 216 -0
188 216 -0
189 216 -0
190 216 -0
191 216 -0
192 216 -0
193 216 -0
194 216 -0
195 216 -0
196 216 -0
197 216 -0
198 216 -0
199 216 -0
200 216 -0
201 216 -0
202 216 -0
203 216 -0
204 216 -0
205 216 -0
206 216 -0
207 216 -0
208 216 -0
209 216 -0
210 216 -0
211 216 -0
212 216 -0
213 216 -0
214 216 -0
215 216 -0
216 216 -0
217 216 -0
218 216 -0
219 216 -0
220 216 -0
221 216 -0
222 216 -0
223 216 -0
224 216 -0
225 216 -0
226 216 -0
227 216 -0
228 216 -0
229 216 -0
230 216 -0
231 216 -0
232 216 -0
233 216 -0
234 216 -0
235 216 -0
236 216 -0
237 216 -0
238 216 -0
239 216 -0
240 216 -0
121 217 -0
122 217 -0
123 217 -0
124 217 -0
125 217 -0
126 217 -0
127 217 -0
128 217 -0
129 217 -0
130 217 -0
131 217 -0
132 217 -0
133 217 -0
134 217 -0
135 217 -0
136 217 -0
137 217 -0
138 217 -0
139 217 -0
140 217 -0
141 217 -0
142 217 -0
143 217 -0
144 217 -0
145 217 -0
146 217 -0
147 217 -0
148 217 -0
149 217 -0
150 217 -0
151 217 -0
152 217 -0
153 217 -0
154 217 -0
155 217 -0
156 217 -0
157 217 -0
158 217 -0
159 217 -0
160 217 -0
161 217 -0
162 217 -0
163 217 -0
164 217 -0
165 217 -0
166 217 -0
167 217 -0
168 217 -0
169 217 -0
170 217 -0
171 217 -0
172 217 -0
173 217 -0
174 217 -0
175 217 -0
176 217 -0
177 217 -0
178 217 -0
179 217 -0
180 217 -0
181 217 -0
182 217 -0
183 217 -0
184 217 -0
185 217 -0
186 217 -0
187 217 -0
188 217 -0
189 217 -0
190 217 -0
191 217 -0
192 217 -0
193 217 -0
194 217 -0
195 217 -0
196 217 -0
197 217 -0
198 217 -0
199 217 -0
200 217 -0
201 217 -0
202 217 -0
203 217 -0
204 217 -0
205 217 -0
206 217 -0
207 217 -0
208 217 -0
209 217 -0
210 217 -0
211 217 -0.9779954441855957
212 217 -0
213 217 -0
214 217 -0
215 217 -0
216 217 -0
217 217 -0
218 217 -0
219 217 -0
220 217 -0
221 217 -0
222 217 -0
223 217 -0
224 217 -0
225 217 -0
226 217 -0
227 217 -0
228 217 -0
229 217 -0
230 217 -0
231 217 -0
232 217 -0
233 217 -0
234 217 -0
235 217 -0
236 217 -0
237 217 -0
238 217 -0
239 217 -0
240 217 -0
121 218 -0
122 218 -0
123 218 -0
124 218 -0
125 218 -0
126 218 -0
127 218 -0
128 218 -0
129 218 -0
130 218 -0
131 218 -0
132 218 -0
133 218 -0
134 218 -0
135 218 -0
136 218 -0
137 218 -0
138 218 -0
139 218 -0
140 218 -0
141 218 -0
142 218 -0
143 218 -0
144 218 -0
145 218 -0
146 218 -0
147 218 -0
148 218 -0
149 218 -0
150 218 -0
151 218 -0
152 218 -0
153 218 -0
154 218 -0
155 218 -0
156 218 -0
157 218 -0
158 218 -0
159 218 -0
160 218 -0
161 218 -0
162 218 -0
163 218 -0
164 218 -0
165 218 -0
166 218 -0
167 218 -0
168 218 -0
169 218 -0
170 218 -0
171 218 -0
172 218 -0
173 218 -0
174 218 -0
175 218 -0
176 218 -0
177 218 -0
178 218 -0
179 218 -0
180 218 -0
181 218 -0
182 218 -0
183 218 -0
184 218 -0
185 218 -0
186 218 -0
187 218 -0
188 218 -0
189 218 -0
190 218 -0
191 218 -0
192 218 -0
193 218 -0
194 218 -0
195 218 -0
196 218 -0
197 218 -0
198 218 -0
199 218 -0
200 218 -0
201 218 -0
202 218 -0
203 218 -0
204 218 -0
205 218 -0
206 218 -0
207 218 -0
208 218 -0
209 218 -0
210 218 -0
211 218 -0
212 218 -0.9779954441855957
213 218 -0
214 218 -0
215 218 -0
216 218 -0
217 218 -0
218 218 -0
219 218 -0
220 218 -0
221 218 -0
222 218 -0
223 218 -0
224 218 -0
225 218 -0
226 218 -0
227 218 -0
228 218 -0
229 218 -0
230 218 -0
231 218 -0
232 218 -0
233 218 -0
234 218 -0
235 218 -0
236 218 -0
237 218 -0
238 218 -0
239 218 -0
240 218 -0
121 219 -0
122 219 -0
123 219 -0
124 219 -0
125 219 -0
126 219 -0
127 219 -0
128 219 -0
129 219 -0
130 219 -0
131 219 -0
132 219 -0
133 219 -0
134 219 -0
135 219 -0
136 219 -0
137 219 -0
138 219 -0
139 219 -0
140 219 -0
141 219 -0
142 219 -0
143 219 -0
144 219 -0
145 219 -0
146 219 -0
147 219 -0
148 219 -0
149 219 -0
150 219 -0
151 219 -0
152 219 -0
153 219 -0
154 219 -0
155 219 -0
156 219 -0
157 219 -0
158 219 -0
159 219 -0
160 219 -0
161 219 -0
162 219 -0
163 219 -0
164 219 -0
165 219 -0
166 219 -0
167 219 -0
168 219 -0
169 219 -0
170 219 -0
171 219 -0
172 219 -0
173 219 -0
174 219 -0
175 219 -0
176 219 -0
177 219 -0
178 219 -0
179 219 -0
180 219 -0
181 219 -0
182 219 -0
183 219 -0
184 219 -0
185 219 -0
186 219 -0
187 219 -0
188 219 -0
189 219 -0
190 219 -0
191 219 -0
192 219 -0
193 219 -0
194 219 -0
195 219 -0
196 219 -0
197 219 -0
198 219 -0
199 219 -0
200 219 -0
201 219 -0
202 219 -0
203 219 -0
204 219 -0
205 219 -0
206 219 -0
207 219 -0
208 219 -0
209 219 -0
210 219 -0
211 219 -0
212 219 -0
213 219 -0.9779954441855957
214 219 -0
215 219 -0
216 219 -0
217 219 -0
218 219 -0
219 219 -0
220 219 -0
221 219 -0
222 219 -0
223 219 -0
224 219 -0
225 219 -0
226 219 -0
227 219 -0
228 219 -0
229 219 -0
230 219 -0
231 219 -0
232 219 -0
233 219 -0
234 219 -0
235 219 -0
236 219 -0
237 219 -0
238 219 -0
239 219 -0
240 219 -0
121 220 -0
122 220 -0
123 220 -0
124 220 -0
125 220 -0
126 220 -0
127 220 -0
128 220 -0
129 220 -0
130 220 -0
131 220 -0
132 220 -0
133 220 -0
134 220 -0
135 220 -0
136 220 -0
137 220 -0
138 220 -0
139 220 -0
140 220 -0
141 220 -0
142 220 -0
143 220 -0
144 220 -0
145 220 -0
146 220 -0
147 220 -0
148 220 -0
149 220 -0
150 220 -0
151 220 -0
152 220 -0
153 220 -0
154 220 -0
155 220 -0
156 220 -0
157 220 -0
158 220 -0
159 220 -0
160 220 -0
161 220 -0
162 220 -0
163 220 -0
164 220 -0
165 220 -0
166 220 -0
167 220 -0
168 220 -0
169 220 -0
170 220 -0
171 220 -0
172 220 -0
173 220 -0
174 220 -0
175 220 -0
176 220 -0
177 220 -0
178 220 -0
179 220 -0
180 220 -0
181 220 -0
182 220 -0
183 220 -0
184 220 -0
185 220 -0
186 220 -0
187 220 -0
188 220 -0
189 220 -0
190 220 -0
191 220 -0
192 220 -0
193 220 -0
194 220 -0
195 220 -0
196 220 -0
197 220 -0
198 220 -0
199 220 -0
200 220 -0
201 220 -0
202 220 -0
203 220 -0
204 220 -0
205 220 -0
206 220 -0
207 220 -0
208 220 -0
209 220 -0
210 220 -0
211 220 -0
212 220 -0
213 220 -0
214 220 -0.9779954441855957
215 220 -0
216 220 -0
217 220 -0
218 220 -0
219 220 -0
220 220 -0
221 220 -0
222 220 -0
223 220 -0
224 220 -0
225 220 -0
226 220 -0
227 220 -0
228 220 -0
229 220 -0
230 220 -0
231 220 -0
232 220 -0
233 220 -0
234 220 -0
235 220 -0
236 220 -0
237 220 -0
238 220 -0
239 220 -0
240 220 -0
121 221 -0
122 221 -0
123 221 -0
124 221 -0
125 221 -0
126 221 -0
127 221 -0
128 221 -0
129 221 -0
130 221 -0
131 221 -0
132 221 -0
133 221 -0
134 221 -0
135 221 -0
136 221 -0
137 221 -0
138 221 -0
139 221 -0
140 221 -0
141 221 -0
142 221 -0
143 221 -0
144 221 -0
145 221 -0
146 221 -0
147 221 -0
148 221 -0
149 221 -0
150 221 -0
151 221 -0
152 221 -0
153 221 -0
154 221 -0
155 221 -0
156 221 -0
157 221 -0
158 221 -0
159 221 -0
160 221 -0
161 221 -0
162 221 -0
163 221 -0
164 221 -0
165 221 -0
166 221 -0
167 221 -0
168 221 -0
169 221 -0
170 221 -0
171 221 -0
172 221 -0
173 221 -0
174 221 -0
175 221 -0
176 221 -0
177 221 -0
178 221 -0
179 221 -0
180 221 -0
181 221 -0
182 221 -0
183 221 -0
184 221 -0
185 221 -0
186 221 -0
187 221 -0
188 221 -0
189 221 -0
190 221 -0
191 221 -0
192 221 -0
193 221 -0
194 221 -0
195 221 -0
196 221 -0
197 221 -0
198 221 -0
199 221 -0
200 221 -0
201 221 -0
202 221 -0
203 221 -0
204 221 -0
205 221 -0
206 221 -0
207 221 -0
208 221 -0
209 221 -0
210 221 -0
211 221 -0
212 221 -0
213 221 -0
214 221 -0
215 221 -0.9779954441855957
216 221 -0
217 221 -0
218 221 -0
219 221 -0
220 221 -0
221 221 -0
222 221 -0
223 221 -0
224 221 -0
225 221 -0
226 221 -0
227 221 -0
228 221 -0
229 221 -0
230 221 -0
231 221 -0
232 221 -0
233 221 -0
234 221 -0
235 221 -0
236 221 -0
237 221 -0
238 221 -0
239 221 -0
240 221 -0
121 222 -0
122 222 -0
123 222 -0
124 222 -0
125 222 -0
126 222 -0
127 222 -0
128 222 -0
129 222 -0
130 222 -0
131 222 -0
132 222 -0
133 222 -0
134 222 -0
135 222 -0
136 222 -0
137 222 -0
138 222 -0
139 222 -0
140 222 -0
141 222 -0
142 222 -0
143 222 -0
144 222 -0
145 222 -0
146 222 -0
147 222 -0
148 222 -0
149 222 -0
150 222 -0
151 222 -0
152 222 -0
153 222 -0
154 222 -0
155 222 -0
156 222 -0
157 222 -0
158 222 -0
159 222 -0
160 222 -0
161 222 -0
162 222 -0
163 222 -0
164 222 -0
165 222 -0
166 222 -0
167 222 -0
168 222 -0
169 222 -0
170 222 -0
171 222 -0
172 222 -0
173 222 -0
174 222 -0
175 222 -0
176 222 -0
177 222 -0
178 222 -0
179 222 -0
180 222 -0
181 222 -0
182 222 -0
183 222 -0
184 222 -0
185 222 -0
186 222 -0
187 222 -0
188 222 -0
189 222 -0
190 222 -0
191 222 -0
192 222 -0
193 222 -0
194 222 -0
195 222 -0
196 222 -0
197 222 -0
198 222 -0
199 222 -0
200 222 -0
201 222 -0
202 222 -0
203 222 -0
204 222 -0
205 222 -0
206 222 -0
207 222 -0
208 222 -0
209 222 -0
210 222 -0
211 222 -0
212 222 -0
213 222 -0
214 222 -0
215 222 -0
216 222 -0
217 222 -0
218 222 -0
219 222 -0
220 222 -0
221 222 -0
222 222 -0
223 222 -0
224 222 -0
225 222 -0
226 222 -0
227 222 -0
228 222 -0
229 222 -0
230 222 -0
231 222 -0
232 222 -0
233 222 -0
234 222 -0
235 222 -0
236 222 -0
237 222 -0
238 222 -0
239 222 -0
240 222 -0
121 223 -0
122 223 -0
123 223 -0
124 223 -0
125 223 -0
126 223 -0
127 223 -0
128 223 -0
129 223 -0
130 223 -0
131 223 -0
132 223 -0
133 223 -0
134 223 -0
135 223 -0
136 223 -0
137 223 -0
138 223 -0
139 223 -0
140 223 -0
141 223 -0
142 223 -0
143 223 -0
144 223 -0
145 223 -0
146 223 -0
147 223 -0
148 223 -0
149 223 -0
150 223 -0
151 223 -0
152 223 -0
153 223 -0
154 223 -0
155 223 -0
156 223 -0
157 223 -0
158 223 -0
159 223 -0
160 223 -0
161 223 -0
162 223 -0
163 223 -0
164 223 -0
165 223 -0
166 223 -0
167 223 -0
168 223 -0
169 223 -0
170 223 -0
171 223 -0
172 223 -0
173 223 -0
174 223 -0
175 223 -0
176 223 -0
177 223 -0
178 223 -0
179 223 -0
180 223 -0
181 223 -0
182 223 -0
183 223 -0
184 223 -0
185 223 -0
186 223 -0
187 223 -0
188 223 -0
189 223 -0
190 223 -0
191 223 -0
192 223 -0
193 223 -0
194 223 -0
195 223 -0
196 223 -0
197 223 -0
198 223 -0
199 223 -0
200 223 -0
201 223 -0
202 223 -0
203 223 -0
204 223 -0
205 223 -0
206 223 -0
207 223 -0
208 223 -0
209 223 -0
210 223 -0
211 223 -0
212 223 -0
213 223 -0
214 223 -0
215 223 -0
216 223 -0
217 223 -0
218 223 -0
219 223 -0
220 223 -0
221 223 -0
222 223 -0
223 223 -0
224 223 -0
225 223 -0
226 223 -0
227 223 -0
228 223 -0
229 223 -0
230 223 -0
231 223 -0
232 223 -0
233 223 -0
234 223 -0
235 223 -0
236 223 -0
237 223 -0
238 223 -0
239 223 -0
240 223 -0
121 224 -0
122 224 -0
123 224 -0
124 224 -0
125 224 -0
126 224 -0
127 224 -0
128 224 -0
129 224 -0
130 224 -0
131 224 -0
132 224 -0
133 224 -0
134 224 -0
135 224 -0
136 224 -0
137 224 -0
138 224 -0
139 224 -0
140 224 -0
141 224 -0
142 224 -0
143 224 -0
144 224 -0
145 224 -0
146 224 -0
147 224 -0
148 224 -0
149 224 -0
150 224 -0
151 224 -0
152 224 -0
153 224 -0
154 224 -0
155 224 -0
156 224 -0
157 224 -0
158 224 -0
159 224 -0
160 224 -0
161 224 -0
162 224 -0
163 224 -0
164 224 -0
165 224 -0
166 224 -0
167 224 -0
168 224 -0
169 224 -0
170 224 -0
171 224 -0
172 224 -0
173 224 -0
174 224 -0
175 224 -0
176 224 -0
177 224 -0
178 224 -0
179 224 -0
180 224 -0
181 224 -0
182 224 -0
183 224 -0
184 224 -0
185 224 -0
186 224 -0
187 224 -0
188 224 -0
189 224 -0
190 224 -0
191 224 -0
192 224 -0
193 224 -0
194 224 -0
195 224 -0
196 224 -0
197 224 -0
198 224 -0
199 224 -0
200 224 -0
201 224 -0
202 224 -0
203 224 -0
204 224 -0
205 224 -0
206 224 -0
207 224 -0
208 224 -0
209 224 -0
210 224 -0
211 224 -0
212 224 -0
213 224 -0
214 224 -0
215 224 -0
216 224 -0
217 224 -0
218 224 -0
219 224 -0
220 224 -0
221 224 -0
222 224 -0
223 224 -0
224 224 -0
225 224 -0
226 224 -0
227 224 -0
228 224 -0
229 224 -0
230 224 -0
231 224 -0
232 224 -0
233 224 -0
234 224 -0
235 224 -0
236 224 -0
237 224 -0
238 224 -0
239 224 -0
240 224 -0
121 225 -0
122 225 -0
123 225 -0
124 225 -0
125 225 -0
126 225 -0
127 225 -0
128 225 -0
129 225 -0
130 225 -0
131 225 -0
132 225 -0
133 225 -0
134 225 -0
135 225 -0
136 225 -0
137 225 -0
138 225 -0
139 225 -0
140 225 -0
141 225 -0
142 225 -0
143 225 -0
144 225 -0
145 225 -0
146 225 -0
147 225 -0
148 225 -0
149 225 -0
150 225 -0
151 225 -0
152 225 -0
153 225 -0
154 225 -0
155 225 -0
156 225 -0
157 225 -0
158 225 -0
159 225 -0
160 225 -0
161 225 -0
162 225 -0
163 225 -0
164 225 -0
165 225 -0
166 225 -0
167 225 -0
168 225 -0
169 225 -0
170 225 -0
171 225 -0
172 225 -0
173 225 -0
174 225 -0
175 225 -0
176 225 -0
177 225 -0
178 225 -0
179 225 -0
180 225 -0
181 225 -0
182 225 -0
183 225 -0
184 225 -0
185 225 -0
186 225 -0
187 225 -0
188 225 -0
189 225 -0
190 225 -0
191 225 -0
192 225 -0
193 225 -0
194 225 -0
195 225 -0
196 225 -0
197 225 -0
198 225 -0
199 225 -0
200 225 -0
201 225 -0
202 225 -0
203 225 -0
204 225 -0
205 225 -0
206 225 -0
207 225 -0
208 225 -0
209 225 -0
210 225 -0
211 225 -0
212 225 -0
213 225 -0
214 225 -0
215 225 -0
216 225 -0
217 225 -0
218 225 -0
219 225 -0
220 225 -0
221 225 -0
222 225 -0
223 225 -0
224 225 -0
225 225 -0
226 225 -0
227 225 -0
228 225 -0
229 225 -0
230 225 -0
231 225 -0
232 225 -0
233 225 -0
234 225 -0
235 225 -0
236 225 -0
237 225 -0
238 225 -0
239 225 -0
240 225 -0
121 226 -0
122 226 -0
123 226 -0
124 226 -0
125 226 -0
126 226 -0
127 226 -0
128 226 -0
129 226 -0
130 226 -0
131 226 -0
132 226 -0
133 226 -0
134 226 -0
135 226 -0
136 226 -0
137 226 -0
138 226 -0
139 226 -0
140 226 -0
141 226 -0
142 226 -0
143 226 -0
144 226 -0
145 226 -0
146 226 -0
147 226 -0
148 226 -0
149 226 -0
150 226 -0
151 226 -0
152 226 -0
153 226 -0
154 226 -0
155 226 -0
156 226 -0
157 226 -0
158 226 -0
159 226 -0
160 226 -0
161 226 -0
162 226 -0
163 226 -0
164 226 -0
165 226 -0
166 226 -0
167 226 -0
168 226 -0
169 226 -0
170 226 -0
171 226 -0
172 226 -0
173 226 -0
174 226 -0
175 226 -0
176 226 -0
177 226 -0
178 226 -0
179 226 -0
180 226 -0
181 226 -0
182 226 -0
183 226 -0
184 226 -0
185 226 -0
186 226 -0
187 226 -0
188 226 -0
189 226 -0
190 226 -0
191 226 -0
192 226 -0
193 226 -0
194 226 -0
195 226 -0
196 226 -0
197 226 -0
198 226 -0
199 226 -0
200 226 -0
201 226 -0
202 226 -0
203 226 -0
204 226 -0
205 226 -0
206 226 -0
207 226 -0
208 226 -0
209 226 -0
210 226 -0
211 226 -0
212 226 -0
213 226 -0
214 226 -0
215 226 -0
216 226 -0
217 226 -0
218 226 -0
219 226 -0
220 226 -0
221 226 -0
222 226 -0
223 226 -0
224 226 -0
225 226 -0
226 226 -0
227 226 -0
228 226 -0
229 226 -0
230 226 -0
231 226 -0
232 226 -0
233 226 -0
234 226 -0
235 226 -0
236 226 -0
237 226 -0
238 226 -0
239 226 -0
240 226 -0
121 227 -0
122 227 -0
123 227 -0
124 227 -0
125 227 -0
126 227 -0
127 227 -0
128 227 -0
129 227 -0
130 227 -0
131 227 -0
132 227 -0
133 227 -0
134 227 -0
135 227 -0
136 227 -0
137 227 -0
138 227 -0
139 227 -0
140 227 -0
141 227 -0
142 227 -0
143 227 -0
144 227 -0
145 227 -0
146 227 -0
147 227 -0
148 227 -0
149 227 -0
150 227 -0
151 227 -0
152 227 -0
153 227 -0
154 227 -0
155 227 -0
156 227 -0
157 227 -0
158 227 -0
159 227 -0
160 227 -0
161 227 -0
162 227 -0
163 227 -0
164 227 -0
165 227 -0
166 227 -0
167 227 -0
168 227 -0
169 227 -0
170 227 -0
171 227 -0
172 227 -0
173 227 -0
174 227 -0
175 227 -0
176 227 -0
177 227 -0
178 227 -0
179 227 -0
180 227 -0
181 227 -0
182 227 -0
183 227 -0
184 227 -0
185 227 -0
186 227 -0
187 227 -0
188 227 -0
189 227 -0
190 227 -0
191 227 -0
192 227 -0
193 227 -0
194 227 -0
195 227 -0
196 227 -0
197 227 -0
198 227 -0
199 227 -0
200 227 -0
201 227 -0
202 227 -0
203 227 -0
204 227 -0
205 227 -0
206 227 -0
207 227 -0
208 227 -0
209 227 -0
210 227 -0
211 227 -0
212 227 -0
213 227 -0
214 227 -0
215 227 -0
216 227 -0
217 227 -0
218 227 -0
219 227 -0
220 227 -0
221 227 -0
222 227 -0
223 227 -0
224 227 -0
225 227 -0
226 227 -0
227 227 -0
228 227 -0
229 227 -0
230 227 -0
231 227 -0
232 227 -0
233 227 -0
234 227 -0
235 227 -0
236 227 -0
237 227 -0
238 227 -0
239 227 -0
240 227 -0
121 228 -0
122 228 -0
123 228 -0
124 228 -0
125 228 -0
126 228 -0
127 228 -0
128 228 -0
129 228 -0
130 228 -0
131 228 -0
132 228 -0
133 228 -0
134 228 -0
135 228 -0
136 228 -0
137 228 -0
138 228 -0
139 228 -0
140 228 -0
141 228 -0
142 228 -0
143 228 -0
144 228 -0
145 228 -0
146 228 -0
147 228 -0
148 228 -0
149 228 -0
150 228 -0
151 228 -0
152 228 -0
153 228 -0
154 228 -0
155 228 -0
156 228 -0
157 228 -0
158 228 -0
159 228 -0
160 228 -0
161 228 -0
162 228 -0
163 228 -0
164 228 -0
165 228 -0
166 228 -0
167 228 -0
168 228 -0
169 228 -0
170 228 -0
171 228 -0
172 228 -0
173 228 -0
174 228 -0
175 228 -0
176 228 -0
177 228 -0
178 228 -0
179 228 -0
180 228 -0
181 228 -0
182 228 -0
183 228 -0
184 228 -0
185 228 -0
186 228 -0
187 228 -0
188 228 -0
189 228 -0
190 228 -0
191 228 -0
192 228 -0
193 228 -0
194 228 -0
195 228 -0
196 228 -0
197 228 -0
198 228 -0
199 228 -0
200 228 -0
201 228 -0
202 228 -0
203 228 -0
204 228 -0
205 228 -0
206 228 -0
207 228 -0
208 228 -0
209 228 -0
210 228 -0
211 228 -0
212 228 -0
213 228 -0
214 228 -0
215 228 -0
216 228 -0
217 228 -0
218 228 -0
219 228 -0
220 228 -0
221 228 -0
222 228 -0
223 228 -0
224 228 -0
225 228 -0
226 228 -0
227 228 -0
228 228 -0
229 228 -0
230 228 -0
231 228 -0
232 228 -0
233 228 -0
234 228 -0
235 228 -0
236 228 -0
237 228 -0
238 228 -0
239 228 -0
240 228 -0
121 229 -0
122 229 -0
123 229 -0
124 229 -0
125 229 -0
126 229 -0
127 229 -0
128 229 -0
129 229 -0
130 229 -0
131 229 -0
132 229 -0
133 229 -0
134 229 -0
135 229 -0
136 229 -0
137 229 -0
138 229 -0
139 229 -0
140 229 -0
141 229 -0
142 229 -0
143 229 -0
144 229 -0
145 229 -0
146 229 -0
147 229 -0
148 229 -0
149 229 -0
150 229 -0
151 229 -0
152 229 -0
153 229 -0
154 229 -0
155 229 -0
156 229 -0
157 229 -0
158 229 -0
159 229 -0
160 229 -0
161 229 -0
162 229 -0
163 229 -0
164 229 -0
165 229 -0
166 229 -0
167 229 -0
168 229 -0
169 229 -0
170 229 -0
171 229 -0
172 229 -0
173 229 -0
174 229 -0
175 229 -0
176 229 -0
177 229 -0
178 229 -0
179 229 -0
180 229 -0
181 229 -0
182 229 -0
183 229 -0
184 229 -0
185 229 -0
186 229 -0
187 229 -0
188 229 -0
189 229 -0
190 229 -0
191 229 -0
192 229 -0
193 229 -0
194 229 -0
195 229 -0
196 229 -0
197 229 -0
198 229 -0
199 229 -0
200 229 -0
201 229 -0
202 229 -0
203 229 -0
204 229 -0
205 229 -0
206 229 -0
207 229 -0
208 229 -0
209 229 -0
210 229 -0
211 229 -0
212 229 -0
213 229 -0
214 229 -0
215 229 -0
216 229 -0.9779954441855957
217 229 -0
218 229 -0
219 229 -0
220 229 -0
221 229 -0
222 229 -0
223 229 -0
224 229 -0
225 229 -0
226 229 -0
227 229 -0
228 229 -0
229 229 -0
230 229 -0
231 229 -0
232 229 -0
233 229 -0
234 229 -0
235 229 -0
236 229 -0
237 229 -0
238 229 -0
239 229 -0
240 229 -0
121 230 -0
122 230 -0
123 230 -0
124 230 -0
125 230 -0
126 230 -0
127 230 -0
128 230 -0
129 230 -0
130 230 -0
131 230 -0
132 230 -0
133 230 -0
134 230 -0
135 230 -0
136 230 -0
137 230 -0
138 230 -0
139 230 -0
140 230 -0
141 230 -0
142 230 -0
143 230 -0
144 230 -0
145 230 -0
146 230 -0
147 230 -0
148 230 -0
149 230 -0
150 230 -0
151 230 -0
152 230 -0
153 230 -0
154 230 -0
155 230 -0
156 230 -0
157 230 -0
158 230 -0
159 230 -0
160 230 -0
161 230 -0
162 230 -0
163 230 -0
164 230 -0
165 230 -0
166 230 -0
167 230 -0
168 230 -0
169 230 -0
170 230 -0
171 230 -0
172 230 -0
173 230 -0
174 230 -0
175 230 -0
176 230 -0
177 230 -0
178 230 -0
179 230 -0
180 230 -0
181 230 -0
182 230 -0
183 230 -0
184 230 -0
185 230 -0
186 230 -0
187 230 -0
188 230 -0
189 230 -0
190 230 -0
191 230 -0
192 230 -0
193 230 -0
194 230 -0
195 230 -0
196 230 -0
197 230 -0
198 230 -0
199 230 -0
200 230 -0
201 230 -0
202 230 -0
203 230 -0
204 230 -0
205 230 -0
206 230 -0
207 230 -0
208 230 -0
209 230 -0
210 230 -0
211 230 -0
212 230 -0
213 230 -0
214 230 -0
215 230 -0
216 230 -0
217 230 -0.9779954441855957
218 230 -0
219 230 -0
220 230 -0
221 230 -0
222 230 -0
223 230 -0
224 230 -0
225 230 -0
226 230 -0
227 230 -0
228 230 -0
229 230 -0
230 230 -0
231 230 -0
232 230 -0
233 230 -0
234 230 -0
235 230 -0
236 230 -0
237 230 -0
238 230 -0
239 230 -0
240 230 -0
121 231 -0
122 231 -0
123 231 -0
124 231 -0
125 231 -0
126 231 -0
127 231 -0
128 231 -0
129 231 -0
130 231 -0
131 231 -0
132 231 -0
133 231 -0
134 231 -0
135 231 -0
136 231 -0
137 231 -0
138 231 -0
139 231 -0
140 231 -0
141 231 -0
142 231 -0
143 231 -0
144 231 -0
145 231 -0
146 231 -0
147 231 -0
148 231 -0
149 231 -0
150 231 -0
151 231 -0
152 231 -0
153 231 -0
154 231 -0
155 231 -0
156 231 -0
157 231 -0
158 231 -0
159 231 -0
160 231 -0
161 231 -0
162 231 -0
163 231 -0
164 231 -0
165 231 -0
166 231 -0
167 231 -0
168 231 -0
169 231 -0
170 231 -0
171 231 -0
172 231 -0
173 231 -0
174 231 -0
175 231 -0
176 231 -0
177 231 -0
178 231 -0
179 231 -0
180 231 -0
181 231 -0
182 231 -0
183 231 -0
184 231 -0
185 231 -0
186 231 -0
187 231 -0
188 231 -0
189 231 -0
190 231 -0
191 231 -0
192 231 -0
193 231 -0
194 231 -0
195 231 -0
196 231 -0
197 231 -0
198 231 -0
199 231 -0
200 231 -0
201 231 -0
202 231 -0
203 231 -0
204 231 -0
205 231 -0
206 231 -0
207 231 -0
208 231 -0
209 231 -0
210 231 -0
211 231 -0
212 231 -0
213 231 -0
214 231 -0
215 231 -0
216 231 -0
217 231 -0
218 231 -0.9779954441855957
219 231 -0
220 231 -0
221 231 -0
222 231 -0
223 231 -0
224 231 -0
225 231 -0
226 231 -0
227 231 -0
228 231 -0
229 231 -0
230 231 -0
231 231 -0
232 231 -0
233 231 -0
234 231 -0
235 231 -0
236 231 -0
237 231 -0
238 231 -0
239 231 -0
240 231 -0
121 232 -0
122 232 -0
123 232 -0
124 232 -0
125 232 -0
126 232 -0
127 232 -0
128 232 -0
129 232 -0
130 232 -0
131 232 -0
132 232 -0
133 232 -0
134 232 -0
135 232 -0
136 232 -0
137 232 -0
138 232 -0
139 232 -0
140 232 -0
141 232 -0
142 232 -0
143 232 -0
144 232 -0
145 232 -0
146 232 -0
147 232 -0
148 232 -0
149 232 -0
150 232 -0
151 232 -0
152 232 -0
153 232 -0
154 232 -0
155 232 -0
156 232 -0
157 232 -0
158 232 -0
159 232 -0
160 232 -0
161 232 -0
162 232 -0
163 232 -0
164 232 -0
165 232 -0
166 232 -0
167 232 -0
168 232 -0
169 232 -0
170 232 -0
171 232 -0
172 232 -0
173 232 -0
174 232 -0
175 232 -0
176 232 -0
177 232 -0
178 232 -0
179 232 -0
180 232 -0
181 232 -0
182 232 -0
183 232 -0
184 232 -0
185 232 -0
186 232 -0
187 232 -0
188 232 -0
189 232 -0
190 232 -0
191 232 -0
192 232 -0
193 232 -0
194 232 -0
195 232 -0
196 232 -0
197 232 -0
198 232 -0
199 232 -0
200 232 -0
201 232 -0
202 232 -0
203 232 -0
204 232 -0
205 232 -0
206 232 -0
207 232 -0
208 232 -0
209 232 -0
210 232 -0
211 232 -0
212 232 -0
213 232 -0
214 232 -0
215 232 -0
216 232 -0
217 232 -0
218 232 -0
219 232 -0.9779954441855957
220 232 -0
221 232 -0
222 232 -0
223 232 -0
224 232 -0
225 232 -0
226 232 -0
227 232 -0
228 232 -0
229 232 -0
230 232 -0
231 232 -0
232 232 -0
233 232 -0
234 232 -0
235 232 -0
236 232 -0
237 232 -0
238 232 -0
239 232 -0
240 232 -0
121 233 -0
122 233 -0
123 233 -0
124 233 -0
125 233 -0
126 233 -0
127 233 -0
128 233 -0
129 233 -0
130 233 -0
131 233 -0
132 233 -0
133 233 -0
134 233 -0
135 233 -0
136 233 -0
137 233 -0
138 233 -0
139 233 -0
140 233 -0
141 233 -0
142 233 -0
143 233 -0
144 233 -0
145 233 -0
146 233 -0
147 233 -0
148 233 -0
149 233 -0
150 233 -0
151 233 -0
152 233 -0
153 233 -0
154 233 -0
155 233 -0
156 233 -0
157 233 -0
158 233 -0
159 233 -0
160 233 -0
161 233 -0
162 233 -0
163 233 -0
164 233 -0
165 233 -0
166 233 -0
167 233 -0
168 233 -0
169 233 -0
170 233 -0
171 233 -0
172 233 -0
173 233 -0
174 233 -0
175 233 -0
176 233 -0
177 233 -0
178 233 -0
179 233 -0
180 233 -0
181 233 -0
182 233 -0
183 233 -0
184 233 -0
185 233 -0
186 233 -0
187 233 -0
188 233 -0
189 233 -0
190 233 -0
191 233 -0
192 233 -0
193 233 -0
194 233 -0
195 233 -0
196 233 -0
197 233 -0
198 233 -0
199 233 -0
200 233 -0
201 233 -0
202 233 -0
203 233 -0
204 233 -0
205 233 -0
206 233 -0
207 233 -0
208 233 -0
209 233 -0
210 233 -0
211 233 -0
212 233 -0
213 233 -0
214 233 -0
215 233 -0
216 233 -0
217 233 -0
218 233 -0
219 233 -0
220 233 -0.9779954441855957
221 233 -0
222 233 -0
223 233 -0
224 233 -0
225 233 -0
226 233 -0
227 233 -0
228 233 -0
229 233 -0
230 233 -0
231 233 -0
232 233 -0
233 233 -0
234 233 -0
235 233 -0
236 233 -0
237 233 -0
238 233 -0
239 233 -0
240 233 -0
121 234 -0
122 234 -0
123 234 -0
124 234 -0
125 234 -0
126 234 -0
127 234 -0
128 234 -0
129 234 -0
130 234 -0
131 234 -0
132 234 -0
133 234 -0
134 234 -0
135 234 -0
136 234 -0
137 234 -0
138 234 -0
139 234 -0
140 234 -0
141 234 -0
142 234 -0
143 234 -0
144 234 -0
145 234 -0
146 234 -0
147 234 -0
148 234 -0
149 234 -0
150 234 -0
151 234 -0
152 234 -0
153 234 -0
154 234 -0
155 234 -0
156 234 -0
157 234 -0
158 234 -0
159 234 -0
160 234 -0
161 234 -0
162 234 -0
163 234 -0
164 234 -0
165 234 -0
166 234 -0
167 234 -0
168 234 -0
169 234 -0
170 234 -0
171 234 -0
172 234 -0
173 234 -0
174 234 -0
175 234 -0
176 234 -0
177 234 -0
178 234 -0
179 234 -0
180 234 -0
181 234 -0
182 234 -0
183 234 -0
184 234 -0
185 234 -0
186 234 -0
187 234 -0
188 234 -0
189 234 -0
190 234 -0
191 234 -0
192 234 -0
193 234 -0
194 234 -0
195 234 -0
196 234 -0
197 234 -0
198 234 -0
199 234 -0
200 234 -0
201 234 -0
202 234 -0
203 234 -0
204 234 -0
205 234 -0
206 234 -0
207 234 -0
208 234 -0
209 234 -0
210 234 -0
211 234 -0
212 234 -0
213 234 -0
214 234 -0
215 234 -0
216 234 -0
217 234 -0
218 234 -0
219 234 -0
220 234 -0
221 234 -0
222 234 -0
223 234 -0
224 234 -0
225 234 -0
226 234 -0
227 234 -0
228 234 -0
229 234 -0
230 234 -0
231 234 -0
232 234 -0
233 234 -0
234 234 -0
235 234 -0
236 234 -0
237 234 -0
238 234 -0
239 234 -0
240 234 -0
121 235 -0
122 235 -0
123 235 -0
124 235 -0
125 235 -0
126 235 -0
127 235 -0
128 235 -0
129 235 -0
130 235 -0
131 235 -0
132 235 -0
133 235 -0
134 235 -0
135 235 -0
136 235 -0
137 235 -0
138 235 -0
139 235 -0
140 235 -0
141 235 -0
142 235 -0
143 235 -0
144 235 -0
145 235 -0
146 235 -0
147 235 -0
148 235 -0
149 235 -0
150 235 -0
151 235 -0
152 235 -0
153 235 -0
154 235 -0
155 235 -0
156 235 -0
157 235 -0
158 235 -0
159 235 -0
160 235 -0
161 235 -0
162 235 -0
163 235 -0
164 235 -0
165 235 -0
166 235 -0
167 235 -0
168 235 -0
169 235 -0
170 235 -0
171 235 -0
172 235 -0
173 235 -0
174 235 -0
175 235 -0
176 235 -0
177 235 -0
178 235 -0
179 235 -0
180 235 -0
181 235 -0
182 235 -0
183 235 -0
184 235 -0
185 235 -0
186 235 -0
187 235 -0
188 235 -0
189 235 -0
190 235 -0
191 235 -0
192 235 -0
193 235 -0
194 235 -0
195 235 -0
196 235 -0
197 235 -0
198 235 -0
199 235 -0
200 235 -0
201 235 -0
202 235 -0
203 235 -0
204 235 -0
205 235 -0
206 235 -0
207 235 -0
208 235 -0
209 235 -0
210 235 -0
211 235 -0
212 235 -0
213 235 -0
214 235 -0
215 235 -0
216 235 -0
217 235 -0
218 235 -0
219 235 -0
220 235 -0
221 235 -0
222 235 -0
223 235 -0
224 235 -0
225 235 -0
226 235 -0
227 235 -0
228 235 -0
229 235 -0
230 235 -0
231 235 -0
232 235 -0
233 235 -0
234 235 -0
235 235 -0
236 235 -0
237 235 -0
238 235 -0
239 235 -0
240 235 -0
121 236 -0
122 236 -0
123 236 -0
124 236 -0
125 236 -0
126 236 -0
127 236 -0
128 236 -0
129 236 -0
130 236 -0
131 236 -0
132 236 -0
133 236 -0
134 236 -0
135 236 -0
136 236 -0
137 236 -0
138 236 -0
139 236 -0
140 236 -0
141 236 -0
142 236 -0
143 236 -0
144 236 -0
145 236 -0
146 236 -0
147 236 -0
148 236 -0
149 236 -0
150 236 -0
151 236 -0
152 236 -0
153 236 -0
154 236 -0
155 236 -0
156 236 -0
157 236 -0
158 236 -0
159 236 -0
160 236 -0
161 236 -0
162 236 -0
163 236 -0
164 236 -0
165 236 -0
166 236 -0
167 236 -0
168 236 -0
169 236 -0
170 236 -0
171 236 -0
172 236 -0
173 236 -0
174 236 -0
175 236 -0
176 236 -0
177 236 -0
178 236 -0
179 236 -0
180 236 -0
181 236 -0
182 236 -0
183 236 -0
184 236 -0
185 236 -0
186 236 -0
187 236 -0
188 236 -0
189 236 -0
190 236 -0
191 236 -0
192 236 -0
193 236 -0
194 236 -0
195 236 -0
196 236 -0
197 236 -0
198 236 -0
199 236 -0
200 236 -0
201 236 -0
202 236 -0
203 236 -0
204 236 -0
205 236 -0
206 236 -0
207 236 -0
208 236 -0
209 236 -0
210 236 -0
211 236 -0
212 236 -0
213 236 -0
214 236 -0
215 236 -0
216 236 -0
217 236 -0
218 236 -0
219 236 -0
220 236 -0
221 236 -0
222 236 -0
223 236 -0
224 236 -0
225 236 -0
226 236 -0
227 236 -0
228 236 -0
229 236 -0
230 236 -0
231 236 -0
232 236 -0
233 236 -0
234 236 -0
235 236 -0
236 236 -0
237 236 -0
238 236 -0
239 236 -0
240 236 -0
121 237 -0
122 237 -0
123 237 -0
124 237 -0
125 237 -0
126 237 -0
127 237 -0
128 237 -0
129 237 -0
130 237 -0
131 237 -0
132 237 -0
133 237 -0
134 237 -0
135 237 -0
136 237 -0
137 237 -0
138 237 -0
139 237 -0
140 237 -0
141 237 -0
142 237 -0
143 237 -0
144 237 -0
145 237 -0
146 237 -0
147 237 -0
148 237 -0
149 237 -0
150 237 -0
151 237 -0
152 237 -0
153 237 -0
154 237 -0
155 237 -0
156 237 -0
157 237 -0
158 237 -0
159 237 -0
160 237 -0
161 237 -0
162 237 -0
163 237 -0
164 237 -0
165 237 -0
166 237 -0
167 237 -0
168 237 -0
169 237 -0
170 237 -0
171 237 -0
172 237 -0
173 237 -0
174 237 -0
175 237 -0
176 237 -0
177 237 -0
178 237 -0
179 237 -0
180 237 -0
181 237 -0
182 237 -0
183 237 -0
184 237 -0
185 237 -0
186 237 -0
187 237 -0
188 237 -0
189 237 -0
190 237 -0
191 237 -0
192 237 -0
193 237 -0
194 237 -0
195 237 -0
196 237 -0
197 237 -0
198 237 -0
199 237 -0
200 237 -0
201 237 -0
202 237 -0
203 237 -0
204 237 -0
205 237 -0
206 237 -0
207 237 -0
208 237 -0
209 237 -0
210 237 -0
211 237 -0
212 237 -0
213 237 -0
214 237 -0
215 237 -0
216 237 -0
217 237 -0
218 237 -0
219 237 -0
220 237 -0
221 237 -0
222 237 -0
223 237 -0
224 237 -0
225 237 -0
226 237 -0
227 237 -0
228 237 -0
229 237 -0
230 237 -0
231 237 -0
232 237 -0
233 237 -0
234 237 -0
235 237 -0
236 237 -0
237 237 -0
238 237 -0
239 237 -0
240 237 -0
121 238 -0
122 238 -0
123 238 -0
124 238 -0
125 238 -0
126 238 -0
127 238 -0
128 238 -0
129 238 -0
130 238 -0
131 238 -0
132 238 -0
133 238 -0
134 238 -0
135 238 -0
136 238 -0
137 238 -0
138 238 -0
139 238 -0
140 238 -0
141 238 -0
142 238 -0
143 238 -0
144 238 -0
145 238 -0
146 238 -0
147 238 -0
148 238 -0
149 238 -0
150 238 -0
151 238 -0
152 238 -0
153 238 -0
154 238 -0
155 238 -0
156 238 -0
157 238 -0
158 238 -0
159 238 -0
160 238 -0
161 238 -0
162 238 -0
163 238 -0
164 238 -0
165 238 -0
166 238 -0
167 238 -0
168 238 -0
169 238 -0
170 238 -0
171 238 -0
172 238 -0
173 238 -0
174 238 -0
175 238 -0
176 238 -0
177 238 -0
178 238 -0
179 238 -0
180 238 -0
181 238 -0
182 238 -0
183 238 -0
184 238 -0
185 238 -0
186 238 -0
187 238 -0
188 238 -0
189 238 -0
190 238 -0
191 238 -0
192 238 -0
193 238 -0
194 238 -0
195 238 -0
196 238 -0
197 238 -0
198 238 -0
199 238 -0
200 238 -0
201 238 -0
202 238 -0
203 238 -0
204 238 -0
205 238 -0
206 238 -0
207 238 -0
208 238 -0
209 238 -0
210 238 -0
211 238 -0
212 238 -0
213 238 -0
214 238 -0
215 238 -0
216 238 -0
217 238 -0
218 238 -0
219 238 -0
220 238 -0
221 238 -0
222 238 -0
223 238 -0
224 238 -0
225 238 -0
226 238 -0
227 238 -0
228 238 -0
229 238 -0
230 238 -0
231 238 -0
232 238 -0
233 238 -0
234 238 -0
235 238 -0
236 238 -0
237 238 -0
238 238 -0
239 238 -0
240 238 -0
121 239 -0
122 239 -0
123 239 -0
124 239 -0
125 239 -0
126 239 -0
127 239 -0
128 239 -0
129 239 -0
130 239 -0
131 239 -0
132 239 -0
133 239 -0
134 239 -0
135 239 -0
136 239 -0
137 239 -0
138 239 -0
139 239 -0
140 239 -0
141 239 -0
142 239 -0
143 239 -0
144 239 -0
145 239 -0
146 239 -0
147 239 -0
148 239 -0
149 239 -0
150 239 -0
151 239 -0
152 239 -0
153 239 -0
154 239 -0
155 239 -0
156 239 -0
157 239 -0
158 239 -0
159 239 -0
160 239 -0
161 239 -0
162 239 -0
163 239 -0
164 239 -0
165 239 -0
166 239 -0
167 239 -0
168 239 -0
169 239 -0
170 239 -0
171 239 -0
172 239 -0
173 239 -0
174 239 -0
175 239 -0
176 239 -0
177 239 -0
178 239 -0
179 239 -0
180 239 -0
181 239 -0
182 239 -0
183 239 -0
184 239 -0
185 239 -0
186 239 -0
187 239 -0
188 239 -0
189 239 -0
190 239 -0
191 239 -0
192 239 -0
193 239 -0
194 239 -0
195 239 -0
196 239 -0
197 239 -0
198 239 -0
199 239 -0
200 239 -0
201 239 -0
202 239 -0
203 239 -0
204 239 -0
205 239 -0
206 239 -0
207 239 -0
208 239 -0
209 239 -0
210 239 -0
211 239 -0
212 239 -0
213 239 -0
214 239 -0
215 239 -0
216 239 -0
217 239 -0
218 239 -0
219 239 -0
220 239 -0
221 239 -0
222 239 -0
223 239 -0
224 239 -0
225 239 -0
226 239 -0
227 239 -0
228 239 -0
229 239 -0
230 239 -0
231 239 -0
232 239 -0
233 239 -0
234 239 -0
235 239 -0
236 239 -0
237 239 -0
238 239 -0
239 239 -0
240 239 -0
121 240 -0
122 240 -0
123 240 -0
124 240 -0
125 240 -0
126 240 -0
127 240 -0
128 240 -0
129 240 -0
130 240 -0
131 240 -0
132 240 -0
133 240 -0
134 240 -0
135 240 -0
136 240 -0
137 240 -0
138 240 -0
139 240 -0
140 240 -0
141 240 -0
142 240 -0
143 240 -0
144 240 -0
145 240 -0
146 240 -0
147 240 -0
148 240 -0
149 240 -0
150 240 -0
151 240 -0
152 240 -0
153 240 -0
154 240 -0
155 240 -0
156 240 -0
157 240 -0
158 240 -0
159 240 -0
160 240 -0
161 240 -0
162 240 -0
163 240 -0
164 240 -0
165 240 -0
166 240 -0
167 240 -0
168 240 -0
169 240 -0
170 240 -0
171 240 -0
172 240 -0
173 240 -0
174 240 -0
175 240 -0
176 240 -0
177 240 -0
178 240 -0
179 240 -0
180 240 -0
181 240 -0
182 240 -0
183 240 -0
184 240 -0
185 240 -0
186 240 -0
187 240 -0
188 240 -0
189 240 -0
190 240 -0
191 240 -0
192 240 -0
193 240 -0
194 240 -0
195 240 -0
196 240 -0
197 240 -0
198 240 -0
199 240 -0
200 240 -0
201 240 -0
202 240 -0
203 240 -0
204 240 -0
205 240 -0
206 240 -0
207 240 -0
208 240 -0
209 240 -0
210 240 -0
211 240 -0
212 240 -0
213 240 -0
214 240 -0
215 240 -0
216 240 -0
217 240 -0
218 240 -0
219 240 -0
220 240 -0
221 240 -0
222 240 -0
223 240 -0
224 240 -0
225 240 -0
226 240 -0
227 240 -0
228 240 -0
229 240 -0
230 240 -0
231 240 -0
232 240 -0
233 240 -0
234 240 -0
235 240 -0
236 240 -0
237 240 -0
238 240 -0
239 240 -0
240 240 -0
121 241 -0
122 241 -0
123 241 -0
124 241 -0
125 241 -0
126 241 -0
127 241 -0
128 241 -0
129 241 -0
130 241 -0
131 241 -0
132 241 -0
133 241 -0
134 241 -0
135 241 -0
136 241 -0
137 241 -0
138 241 -0
139 241 -0
140 241 -0
141 241 -0
142 241 -0
143 241 -0
144 241 -0
145 241 -0
146 241 -0
147 241 -0
148 241 -0
149 241 -0
150 241 -0
151 241 -0
152 241 -0
153 241 -0
154 241 -0
155 241 -0
156 241 -0
157 241 -0
158 241 -0
159 241 -0
160 241 -0
161 241 -0
162 241 -0
163 241 -0
164 241 -0
165 241 -0
166 241 -0
167 241 -0
168 241 -0
169 241 -0
170 241 -0
171 241 -0
172 241 -0
173 241 -0
174 241 -0
175 241 -0
176 241 -0
177 241 -0
178 241 -0
179 241 -0
180 241 -0
181 241 -0
182 241 -0
183 241 -0
184 241 -0
185 241 -0
186 241 -0
187 241 -0
188 241 -0
189 241 -0
190 241 -0
191 241 -0
192 241 -0
193 241 -0
194 241 -0
195 241 -0
196 241 -0
197 241 -0
198 241 -0
199 241 -0
200 241 -0
201 241 -0
202 241 -0
203 241 -0
204 241 -0
205 241 -0
206 241 -0
207 241 -0
208 241 -0
209 241 -0
210 241 -0
211 241 -0
212 241 -0
213 241 -0
214 241 -0
215 241 -0
216 241 -0
217 241 -0
218 241 -0
219 241 -0
220 241 -0
221 241 -0.9779954441855957
222 241 -0
223 241 -0
224 241 -0
225 241 -0
226 241 -0
227 241 -0
228 241 -0
229 241 -0
230 241 -0
231 241 -0
232 241 -0
233 241 -0
234 241 -0
235 241 -0
236 241 -0
237 241 -0
238 241 -0
239 241 -0
240 241 -0
121 242 -0
122 242 -0
123 242 -0
124 242 -0
125 242 -0
126 242 -0
127 242 -0
128 242 -0
129 242 -0
130 242 -0
131 242 -0
132 242 -0
133 242 -0
134 242 -0
135 242 -0
136 242 -0
137 242 -0
138 242 -0
139 242 -0
140 242 -0
141 242 -0
142 242 -0
143 242 -0
144 242 -0
145 242 -0
146 242 -0
147 242 -0
148 242 -0
149 242 -0
150 242 -0
151 242 -0
152 242 -0
153 242 -0
154 242 -0
155 242 -0
156 242 -0
157 242 -0
158 242 -0
159 242 -0
160 242 -0
161 242 -0
162 242 -0
163 242 -0
164 242 -0
165 242 -0
166 242 -0
167 242 -0
168 242 -0
169 242 -0
170 242 -0
171 242 -0
172 242 -0
173 242 -0
174 242 -0
175 242 -0
176 242 -0
177 242 -0
178 242 -0
179 242 -0
180 242 -0
181 242 -0
182 242 -0
183 242 -0
184 242 -0
185 242 -0
186 242 -0
187 242 -0
188 242 -0
189 242 -0
190 242 -0
191 242 -0
192 242 -0
193 242 -0
194 242 -0
195 242 -0
196 242 -0
197 242 -0
198 242 -0
199 242 -0
200 242 -0
201 242 -0
202 242 -0
203 242 -0
204 242 -0
205 242 -0
206 242 -0
207 242 -0
208 242 -0
209 242 -0
210 242 -0
211 242 -0
212 242 -0
213 242 -0
214 242 -0
215 242 -0
216 242 -0
217 242 -0
218 242 -0
219 242 -0
220 242 -0
221 242 -0
222 242 -0.9779954441855957
223 242 -0
224 242 -0
225 242 -0
226 242 -0
227 242 -0
228 242 -0
229 242 -0
230 242 -0
231 242 -0
232 242 -0
233 242 -0
234 242 -0
235 242 -0
236 242 -0
237 242 -0
238 242 -0
239 242 -0
240 242 -0
121 243 -0
122 243 -0
123 243 -0
124 243 -0
125 243 -0
126 243 -0
127 243 -0
128 243 -0
129 243 -0
130 243 -0
131 243 -0
132 243 -0
133 243 -0
134 243 -0
135 243 -0
136 243 -0
137 243 -0
138 243 -0
139 243 -0
140 243 -0
141 243 -0
142 243 -0
143 243 -0
144 243 -0
145 243 -0
146 243 -0
147 243 -0
148 243 -0
149 243 -0
150 243 -0
151 243 -0
152 243 -0
153 243 -0
154 243 -0
155 243 -0
156 243 -0
157 243 -0
158 243 -0
159 243 -0
160 243 -0
161 243 -0
162 243 -0
163 243 -0
164 243 -0
165 243 -0
166 243 -0
167 243 -0
168 243 -0
169 243 -0
170 243 -0
171 243 -0
172 243 -0
173 243 -0
174 243 -0
175 243 -0
176 243 -0
177 243 -0
178 243 -0
179 243 -0
180 243 -0
181 243 -0
182 243 -0
183 243 -0
184 243 -0
185 243 -0
186 243 -0
187 243 -0
188 243 -0
189 243 -0
190 243 -0
191 243 -0
192 243 -0
193 243 -0
194 243 -0
195 243 -0
196 243 -0
197 243 -0
198 243 -0
199 243 -0
200 243 -0
201 243 -0
202 243 -0
203 243 -0
204 243 -0
205 243 -0
206 243 -0
207 243 -0
208 243 -0
209 243 -0
210 243 -0
211 243 -0
212 243 -0
213 243 -0
214 243 -0
215 243 -0
216 243 -0
217 243 -0
218 243 -0
219 243 -0
220 243 -0
221 243 -0
222 243 -0
223 243 -0.9779954441855957
224 243 -0
225 243 -0
226 243 -0
227 243 -0
228 243 -0
229 243 -0
230 243 -0
231 243 -0
232 243 -0
233 243 -0
234 243 -0
235 243 -0
236 243 -0
237 243 -0
238 243 -0
239 243 -0
240 243 -0
121 244 -0
122 244 -0
123 244 -0
124 244 -0
125 244 -0
126 244 -0
127 244 -0
128 244 -0
129 244 -0
130 244 -0
131 244 -0
132 244 -0
133 244 -0
134 244 -0
135 244 -0
136 244 -0
137 244 -0
138 244 -0
139 244 -0
140 244 -0
141 244 -0
142 244 -0
143 244 -0
144 244 -0
145 244 -0
146 244 -0
147 244 -0
148 244 -0
149 244 -0
150 244 -0
151 244 -0
152 244 -0
153 244 -0
154 244 -0
155 244 -0
156 244 -0
157 244 -0
158 244 -0
159 244 -0
160 244 -0
161 244 -0
162 244 -0
163 244 -0
164 244 -0
165 244 -0
166 244 -0
167 244 -0
168 244 -0
169 244 -0
170 244 -0
171 244 -0
172 244 -0
173 244 -0
174 244 -0
175 244 -0
176 244 -0
177 244 -0
178 244 -0
179 244 -0
180 244 -0
181 244 -0
182 244 -0
183 244 -0
184 244 -0
185 244 -0
186 244 -0
187 244 -0
188 244 -0
189 244 -0
190 244 -0
191 244 -0
192 244 -0
193 244 -0
194 244 -0
195 244 -0
196 244 -0
197 244 -0
198 244 -0
199 244 -0
200 244 -0
201 244 -0
202 244 -0
203 244 -0
204 244 -0
205 244 -0
206 244 -0
207 244 -0
208 244 -0
209 244 -0
210 244 -0
211 244 -0
212 244 -0
213 244 -0
214 244 -0
215 244 -0
216 244 -0
217 244 -0
218 244 -0
219 244 -0
220 244 -0
221 244 -0
222 244 -0
223 244 -0
224 244 -0.9779954441855957
225 244 -0
226 244 -0
227 244 -0
228 244 -0
229 244 -0
230 244 -0
231 244 -0
232 244 -0
233 244 -0
234 244 -0
235 244 -0
236 244 -0
237 244 -0
238 244 -0
239 244 -0
240 244 -0
121 245 -0
122 245 -0
123 245 -0
124 245 -0
125 245 -0
126 245 -0
127 245 -0
128 245 -0
129 245 -0
130 245 -0
131 245 -0
132 245 -0
133 245 -0
134 245 -0
135 245 -0
136 245 -0
137 245 -0
138 245 -0
139 245 -0
140 245 -0
141 245 -0
142 245 -0
143 245 -0
144 245 -0
145 245 -0
146 245 -0
147 245 -0
148 245 -0
149 245 -0
150 245 -0
151 245 -0
152 245 -0
153 245 -0
154 245 -0
155 245 -0
156 245 -0
157 245 -0
158 245 -0
159 245 -0
160 245 -0
161 245 -0
162 245 -0
163 245 -0
164 245 -0
165 245 -0
166 245 -0
167 245 -0
168 245 -0
169 245 -0
170 245 -0
171 245 -0
172 245 -0
173 245 -0
174 245 -0
175 245 -0
176 245 -0
177 245 -0
178 245 -0
179 245 -0
180 245 -0
181 245 -0
182 245 -0
183 245 -0
184 245 -0
185 245 -0
186 245 -0
187 245 -0
188 245 -0
189 245 -0
190 245 -0
191 245 -0
192 245 -0
193 245 -0
194 245 -0
195 245 -0
196 245 -0
197 245 -0
198 245 -0
199 245 -0
200 245 -0
201 245 -0
202 245 -0
203 245 -0
204 245 -0
205 245 -0
206 245 -0
207 245 -0
208 245 -0
209 245 -0
210 245 -0
211 245 -0
212 245 -0
213 245 -0
214 245 -0
215 245 -0
216 245 -0
217 245 -0
218 245 -0
219 245 -0
220 245 -0
221 245 -0
222 245 -0
223 245 -0
224 245 -0
225 245 -0.9779954441855957
226 245 -0
227 245 -0
228 245 -0
229 245 -0
230 245 -0
231 245 -0
232 245 -0
233 245 -0
234 245 -0
235 245 -0
236 245 -0
237 245 -0
238 245 -0
239 245 -0
240 245 -0
121 246 -0
122 246 -0
123 246 -0
124 246 -0
125 246 -0
126 246 -0
127 246 -0
128 246 -0
129 246 -0
130 246 -0
131 246 -0
132 246 -0
133 246 -0
134 246 -0
135 246 -0
136 246 -0
137 246 -0
138 246 -0
139 246 -0
140 246 -0
141 246 -0
142 246 -0
143 246 -0
144 246 -0
145 246 -0
146 246 -0
147 246 -0
148 246 -0
149 246 -0
150 246 -0
151 246 -0
152 246 -0
153 246 -0
154 246 -0
155 246 -0
156 246 -0
157 246 -0
158 246 -0
159 246 -0
160 246 -0
161 246 -0
162 246 -0
163 246 -0
164 246 -0
165 246 -0
166 246 -0
167 246 -0
168 246 -0
169 246 -0
170 246 -0
171 246 -0
172 246 -0
173 246 -0
174 246 -0
175 246 -0
176 246 -0
177 246 -0
178 246 -0
179 246 -0
180 246 -0
181 246 -0
182 246 -0
183 246 -0
184 246 -0
185 246 -0
186 246 -0
187 246 -0
188 246 -0
189 246 -0
190 246 -0
191 246 -0
192 246 -0
193 246 -0
194 246 -0
195 246 -0
196 246 -0
197 246 -0
198 246 -0
199 246 -0
200 246 -0
201 246 -0
202 246 -0
203 246 -0
204 246 -0
205 246 -0
206 246 -0
207 246 -0
208 246 -0
209 246 -0
210 246 -0
211 246 -0
212 246 -0
213 246 -0
214 246 -0
215 246 -0
216 246 -0
217 246 -0
218 246 -0
219 246 -0
220 246 -0
221 246 -0
222 246 -0
223 246 -0
224 246 -0
225 246 -0
226 246 -0
227 246 -0
228 246 -0
229 246 -0
230 246 -0
231 246 -0
232 246 -0
233 246 -0
234 246 -0
235 246 -0
236 246 -0
237 246 -0
238 246 -0
239 246 -0
240 246 -0
121 247 -0
122 247 -0
123 247 -0
124 247 -0
125 247 -0
126 247 -0
127 247 -0
128 247 -0
129 247 -0
130 247 -0
131 247 -0
132 247 -0
133 247 -0
134 247 -0
135 247 -0
136 247 -0
137 247 -0
138 247 -0
139 247 -0
140 247 -0
141 247 -0
142 247 -0
143 247 -0
144 247 -0
145 247 -0
146 247 -0
147 247 -0
148 247 -0
149 247 -0
150 247 -0
151 247 -0
152 247 -0
153 247 -0
154 247 -0
155 247 -0
156 247 -0
157 247 -0
158 247 -0
159 247 -0
160 247 -0
161 247 -0
162 247 -0
163 247 -0
164 247 -0
165 247 -0
166 247 -0
167 247 -0
168 247 -0
169 247 -0
170 247 -0
171 247 -0
172 247 -0
173 247 -0
174 247 -0
175 247 -0
176 247 -0
177 247 -0
178 247 -0
179 247 -0
180 247 -0
181 247 -0
182 247 -0
183 247 -0
184 247 -0
185 247 -0
186 247 -0
187 247 -0
188 247 -0
189 247 -0
190 247 -0
191 247 -0
192 247 -0
193 247 -0
194 247 -0
195 247 -0
196 247 -0
197 247 -0
198 247 -0
199 247 -0
200 247 -0
201 247 -0
202 247 -0
203 247 -0
204 247 -0
205 247 -0
206 247 -0
207 247 -0
208 247 -0
209 247 -0
210 247 -0
211 247 -0
212 247 -0
213 247 -0
214 247 -0
215 247 -0
216 247 -0
217 247 -0
218 247 -0
219 247 -0
220 247 -0
221 247 -0
222 247 -0
223 247 -0
224 247 -0
225 247 -0
226 247 -0
227 247 -0
228 247 -0
229 247 -0
230 247 -0
231 247 -0
232 247 -0
233 247 -0
234 247 -0
235 247 -0
236 247 -0
237 247 -0
238 247 -0
239 247 -0
240 247 -0
121 248 -0
122 248 -0
123 248 -0
124 248 -0
125 248 -0
126 248 -0
127 248 -0
128 248 -0
129 248 -0
130 248 -0
131 248 -0
132 248 -0
133 248 -0
134 248 -0
135 248 -0
136 248 -0
137 248 -0
138 248 -0
139 248 -0
140 248 -0
141 248 -0
142 248 -0
143 248 -0
144 248 -0
145 248 -0
146 248 -0
147 248 -0
148 248 -0
149 248 -0
150 248 -0
151 248 -0
152 248 -0
153 248 -0
154 248 -0
155 248 -0
156 248 -0
157 248 -0
158 248 -0
159 248 -0
160 248 -0
161 248 -0
162 248 -0
163 248 -0
164 248 -0
165 248 -0
166 248 -0
167 248 -0
168 248 -0
169 248 -0
170 248 -0
171 248 -0
172 248 -0
173 248 -0
174 248 -0
175 248 -0
176 248 -0
177 248 -0
178 248 -0
179 248 -0
180 248 -0
181 248 -0
182 248 -0
183 248 -0
184 248 -0
185 248 -0
186 248 -0
187 248 -0
188 248 -0
189 248 -0
190 248 -0
191 248 -0
192 248 -0
193 248 -0
194 248 -0
195 248 -0
196 248 -0
197 248 -0
198 248 -0
199 248 -0
200 248 -0
201 248 -0
202 248 -0
203 248 -0
204 248 -0
205 248 -0
206 248 -0
207 248 -0
208 248 -0
209 248 -0
210 248 -0
211 248 -0
212 248 -0
213 248 -0
214 248 -0
215 248 -0
216 248 -0
217 248 -0
218 248 -0
219 248 -0
220 248 -0
221 248 -0
222 248 -0
223 248 -0
224 248 -0
225 248 -0
226 248 -0
227 248 -0
228 248 -0
229 248 -0
230 248 -0
231 248 -0
232 248 -0
233 248 -0
234 248 -0
235 248 -0
236 248 -0
237 248 -0
238 248 -0
239 248 -0
240 248 -0
121 249 -0
122 249 -0
123 249 -0
124 249 -0
125 249 -0
126 249 -0
127 249 -0
128 249 -0
129 249 -0
130 249 -0
131 249 -0
132 249 -0
133 249 -0
134 249 -0
135 249 -0
136 249 -0
137 249 -0
138 249 -0
139 249 -0
140 249 -0
141 249 -0
142 249 -0
143 249 -0
144 249 -0
145 249 -0
146 249 -0
147 249 -0
148 249 -0
149 249 -0
150 249 -0
151 249 -0
152 249 -0
153 249 -0
154 249 -0
155 249 -0
156 249 -0
157 249 -0
158 249 -0
159 249 -0
160 249 -0
161 249 -0
162 249 -0
163 249 -0
164 249 -0
165 249 -0
166 249 -0
167 249 -0
168 249 -0
169 249 -0
170 249 -0
171 249 -0
172 249 -0
173 249 -0
174 249 -0
175 249 -0
176 249 -0
177 249 -0
178 249 -0
179 249 -0
180 249 -0
181 249 -0
182 249 -0
183 249 -0
184 249 -0
185 249 -0
186 249 -0
187 249 -0
188 249 -0
189 249 -0
190 249 -0
191 249 -0
192 249 -0
193 249 -0
194 249 -0
195 249 -0
196 249 -0
197 249 -0
198 249 -0
199 249 -0
200 249 -0
201 249 -0
202 249 -0
203 249 -0
204 249 -0
205 249 -0
206 249 -0
207 249 -0
208 249 -0
209 249 -0
210 249 -0
211 249 -0
212 249 -0
213 249 -0
214 249 -0
215 249 -0
216 249 -0
217 249 -0
218 249 -0
219 249 -0
220 249 -0
221 249 -0
222 249 -0
223 249 -0
224 249 -0
225 249 -0
226 249 -0
227 249 -0
228 249 -0
229 249 -0
230 249 -0
231 249 -0
232 249 -0
233 249 -0
234 249 -0
235 249 -0
236 249 -0
237 249 -0
238 249 -0
239 249 -0
240 249 -0
121 250 -0
122 250 -0
123 250 -0
124 250 -0
125 250 -0
126 250 -0
127 250 -0
128 250 -0
129 250 -0
130 250 -0
131 250 -0
132 250 -0
133 250 -0
134 250 -0
135 250 -0
136 250 -0
137 250 -0
138 250 -0
139 250 -0
140 250 -0
141 250 -0
142 250 -0
143 250 -0
144 250 -0
145 250 -0
146 250 -0
147 250 -0
148 250 -0
149 250 -0
150 250 -0
151 250 -0
152 250 -0
153 250 -0
154 250 -0
155 250 -0
156 250 -0
157 250 -0
158 250 -0
159 250 -0
160 250 -0
161 250 -0
162 250 -0
163 250 -0
164 250 -0
165 250 -0
166 250 -0
167 250 -0
168 250 -0
169 250 -0
170 250 -0
171 250 -0
172 250 -0
173 250 -0
174 250 -0
175 250 -0
176 250 -0
177 250 -0
178 250 -0
179 250 -0
180 250 -0
181 250 -0
182 250 -0
183 250 -0
184 250 -0
185 250 -0
186 250 -0
187 250 -0
188 250 -0
189 250 -0
190 250 -0
191 250 -0
192 250 -0
193 250 -0
194 250 -0
195 250 -0
196 250 -0
197 250 -0
198 250 -0
199 250 -0
200 250 -0
201 250 -0
202 250 -0
203 250 -0
204 250 -0
205 250 -0
206 250 -0
207 250 -0
208 250 -0
209 250 -0
210 250 -0
211 250 -0
212 250 -0
213 250 -0
214 250 -0
215 250 -0
216 250 -0
217 250 -0
218 250 -0
219 250 -0
220 250 -0
221 250 -0
222 250 -0
223 250 -0
224 250 -0
225 250 -0
226 250 -0
227 250 -0
228 250 -0
229 250 -0
230 250 -0
231 250 -0
232 250 -0
233 250 -0
234 250 -0
235 250 -0
236 250 -0
237 250 -0
238 250 -0
239 250 -0
240 250 -0
121 251 -0
122 251 -0
123 251 -0
124 251 -0
125 251 -0
126 251 -0
127 251 -0
128 251 -0
129 251 -0
130 251 -0
131 251 -0
132 251 -0
133 251 -0
134 251 -0
135 251 -0
136 251 -0
137 251 -0
138 251 -0
139 251 -0
140 251 -0
141 251 -0
142 251 -0
143 251 -0
144 251 -0
145 251 -0
146 251 -0
147 251 -0
148 251 -0
149 251 -0
150 251 -0
151 251 -0
152 251 -0
153 251 -0
154 251 -0
155 251 -0
156 251 -0
157 251 -0
158 251 -0
159 251 -0
160 251 -0
161 251 -0
162 251 -0
163 251 -0
164 251 -0
165 251 -0
166 251 -0
167 251 -0
168 251 -0
169 251 -0
170 251 -0
171 251 -0
172 251 -0
173 251 -0
174 251 -0
175 251 -0
176 251 -0
177 251 -0
178 251 -0
179 251 -0
180 251 -0
181 251 -0
182 251 -0
183 251 -0
184 251 -0
185 251 -0
186 251 -0
187 251 -0
188 251 -0
189 251 -0
190 251 -0
191 251 -0
192 251 -0
193 251 -0
194 251 -0
195 251 -0
196 251 -0
197 251 -0
198 251 -0
199 251 -0
200 251 -0
201 251 -0
202 251 -0
203 251 -0
204 251 -0
205 251 -0
206 251 -0
207 251 -0
208 251 -0
209 251 -0
210 251 -0
211 251 -0
212 251 -0
213 251 -0
214 251 -0
215 251 -0
216 251 -0
217 251 -0
218 251 -0
219 251 -0
220 251 -0
221 251 -0
222 251 -0
223 251 -0
224 251 -0
225 251 -0
226 251 -0
227 251 -0
228 251 -0
229 251 -0
230 251 -0
231 251 -0
232 251 -0
233 251 -0
234 251 -0
235 251 -0
236 251 -0
237 251 -0
238 251 -0
239 251 -0
240 251 -0
121 252 -0
122 252 -0
123 252 -0
124 252 -0
125 252 -0
126 252 -0
127 252 -0
128 252 -0
129 252 -0
130 252 -0
131 252 -0
132 252 -0
133 252 -0
134 252 -0
135 252 -0
136 252 -0
137 252 -0
138 252 -0
139 252 -0
140 252 -0
141 252 -0
142 252 -0
143 252 -0
144 252 -0
145 252 -0
146 252 -0
147 252 -0
148 252 -0
149 252 -0
150 252 -0
151 252 -0
152 252 -0
153 252 -0
154 252 -0
155 252 -0
156 252 -0
157 252 -0
158 252 -0
159 252 -0
160 252 -0
161 252 -0
162 252 -0
163 252 -0
164 252 -0
165 252 -0
166 252 -0
167 252 -0
168 252 -0
169 252 -0
170 252 -0
171 252 -0
172 252 -0
173 252 -0
174 252 -0
175 252 -0
176 252 -0
177 252 -0
178 252 -0
179 252 -0
180 252 -0
181 252 -0
182 252 -0
183 252 -0
184 252 -0
185 252 -0
186 252 -0
187 252 -0
188 252 -0
189 252 -0
190 252 -0
191 252 -0
192 252 -0
193 252 -0
194 252 -0
195 252 -0
196 252 -0
197 252 -0
198 252 -0
199 252 -0
200 252 -0
201 252 -0
202 252 -0
203 252 -0
204 252 -0
205 252 -0
206 252 -0
207 252 -0
208 252 -0
209 252 -0
210 252 -0
211 252 -0
212 252 -0
213 252 -0
214 252 -0
215 252 -0
216 252 -0
217 252 -0
218 252 -0
219 252 -0
220 252 -0
221 252 -0
222 252 -0
223 252 -0
224 252 -0
225 252 -0
226 252 -0
227 252 -0
228 252 -0
229 252 -0
230 252 -0
231 252 -0
232 252 -0
233 252 -0
234 252 -0
235 252 -0
236 252 -0
237 252 -0
238 252 -0
239 252 -0
240 252 -0
121 253 -0
122 253 -0
123 253 -0
124 253 -0
125 253 -0
126 253 -0
127 253 -0
128 253 -0
129 253 -0
130 253 -0
131 253 -0
132 253 -0
133 253 -0
134 253 -0
135 253 -0
136 253 -0
137 253 -0
138 253 -0
139 253 -0
140 253 -0
141 253 -0
142 253 -0
143 253 -0
144 253 -0
145 253 -0
146 253 -0
147 253 -0
148 253 -0
149 253 -0
150 253 -0
151 253 -0
152 253 -0
153 253 -0
154 253 -0
155 253 -0
156 253 -0
157 253 -0
158 253 -0
159 253 -0
160 253 -0
161 253 -0
162 253 -0
163 253 -0
164 253 -0
165 253 -0
166 253 -0
167 253 -0
168 253 -0
169 253 -0
170 253 -0
171 253 -0
172 253 -0
173 253 -0
174 253 -0
175 253 -0
176 253 -0
177 253 -0
178 253 -0
179 253 -0
180 253 -0
181 253 -0
182 253 -0
183 253 -0
184 253 -0
185 253 -0
186 253 -0
187 253 -0
188 253 -0
189 253 -0
190 253 -0
191 253 -0
192 253 -0
193 253 -0
194 253 -0
195 253 -0
196 253 -0
197 253 -0
198 253 -0
199 253 -0
200 253 -0
201 253 -0
202 253 -0
203 253 -0
204 253 -0
205 253 -0
206 253 -0
207 253 -0
208 253 -0
209 253 -0
210 253 -0
211 253 -0
212 253 -0
213 253 -0
214 253 -0
215 253 -0
216 253 -0
217 253 -0
218 253 -0
219 253 -0
220 253 -0
221 253 -0
222 253 -0
223 253 -0
224 253 -0
225 253 -0
226 253 -0.9779954441855957
227 253 -0
228 253 -0
229 253 -0
230 253 -0
231 253 -0
232 253 -0
233 253 -0
234 253 -0
235 253 -0
236 253 -0
237 253 -0
238 253 -0
239 253 -0
240 253 -0
121 254 -0
122 254 -0
123 254 -0
124 254 -0
125 254 -0
126 254 -0
127 254 -0
128 254 -0
129 254 -0
130 254 -0
131 254 -0
132 254 -0
133 254 -0
134 254 -0
135 254 -0
136 254 -0
137 254 -0
138 254 -0
139 254 -0
140 254 -0
141 254 -0
142 254 -0
143 254 -0
144 254 -0
145 254 -0
146 254 -0
147 254 -0
148 254 -0
149 254 -0
150 254 -0
151 254 -0
152 254 -0
153 254 -0
154 254 -0
155 254 -0
156 254 -0
157 254 -0
158 254 -0
159 254 -0
160 254 -0
161 254 -0
162 254 -0
163 254 -0
164 254 -0
165 254 -0
166 254 -0
167 254 -0
168 254 -0
169 254 -0
170 254 -0
171 254 -0
172 254 -0
173 254 -0
174 254 -0
175 254 -0
176 254 -0
177 254 -0
178 254 -0
179 254 -0
180 254 -0
181 254 -0
182 254 -0
183 254 -0
184 254 -0
185 254 -0
186 254 -0
187 254 -0
188 254 -0
189 254 -0
190 254 -0
191 254 -0
192 254 -0
193 254 -0
194 254 -0
195 254 -0
196 254 -0
197 254 -0
198 254 -0
199 254 -0
200 254 -0
201 254 -0
202 254 -0
203 254 -0
204 254 -0
205 254 -0
206 254 -0
207 254 -0
208 254 -0
209 254 -0
210 254 -0
211 254 -0
212 254 -0
213 254 -0
214 254 -0
215 254 -0
216 254 -0
217 254 -0
218 254 -0
219 254 -0
220 254 -0
221 254 -0
222 254 -0
223 254 -0
224 254 -0
225 254 -0
226 254 -0
227 254 -0.9779954441855957
228 254 -0
229 254 -0
230 254 -0
231 254 -0
232 254 -0
233 254 -0
234 254 -0
235 254 -0
236 254 -0
237 254 -0
238 254 -0
239 254 -0
240 254 -0
121 255 -0
122 255 -0
123 255 -0
124 255 -0
125 255 -0
126 255 -0
127 255 -0
128 255 -0
129 255 -0
130 255 -0
131 255 -0
132 255 -0
133 255 -0
134 255 -0
135 255 -0
136 255 -0
137 255 -0
138 255 -0
139 255 -0
140 255 -0
141 255 -0
142 255 -0
143 255 -0
144 255 -0
145 255 -0
146 255 -0
147 255 -0
148 255 -0
149 255 -0
150 255 -0
151 255 -0
152 255 -0
153 255 -0
154 255 -0
155 255 -0
156 255 -0
157 255 -0
158 255 -0
159 255 -0
160 255 -0
161 255 -0
162 255 -0
163 255 -0
164 255 -0
165 255 -0
166 255 -0
167 255 -0
168 255 -0
169 255 -0
170 255 -0
171 255 -0
172 255 -0
173 255 -0
174 255 -0
175 255 -0
176 255 -0
177 255 -0
178 255 -0
179 255 -0
180 255 -0
181 255 -0
182 255 -0
183 255 -0
184 255 -0
185 255 -0
186 255 -0
187 255 -0
188 255 -0
189 255 -0
190 255 -0
191 255 -0
192 255 -0
193 255 -0
194 255 -0
195 255 -0
196 255 -0
197 255 -0
198 255 -0
199 255 -0
200 255 -0
201 255 -0
202 255 -0
203 255 -0
204 255 -0
205 255 -0
206 255 -0
207 255 -0
208 255 -0
209 255 -0
210 255 -0
211 255 -0
212 255 -0
213 255 -0
214 255 -0
215 255 -0
216 255 -0
217 255 -0
218 255 -0
219 255 -0
220 255 -0
221 255 -0
222 255 -0
223 255 -0
224 255 -0
225 255 -0
226 255 -0
227 255 -0
228 255 -0.9779954441855957
229 255 -0
230 255 -0
231 255 -0
232 255 -0
233 255 -0
234 255 -0
235 255 -0
236 255 -0
237 255 -0
238 255 -0
239 255 -0
240 255 -0
121 256 -0
122 256 -0
123 256 -0
124 256 -0
125 256 -0
126 256 -0
127 256 -0
128 256 -0
129 256 -0
130 256 -0
131 256 -0
132 256 -0
133 256 -0
134 256 -0
135 256 -0
136 256 -0
137 256 -0
138 256 -0
139 256 -0
140 256 -0
141 256 -0
142 256 -0
143 256 -0
144 256 -0
145 256 -0
146 256 -0
147 256 -0
148 256 -0
149 256 -0
150 256 -0
151 256 -0
152 256 -0
153 256 -0
154 256 -0
155 256 -0
156 256 -0
157 256 -0
158 256 -0
159 256 -0
160 256 -0
161 256 -0
162 256 -0
163 256 -0
164 256 -0
165 256 -0
166 256 -0
167 256 -0
168 256 -0
169 256 -0
170 256 -0
171 256 -0
172 256 -0
173 256 -0
174 256 -0
175 256 -0
176 256 -0
177 256 -0
178 256 -0
179 256 -0
180 256 -0
181 256 -0
182 256 -0
183 256 -0
184 256 -0
185 256 -0
186 256 -0
187 256 -0
188 256 -0
189 256 -0
190 256 -0
191 256 -0
192 256 -0
193 256 -0
194 256 -0
195 256 -0
196 256 -0
197 256 -0
198 256 -0
199 256 -0
200 256 -0
201 256 -0
202 256 -0
203 256 -0
204 256 -0
205 256 -0
206 256 -0
207 256 -0
208 256 -0
209 256 -0
210 256 -0
211 256 -0
212 256 -0
213 256 -0
214 256 -0
215 256 -0
216 256 -0
217 256 -0
218 256 -0
219 256 -0
220 256 -0
221 256 -0
222 256 -0
223 256 -0
224 256 -0
225 256 -0
226 256 -0
227 256 -0
228 256 -0
229 256 -0.9779954441855957
230 256 -0
231 256 -0
232 256 -0
233 256 -0
234 256 -0
235 256 -0
236 256 -0
237 256 -0
238 256 -0
239 256 -0
240 256 -0
121 257 -0
122 257 -0
123 257 -0
124 257 -0
125 257 -0
126 257 -0
127 257 -0
128 257 -0
129 257 -0
130 257 -0
131 257 -0
132 257 -0
133 257 -0
134 257 -0
135 257 -0
136 257 -0
137 257 -0
138 257 -0
139 257 -0
140 257 -0
141 257 -0
142 257 -0
143 257 -0
144 257 -0
145 257 -0
146 257 -0
147 257 -0
148 257 -0
149 257 -0
150 257 -0
151 257 -0
152 257 -0
153 257 -0
154 257 -0
155 257 -0
156 257 -0
157 257 -0
158 257 -0
159 257 -0
160 257 -0
161 257 -0
162 257 -0
163 257 -0
164 257 -0
165 257 -0
166 257 -0
167 257 -0
168 257 -0
169 257 -0
170 257 -0
171 257 -0
172 257 -0
173 257 -0
174 257 -0
175 257 -0
176 257 -0
177 257 -0
178 257 -0
179 257 -0
180 257 -0
181 257 -0
182 257 -0
183 257 -0
184 257 -0
185 257 -0
186 257 -0
187 257 -0
188 257 -0
189 257 -0
190 257 -0
191 257 -0
192 257 -0
193 257 -0
194 257 -0
195 257 -0
196 257 -0
197 257 -0
198 257 -0
199 257 -0
200 257 -0
201 257 -0
202 257 -0
203 257 -0
204 257 -0
205 257 -0
206 257 -0
207 257 -0
208 257 -0
209 257 -0
210 257 -0
211 257 -0
212 257 -0
213 257 -0
214 257 -0
215 257 -0
216 257 -0
217 257 -0
218 257 -0
219 257 -0
220 257 -0
221 257 -0
222 257 -0
223 257 -0
224 257 -0
225 257 -0
226 257 -0
227 257 -0
228 257 -0
229 257 -0
230 257 -0.9779954441855957
231 257 -0
232 257 -0
233 257 -0
234 257 -0
235 257 -0
236 257 -0
237 257 -0
238 257 -0
239 257 -0
240 257 -0
121 258 -0
122 258 -0
123 258 -0
124 258 -0
125 258 -0
126 258 -0
127 258 -0
128 258 -0
129 258 -0
130 258 -0
131 258 -0
132 258 -0
133 258 -0
134 258 -0
135 258 -0
136 258 -0
137 258 -0
138 258 -0
139 258 -0
140 258 -0
141 258 -0
142 258 -0
143 258 -0
144 258 -0
145 258 -0
146 258 -0
147 258 -0
148 258 -0
149 258 -0
150 258 -0
151 258 -0
152 258 -0
153 258 -0
154 258 -0
155 258 -0
156 258 -0
157 258 -0
158 258 -0
159 258 -0
160 258 -0
161 258 -0
162 258 -0
163 258 -0
164 258 -0
165 258 -0
166 258 -0
167 258 -0
168 258 -0
169 258 -0
170 258 -0
171 258 -0
172 258 -0
173 258 -0
174 258 -0
175 258 -0
176 258 -0
177 258 -0
178 258 -0
179 258 -0
180 258 -0
181 258 -0
182 258 -0
183 258 -0
184 258 -0
185 258 -0
186 258 -0
187 258 -0
188 258 -0
189 258 -0
190 258 -0
191 258 -0
192 258 -0
193 258 -0
194 258 -0
195 258 -0
196 258 -0
197 258 -0
198 258 -0
199 258 -0
200 258 -0
201 258 -0
202 258 -0
203 258 -0
204 258 -0
205 258 -0
206 258 -0
207 258 -0
208 258 -0
209 258 -0
210 258 -0
211 258 -0
212 258 -0
213 258 -0
214 258 -0
215 258 -0
216 258 -0
217 258 -0
218 258 -0
219 258 -0
220 258 -0
221 258 -0
222 258 -0
223 258 -0
224 258 -0
225 258 -0
226 258 -0
227 258 -0
228 258 -0
229 258 -0
230 258 -0
231 258 -0
232 258 -0
233 258 -0
234 258 -0
235 258 -0
236 258 -0
237 258 -0
238 258 -0
239 258 -0
240 258 -0
121 259 -0
122 259 -0
123 259 -0
124 259 -0
125 259 -0
126 259 -0
127 259 -0
128 259 -0
129 259 -0
130 259 -0
131 259 -0
132 259 -0
133 259 -0
134 259 -0
135 259 -0
136 259 -0
137 259 -0
138 259 -0
139 259 -0
140 259 -0
141 259 -0
142 259 -0
143 259 -0
144 259 -0
145 259 -0
146 259 -0
147 259 -0
148 259 -0
149 259 -0
150 259 -0
151 259 -0
152 259 -0
153 259 -0
154 259 -0
155 259 -0
156 259 -0
157 259 -0
158 259 -0
159 259 -0
160 259 -0
161 259 -0
162 259 -0
163 259 -0
164 259 -0
165 259 -0
166 259 -0
167 259 -0
168 259 -0
169 259 -0
170 259 -0
171 259 -0
172 259 -0
173 259 -0
174 259 -0
175 259 -0
176 259 -0
177 259 -0
178 259 -0
179 259 -0
180 259 -0
181 259 -0
182 259 -0
183 259 -0
184 259 -0
185 259 -0
186 259 -0
187 259 -0
188 259 -0
189 259 -0
190 259 -0
191 259 -0
192 259 -0
193 259 -0
194 259 -0
195 259 -0
196 259 -0
197 259 -0
198 259 -0
199 259 -0
200 259 -0
201 259 -0
202 259 -0
203 259 -0
204 259 -0
205 259 -0
206 259 -0
207 259 -0
208 259 -0
209 259 -0
210 259 -0
211 259 -0
212 259 -0
213 259 -0
214 259 -0
215 259 -0
216 259 -0
217 259 -0
218 259 -0
219 259 -0
220 259 -0
221 259 -0
222 259 -0
223 259 -0
224 259 -0
225 259 -0
226 259 -0
227 259 -0
228 259 -0
229 259 -0
230 259 -0
231 259 -0
232 259 -0
233 259 -0
234 259 -0
235 259 -0
236 259 -0
237 259 -0
238 259 -0
239 259 -0
240 259 -0
121 260 -0
122 260 -0
123 260 -0
124 260 -0
125 260 -0
126 260 -0
127 260 -0
128 260 -0
129 260 -0
130 260 -0
131 260 -0
132 260 -0
133 260 -0
134 260 -0
135 260 -0
136 260 -0
137 260 -0
138 260 -0
139 260 -0
140 260 -0
141 260 -0
142 260 -0
143 260 -0
144 260 -0
145 260 -0
146 260 -0
147 260 -0
148 260 -0
149 260 -0
150 260 -0
151 260 -0
152 260 -0
153 260 -0
154 260 -0
155 260 -0
156 260 -0
157 260 -0
158 260 -0
159 260 -0
160 260 -0
161 260 -0
162 260 -0
163 260 -0
164 260 -0
165 260 -0
166 260 -0
167 260 -0
168 260 -0
169 260 -0
170 260 -0
171 260 -0
172 260 -0
173 260 -0
174 260 -0
175 260 -0
176 260 -0
177 260 -0
178 260 -0
179 260 -0
180 260 -0
181 260 -0
182 260 -0
183 260 -0
184 260 -0
185 260 -0
186 260 -0
187 260 -0
188 260 -0
189 260 -0
190 260 -0
191 260 -0
192 260 -0
193 260 -0
194 260 -0
195 260 -0
196 260 -0
197 260 -0
198 260 -0
199 260 -0
200 260 -0
201 260 -0
202 260 -0
203 260 -0
204 260 -0
205 260 -0
206 260 -0
207 260 -0
208 260 -0
209 260 -0
210 260 -0
211 260 -0
212 260 -0
213 260 -0
214 260 -0
215 260 -0
216 260 -0
217 260 -0
218 260 -0
219 260 -0
220 260 -0
221 260 -0
222 260 -0
223 260 -0
224 260 -0
225 260 -0
226 260 -0
227 260 -0
228 260 -0
229 260 -0
230 260 -0
231 260 -0
232 260 -0
233 260 -0
234 260 -0
235 260 -0
236 260 -0
237 260 -0
238 260 -0
239 260 -0
240 260 -0
121 261 -0
122 261 -0
123 261 -0
124 261 -0
125 261 -0
126 261 -0
127 261 -0
128 261 -0
129 261 -0
130 261 -0
131 261 -0
132 261 -0
133 261 -0
134 261 -0
135 261 -0
136 261 -0
137 261 -0
138 261 -0
139 261 -0
140 261 -0
141 261 -0
142 261 -0
143 261 -0
144 261 -0
145 261 -0
146 261 -0
147 261 -0
148 261 -0
149 261 -0
150 261 -0
151 261 -0
152 261 -0
153 261 -0
154 261 -0
155 261 -0
156 261 -0
157 261 -0
158 261 -0
159 261 -0
160 261 -0
161 261 -0
162 261 -0
163 261 -0
164 261 -0
165 261 -0
166 261 -0
167 261 -0
168 261 -0
169 261 -0
170 261 -0
171 261 -0
172 261 -0
173 261 -0
174 261 -0
175 261 -0
176 261 -0
177 261 -0
178 261 -0
179 261 -0
180 261 -0
181 261 -0
182 261 -0
183 261 -0
184 261 -0
185 261 -0
186 261 -0
187 261 -0
188 261 -0
189 261 -0
190 261 -0
191 261 -0
192 261 -0
193 261 -0
194 261 -0
195 261 -0
196 261 -0
197 261 -0
198 261 -0
199 261 -0
200 261 -0
201 261 -0
202 261 -0
203 261 -0
204 261 -0
205 261 -0
206 261 -0
207 261 -0
208 261 -0
209 261 -0
210 261 -0
211 261 -0
212 261 -0
213 261 -0
214 261 -0
215 261 -0
216 261 -0
217 261 -0
218 261 -0
219 261 -0
220 261 -0
221 261 -0
222 261 -0
223 261 -0
224 261 -0
225 261 -0
226 261 -0
227 261 -0
228 261 -0
229 261 -0
230 261 -0
231 261 -0
232 261 -0
233 261 -0
234 261 -0
235 261 -0
236 261 -0
237 261 -0
238 261 -0
239 261 -0
240 261 -0
121 262 -0
122 262 -0
123 262 -0
124 262 -0
125 262 -0
126 262 -0
127 262 -0
128 262 -0
129 262 -0
130 262 -0
131 262 -0
132 262 -0
133 262 -0
134 262 -0
135 262 -0
136 262 -0
137 262 -0
138 262 -0
139 262 -0
140 262 -0
141 262 -0
142 262 -0
143 262 -0
144 262 -0
145 262 -0
146 262 -0
147 262 -0
148 262 -0
149 262 -0
150 262 -0
151 262 -0
152 262 -0
153 262 -0
154 262 -0
155 262 -0
156 262 -0
157 262 -0
158 262 -0
159 262 -0
160 262 -0
161 262 -0
162 262 -0
163 262 -0
164 262 -0
165 262 -0
166 262 -0
167 262 -0
168 262 -0
169 262 -0
170 262 -0
171 262 -0
172 262 -0
173 262 -0
174 262 -0
175 262 -0
176 262 -0
177 262 -0
178 262 -0
179 262 -0
180 262 -0
181 262 -0
182 262 -0
183 262 -0
184 262 -0
185 262 -0
186 262 -0
187 262 -0
188 262 -0
189 262 -0
190 262 -0
191 262 -0
192 262 -0
193 262 -0
194 262 -0
195 262 -0
196 262 -0
197 262 -0
198 262 -0
199 262 -0
200 262 -0
201 262 -0
202 262 -0
203 262 -0
204 262 -0
205 262 -0
206 262 -0
207 262 -0
208 262 -0
209 262 -0
210 262 -0
211 262 -0
212 262 -0
213 262 -0
214 262 -0
215 262 -0
216 262 -0
217 262 -0
218 262 -0
219 262 -0
220 262 -0
221 262 -0
222 262 -0
223 262 -0
224 262 -0
225 262 -0
226 262 -0
227 262 -0
228 262 -0
229 262 -0
230 262 -0
231 262 -0
232 262 -0
233 262 -0
234 262 -0
235 262 -0
236 262 -0
237 262 -0
238 262 -0
239 262 -0
240 262 -0
121 263 -0
122 263 -0
123 263 -0
124 263 -0
125 263 -0
126 263 -0
127 263 -0
128 263 -0
129 263 -0
130 263 -0
131 263 -0
132 263 -0
133 263 -0
134 263 -0
135 263 -0
136 263 -0
137 263 -0
138 263 -0
139 263 -0
140 263 -0
141 263 -0
142 263 -0
143 263 -0
144 263 -0
145 263 -0
146 263 -0
147 263 -0
148 263 -0
149 263 -0
150 263 -0
151 263 -0
152 263 -0
153 263 -0
154 263 -0
155 263 -0
156 263 -0
157 263 -0
158 263 -0
159 263 -0
160 263 -0
161 263 -0
162 263 -0
163 263 -0
164 263 -0
165 263 -0
166 263 -0
167 263 -0
168 263 -0
169 263 -0
170 263 -0
171 263 -0
172 263 -0
173 263 -0
174 263 -0
175 263 -0
176 263 -0
177 263 -0
178 263 -0
179 263 -0
180 263 -0
181 263 -0
182 263 -0
183 263 -0
184 263 -0
185 263 -0
186 263 -0
187 263 -0
188 263 -0
189 263 -0
190 263 -0
191 263 -0
192 263 -0
193 263 -0
194 263 -0
195 263 -0
196 263 -0
197 263 -0
198 263 -0
199 263 -0
200 263 -0
201 263 -0
202 263 -0
203 263 -0
204 263 -0
205 263 -0
206 263 -0
207 263 -0
208 263 -0
209 263 -0
210 263 -0
211 263 -0
212 263 -0
213 263 -0
214 263 -0
215 263 -0
216 263 -0
217 263 -0
218 263 -0
219 263 -0
220 263 -0
221 263 -0
222 263 -0
223 263 -0
224 263 -0
225 263 -0
226 263 -0
227 263 -0
228 263 -0
229 263 -0
230 263 -0
231 263 -0
232 263 -0
233 263 -0
234 263 -0
235 263 -0
236 263 -0
237 263 -0
238 263 -0
239 263 -0
240 263 -0
121 264 -0
122 264 -0
123 264 -0
124 264 -0
125 264 -0
126 264 -0
127 264 -0
128 264 -0
129 264 -0
130 264 -0
131 264 -0
132 264 -0
133 264 -0
134 264 -0
135 264 -0
136 264 -0
137 264 -0
138 264 -0
139 264 -0
140 264 -0
141 264 -0
142 264 -0
143 264 -0
144 264 -0
145 264 -0
146 264 -0
147 264 -0
148 264 -0
149 264 -0
150 264 -0
151 264 -0
152 264 -0
153 264 -0
154 264 -0
155 264 -0
156 264 -0
157 264 -0
158 264 -0
159 264 -0
160 264 -0
161 264 -0
162 264 -0
163 264 -0
164 264 -0
165 264 -0
166 264 -0
167 264 -0
168 264 -0
169 264 -0
170 264 -0
171 264 -0
172 264 -0
173 264 -0
174 264 -0
175 264 -0
176 264 -0
177 264 -0
178 264 -0
179 264 -0
180 264 -0
181 264 -0
182 264 -0
183 264 -0
184 264 -0
185 264 -0
186 264 -0
187 264 -0
188 264 -0
189 264 -0
190 264 -0
191 264 -0
192 264 -0
193 264 -0
194 264 -0
195 264 -0
196 264 -0
197 264 -0
198 264 -0
199 264 -0
200 264 -0
201 264 -0
202 264 -0
203 264 -0
204 264 -0
205 264 -0
206 264 -0
207 264 -0
208 264 -0
209 264 -0
210 264 -0
211 264 -0
212 264 -0
213 264 -0
214 264 -0
215 264 -0
216 264 -0
217 264 -0
218 264 -0
219 264 -0
220 264 -0
221 264 -0
222 264 -0
223 264 -0
224 264 -0
225 264 -0
226 264 -0
227 264 -0
228 264 -0
229 264 -0
230 264 -0
231 264 -0
232 264 -0
233 264 -0
234 264 -0
235 264 -0
236 264 -0
237 264 -0
238 264 -0
239 264 -0
240 264 -0
121 265 -0
122 265 -0
123 265 -0
124 265 -0
125 265 -0
126 265 -0
127 265 -0
128 265 -0
129 265 -0
130 265 -0
131 265 -0
132 265 -0
133 265 -0
134 265 -0
135 265 -0
136 265 -0
137 265 -0
138 265 -0
139 265 -0
140 265 -0
141 265 -0
142 265 -0
143 265 -0
144 265 -0
145 265 -0
146 265 -0
147 265 -0
148 265 -0
149 265 -0
150 265 -0
151 265 -0
152 265 -0
153 265 -0
154 265 -0
155 265 -0
156 265 -0
157 265 -0
158 265 -0
159 265 -0
160 265 -0
161 265 -0
162 265 -0
163 265 -0
164 265 -0
165 265 -0
166 265 -0
167 265 -0
168 265 -0
169 265 -0
170 265 -0
171 265 -0
172 265 -0
173 265 -0
174 265 -0
175 265 -0
176 265 -0
177 265 -0
178 265 -0
179 265 -0
180 265 -0
181 265 -0
182 265 -0
183 265 -0
184 265 -0
185 265 -0
186 265 -0
187 265 -0
188 265 -0
189 265 -0
190 265 -0
191 265 -0
192 265 -0
193 265 -0
194 265 -0
195 265 -0
196 265 -0
197 265 -0
198 265 -0
199 265 -0
200 265 -0
201 265 -0
202 265 -0
203 265 -0
204 265 -0
205 265 -0
206 265 -0
207 265 -0
208 265 -0
209 265 -0
210 265 -0
211 265 -0
212 265 -0
213 265 -0
214 265 -0
215 265 -0
216 265 -0
217 265 -0
218 265 -0
219 265 -0
220 265 -0
221 265 -0
222 265 -0
223 265 -0
224 265 -0
225 265 -0
226 265 -0
227 265 -0
228 265 -0
229 265 -0
230 265 -0
231 265 -0.9779954441855957
232 265 -0
233 265 -0
234 265 -0
235 265 -0
236 265 -0
237 265 -0
238 265 -0
239 265 -0
240 265 -0
121 266 -0
122 266 -0
123 266 -0
124 266 -0
125 266 -0
126 266 -0
127 266 -0
128 266 -0
129 266 -0
130 266 -0
131 266 -0
132 266 -0
133 266 -0
134 266 -0
135 266 -0
136 266 -0
137 266 -0
138 266 -0
139 266 -0
140 266 -0
141 266 -0
142 266 -0
143 266 -0
144 266 -0
145 266 -0
146 266 -0
147 266 -0
148 266 -0
149 266 -0
150 266 -0
151 266 -0
152 266 -0
153 266 -0
154 266 -0
155 266 -0
156 266 -0
157 266 -0
158 266 -0
159 266 -0
160 266 -0
161 266 -0
162 266 -0
163 266 -0
164 266 -0
165 266 -0
166 266 -0
167 266 -0
168 266 -0
169 266 -0
170 266 -0
171 266 -0
172 266 -0
173 266 -0
174 266 -0
175 266 -0
176 266 -0
177 266 -0
178 266 -0
179 266 -0
180 266 -0
181 266 -0
182 266 -0
183 266 -0
184 266 -0
185 266 -0
186 266 -0
187 266 -0
188 266 -0
189 266 -0
190 266 -0
191 266 -0
192 266 -0
193 266 -0
194 266 -0
195 266 -0
196 266 -0
197 266 -0
198 266 -0
199 266 -0
200 266 -0
201 266 -0
202 266 -0
203 266 -0
204 266 -0
205 266 -0
206 266 -0
207 266 -0
208 266 -0
209 266 -0
210 266 -0
211 266 -0
212 266 -0
213 266 -0
214 266 -0
215 266 -0
216 266 -0
217 266 -0
218 266 -0
219 266 -0
220 266 -0
221 266 -0
222 266 -0
223 266 -0
224 266 -0
225 266 -0
226 266 -0
227 266 -0
228 266 -0
229 266 -0
230 266 -0
231 266 -0
232 266 -0.9779954441855957
233 266 -0
234 266 -0
235 266 -0
236 266 -0
237 266 -0
238 266 -0
239 266 -0
240 266 -0
121 267 -0
122 267 -0
123 267 -0
124 267 -0
125 267 -0
126 267 -0
127 267 -0
128 267 -0
129 267 -0
130 267 -0
131 267 -0
132 267 -0
133 267 -0
134 267 -0
135 267 -0
136 267 -0
137 267 -0
138 267 -0
139 267 -0
140 267 -0
141 267 -0
142 267 -0
143 267 -0
144 267 -0
145 267 -0
146 267 -0
147 267 -0
148 267 -0
149 267 -0
150 267 -0
151 267 -0
152 267 -0
153 267 -0
154 267 -0
155 267 -0
156 267 -0
157 267 -0
158 267 -0
159 267 -0
160 267 -0
161 267 -0
162 267 -0
163 267 -0
164 267 -0
165 267 -0
166 267 -0
167 267 -0
168 267 -0
169 267 -0
170 267 -0
171 267 -0
172 267 -0
173 267 -0
174 267 -0
175 267 -0
176 267 -0
177 267 -0
178 267 -0
179 267 -0
180 267 -0
181 267 -0
182 267 -0
183 267 -0
184 267 -0
185 267 -0
186 267 -0
187 267 -0
188 267 -0
189 267 -0
190 267 -0
191 267 -0
192 267 -0
193 267 -0
194 267 -0
195 267 -0
196 267 -0
197 267 -0
198 267 -0
199 267 -0
200 267 -0
201 267 -0
202 267 -0
203 267 -0
204 267 -0
205 267 -0
206 267 -0
207 267 -0
208 267 -0
209 267 -0
210 267 -0
211 267 -0
212 267 -0
213 267 -0
214 267 -0
215 267 -0
216 267 -0
217 267 -0
218 267 -0
219 267 -0
220 267 -0
221 267 -0
222 267 -0
223 267 -0
224 267 -0
225 267 -0
226 267 -0
227 267 -0
228 267 -0
229 267 -0
230 267 -0
231 267 -0
232 267 -0
233 267 -0.9779954441855957
234 267 -0
235 267 -0
236 267 -0
237 267 -0
238 267 -0
239 267 -0
240 267 -0
121 268 -0
122 268 -0
123 268 -0
124 268 -0
125 268 -0
126 268 -0
127 268 -0
128 268 -0
129 268 -0
130 268 -0
131 268 -0
132 268 -0
133 268 -0
134 268 -0
135 268 -0
136 268 -0
137 268 -0
138 268 -0
139 268 -0
140 268 -0
141 268 -0
142 268 -0
143 268 -0
144 268 -0
145 268 -0
146 268 -0
147 268 -0
148 268 -0
149 268 -0
150 268 -0
151 268 -0
152 268 -0
153 268 -0
154 268 -0
155 268 -0
156 268 -0
157 268 -0
158 268 -0
159 268 -0
160 268 -0
161 268 -0
162 268 -0
163 268 -0
164 268 -0
165 268 -0
166 268 -0
167 268 -0
168 268 -0
169 268 -0
170 268 -0
171 268 -0
172 268 -0
173 268 -0
174 268 -0
175 268 -0
176 268 -0
177 268 -0
178 268 -0
179 268 -0
180 268 -0
181 268 -0
182 268 -0
183 268 -0
184 268 -0
185 268 -0
186 268 -0
187 268 -0
188 268 -0
189 268 -0
190 268 -0
191 268 -0
192 268 -0
193 268 -0
194 268 -0
195 268 -0
196 268 -0
197 268 -0
198 268 -0
199 268 -0
200 268 -0
201 268 -0
202 268 -0
203 268 -0
204 268 -0
205 268 -0
206 268 -0
207 268 -0
208 268 -0
209 268 -0
210 268 -0
211 268 -0
212 268 -0
213 268 -0
214 268 -0
215 268 -0
216 268 -0
217 268 -0
218 268 -0
219 268 -0
220 268 -0
221 268 -0
222 268 -0
223 268 -0
224 268 -0
225 268 -0
226 268 -0
227 268 -0
228 268 -0
229 268 -0
230 268 -0
231 268 -0
232 268 -0
233 268 -0
234 268 -0.9779954441855957
235 268 -0
236 268 -0
237 268 -0
238 268 -0
239 268 -0
240 268 -0
121 269 -0
122 269 -0
123 269 -0
124 269 -0
125 269 -0
126 269 -0
127 269 -0
128 269 -0
129 269 -0
130 269 -0
131 269 -0
132 269 -0
133 269 -0
134 269 -0
135 269 -0
136 269 -0
137 269 -0
138 269 -0
139 269 -0
140 269 -0
141 269 -0
142 269 -0
143 269 -0
144 269 -0
145 269 -0
146 269 -0
147 269 -0
148 269 -0
149 269 -0
150 269 -0
151 269 -0
152 269 -0
153 269 -0
154 269 -0
155 269 -0
156 269 -0
157 269 -0
158 269 -0
159 269 -0
160 269 -0
161 269 -0
162 269 -0
163 269 -0
164 269 -0
165 269 -0
166 269 -0
167 269 -0
168 269 -0
169 269 -0
170 269 -0
171 269 -0
172 269 -0
173 269 -0
174 269 -0
175 269 -0
176 269 -0
177 269 -0
178 269 -0
179 269 -0
180 269 -0
181 269 -0
182 269 -0
183 269 -0
184 269 -0
185 269 -0
186 269 -0
187 269 -0
188 269 -0
189 269 -0
190 269 -0
191 269 -0
192 269 -0
193 269 -0
194 269 -0
195 269 -0
196 269 -0
197 269 -0
198 269 -0
199 269 -0
200 269 -0
201 269 -0
202 269 -0
203 269 -0
204 269 -0
205 269 -0
206 269 -0
207 269 -0
208 269 -0
209 269 -0
210 269 -0
211 269 -0
212 269 -0
213 269 -0
214 269 -0
215 269 -0
216 269 -0
217 269 -0
218 269 -0
219 269 -0
220 269 -0
221 269 -0
222 269 -0
223 269 -0
224 269 -0
225 269 -0
226 269 -0
227 269 -0
228 269 -0
229 269 -0
230 269 -0
231 269 -0
232 269 -0
233 269 -0
234 269 -0
235 269 -0.9779954441855957
236 269 -0
237 269 -0
238 269 -0
239 269 -0
240 269 -0
121 270 -0
122 270 -0
123 270 -0
124 270 -0
125 270 -0
126 270 -0
127 270 -0
128 270 -0
129 270 -0
130 270 -0
131 270 -0
132 270 -0
133 270 -0
134 270 -0
135 270 -0
136 270 -0
137 270 -0
138 270 -0
139 270 -0
140 270 -0
141 270 -0
142 270 -0
143 270 -0
144 270 -0
145 270 -0
146 270 -0
147 270 -0
148 270 -0
149 270 -0
150 270 -0
151 270 -0
152 270 -0
153 270 -0
154 270 -0
155 270 -0
156 270 -0
157 270 -0
158 270 -0
159 270 -0
160 270 -0
161 270 -0
162 270 -0
163 270 -0
164 270 -0
165 270 -0
166 270 -0
167 270 -0
168 270 -0
169 270 -0
170 270 -0
171 270 -0
172 270 -0
173 270 -0
174 270 -0
175 270 -0
176 270 -0
177 270 -0
178 270 -0
179 270 -0
180 270 -0
181 270 -0
182 270 -0
183 270 -0
184 270 -0
185 270 -0
186 270 -0
187 270 -0
188 270 -0
189 270 -0
190 270 -0
191 270 -0
192 270 -0
193 270 -0
194 270 -0
195 270 -0
196 270 -0
197 270 -0
198 270 -0
199 270 -0
200 270 -0
201 270 -0
202 270 -0
203 270 -0
204 270 -0
205 270 -0
206 270 -0
207 270 -0
208 270 -0
209 270 -0
210 270 -0
211 270 -0
212 270 -0
213 270 -0
214 270 -0
215 270 -0
216 270 -0
217 270 -0
218 270 -0
219 270 -0
220 270 -0
221 270 -0
222 270 -0
223 270 -0
224 270 -0
225 270 -0
226 270 -0
227 270 -0
228 270 -0
229 270 -0
230 270 -0
231 270 -0
232 270 -0
233 270 -0
234 270 -0
235 270 -0
236 270 -0
237 270 -0
238 270 -0
239 270 -0
240 270 -0
121 271 -0
122 271 -0
123 271 -0
124 271 -0
125 271 -0
126 271 -0
127 271 -0
128 271 -0
129 271 -0
130 271 -0
131 271 -0
132 271 -0
133 271 -0
134 271 -0
135 271 -0
136 271 -0
137 271 -0
138 271 -0
139 271 -0
140 271 -0
141 271 -0
142 271 -0
143 271 -0
144 271 -0
145 271 -0
146 271 -0
147 271 -0
148 271 -0
149 271 -0
150 271 -0
151 271 -0
152 271 -0
153 271 -0
154 271 -0
155 271 -0
156 271 -0
157 271 -0
158 271 -0
159 271 -0
160 271 -0
161 271 -0
162 271 -0
163 271 -0
164 271 -0
165 271 -0
166 271 -0
167 271 -0
168 271 -0
169 271 -0
170 271 -0
171 271 -0
172 271 -0
173 271 -0
174 271 -0
175 271 -0
176 271 -0
177 271 -0
178 271 -0
179 271 -0
180 271 -0
181 271 -0
182 271 -0
183 271 -0
184 271 -0
185 271 -0
186 271 -0
187 271 -0
188 271 -0
189 271 -0
190 271 -0
191 271 -0
192 271 -0
193 271 -0
194 271 -0
195 271 -0
196 271 -0
197 271 -0
198 271 -0
199 271 -0
200 271 -0
201 271 -0
202 271 -0
203 271 -0
204 271 -0
205 271 -0
206 271 -0
207 271 -0
208 271 -0
209 271 -0
210 271 -0
211 271 -0
212 271 -0
213 271 -0
214 271 -0
215 271 -0
216 271 -0
217 271 -0
218 271 -0
219 271 -0
220 271 -0
221 271 -0
222 271 -0
223 271 -0
224 271 -0
225 271 -0
226 271 -0
227 271 -0
228 271 -0
229 271 -0
230 271 -0
231 271 -0
232 271 -0
233 271 -0
234 271 -0
235 271 -0
236 271 -0
237 271 -0
238 271 -0
239 271 -0
240 271 -0
121 272 -0
122 272 -0
123 272 -0
124 272 -0
125 272 -0
126 272 -0
127 272 -0
128 272 -0
129 272 -0
130 272 -0
131 272 -0
132 272 -0
133 272 -0
134 272 -0
135 272 -0
136 272 -0
137 272 -0
138 272 -0
139 272 -0
140 272 -0
141 272 -0
142 272 -0
143 272 -0
144 272 -0
145 272 -0
146 272 -0
147 272 -0
148 272 -0
149 272 -0
150 272 -0
151 272 -0
152 272 -0
153 272 -0
154 272 -0
155 272 -0
156 272 -0
157 272 -0
158 272 -0
159 272 -0
160 272 -0
161 272 -0
162 272 -0
163 272 -0
164 272 -0
165 272 -0
166 272 -0
167 272 -0
168 272 -0
169 272 -0
170 272 -0
171 272 -0
172 272 -0
173 272 -0
174 272 -0
175 272 -0
176 272 -0
177 272 -0
178 272 -0
179 272 -0
180 272 -0
181 272 -0
182 272 -0
183 272 -0
184 272 -0
185 272 -0
186 272 -0
187 272 -0
188 272 -0
189 272 -0
190 272 -0
191 272 -0
192 272 -0
193 272 -0
194 272 -0
195 272 -0
196 272 -0
197 272 -0
198 272 -0
199 272 -0
200 272 -0
201 272 -0
202 272 -0
203 272 -0
204 272 -0
205 272 -0
206 272 -0
207 272 -0
208 272 -0
209 272 -0
210 272 -0
211 272 -0
212 272 -0
213 272 -0
214 272 -0
215 272 -0
216 272 -0
217 272 -0
218 272 -0
219 272 -0
220 272 -0
221 272 -0
222 272 -0
223 272 -0
224 272 -0
225 272 -0
226 272 -0
227 272 -0
228 272 -0
229 272 -0
230 272 -0
231 272 -0
232 272 -0
233 272 -0
234 272 -0
235 272 -0
236 272 -0
237 272 -0
238 272 -0
239 272 -0
240 272 -0
121 273 -0
122 273 -0
123 273 -0
124 273 -0
125 273 -0
126 273 -0
127 273 -0
128 273 -0
129 273 -0
130 273 -0
131 273 -0
132 273 -0
133 273 -0
134 273 -0
135 273 -0
136 273 -0
137 273 -0
138 273 -0
139 273 -0
140 273 -0
141 273 -0
142 273 -0
143 273 -0
144 273 -0
145 273 -0
146 273 -0
147 273 -0
148 273 -0
149 273 -0
150 273 -0
151 273 -0
152 273 -0
153 273 -0
154 273 -0
155 273 -0
156 273 -0
157 273 -0
158 273 -0
159 273 -0
160 273 -0
161 273 -0
162 273 -0
163 273 -0
164 273 -0
165 273 -0
166 273 -0
167 273 -0
168 273 -0
169 273 -0
170 273 -0
171 273 -0
172 273 -0
173 273 -0
174 273 -0
175 273 -0
176 273 -0
177 273 -0
178 273 -0
179 273 -0
180 273 -0
181 273 -0
182 273 -0
183 273 -0
184 273 -0
185 273 -0
186 273 -0
187 273 -0
188 273 -0
189 273 -0
190 273 -0
191 273 -0
192 273 -0
193 273 -0
194 273 -0
195 273 -0
196 273 -0
197 273 -0
198 273 -0
199 273 -0
200 273 -0
201 273 -0
202 273 -0
203 273 -0
204 273 -0
205 273 -0
206 273 -0
207 273 -0
208 273 -0
209 273 -0
210 273 -0
211 273 -0
212 273 -0
213 273 -0
214 273 -0
215 273 -0
216 273 -0
217 273 -0
218 273 -0
219 273 -0
220 273 -0
221 273 -0
222 273 -0
223 273 -0
224 273 -0
225 273 -0
226 273 -0
227 273 -0
228 273 -0
229 273 -0
230 273 -0
231 273 -0
232 273 -0
233 273 -0
234 273 -0
235 273 -0
236 273 -0
237 273 -0
238 273 -0
239 273 -0
240 273 -0
121 274 -0
122 274 -0
123 274 -0
124 274 -0
125 274 -0
126 274 -0
127 274 -0
128 274 -0
129 274 -0
130 274 -0
131 274 -0
132 274 -0
133 274 -0
134 274 -0
135 274 -0
136 274 -0
137 274 -0
138 274 -0
139 274 -0
140 274 -0
141 274 -0
142 274 -0
143 274 -0
144 274 -0
145 274 -0
146 274 -0
147 274 -0
148 274 -0
149 274 -0
150 274 -0
151 274 -0
152 274 -0
153 274 -0
154 274 -0
155 274 -0
156 274 -0
157 274 -0
158 274 -0
159 274 -0
160 274 -0
161 274 -0
162 274 -0
163 274 -0
164 274 -0
165 274 -0
166 274 -0
167 274 -0
168 274 -0
169 274 -0
170 274 -0
171 274 -0
172 274 -0
173 274 -0
174 274 -0
175 274 -0
176 274 -0
177 274 -0
178 274 -0
179 274 -0
180 274 -0
181 274 -0
182 274 -0
183 274 -0
184 274 -0
185 274 -0
186 274 -0
187 274 -0
188 274 -0
189 274 -0
190 274 -0
191 274 -0
192 274 -0
193 274 -0
194 274 -0
195 274 -0
196 274 -0
197 274 -0
198 274 -0
199 274 -0
200 274 -0
201 274 -0
202 274 -0
203 274 -0
204 274 -0
205 274 -0
206 274 -0
207 274 -0
208 274 -0
209 274 -0
210 274 -0
211 274 -0
212 274 -0
213 274 -0
214 274 -0
215 274 -0
216 274 -0
217 274 -0
218 274 -0
219 274 -0
220 274 -0
221 274 -0
222 274 -0
223 274 -0
224 274 -0
225 274 -0
226 274 -0
227 274 -0
228 274 -0
229 274 -0
230 274 -0
231 274 -0
232 274 -0
233 274 -0
234 274 -0
235 274 -0
236 274 -0
237 274 -0
238 274 -0
239 274 -0
240 274 -0
121 275 -0
122 275 -0
123 275 -0
124 275 -0
125 275 -0
126 275 -0
127 275 -0
128 275 -0
129 275 -0
130 275 -0
131 275 -0
132 275 -0
133 275 -0
134 275 -0
135 275 -0
136 275 -0
137 275 -0
138 275 -0
139 275 -0
140 275 -0
141 275 -0
142 275 -0
143 275 -0
144 275 -0
145 275 -0
146 275 -0
147 275 -0
148 275 -0
149 275 -0
150 275 -0
151 275 -0
152 275 -0
153 275 -0
154 275 -0
155 275 -0
156 275 -0
157 275 -0
158 275 -0
159 275 -0
160 275 -0
161 275 -0
162 275 -0
163 275 -0
164 275 -0
165 275 -0
166 275 -0
167 275 -0
168 275 -0
169 275 -0
170 275 -0
171 275 -0
172 275 -0
173 275 -0
174 275 -0
175 275 -0
176 275 -0
177 275 -0
178 275 -0
179 275 -0
180 275 -0
181 275 -0
182 275 -0
183 275 -0
184 275 -0
185 275 -0
186 275 -0
187 275 -0
188 275 -0
189 275 -0
190 275 -0
191 275 -0
192 275 -0
193 275 -0
194 275 -0
195 275 -0
196 275 -0
197 275 -0
198 275 -0
199 275 -0
200 275 -0
201 275 -0
202 275 -0
203 275 -0
204 275 -0
205 275 -0
206 275 -0
207 275 -0
208 275 -0
209 275 -0
210 275 -0
211 275 -0
212 275 -0
213 275 -0
214 275 -0
215 275 -0
216 275 -0
217 275 -0
218 275 -0
219 275 -0
220 275 -0
221 275 -0
222 275 -0
223 275 -0
224 275 -0
225 275 -0
226 275 -0
227 275 -0
228 275 -0
229 275 -0
230 275 -0
231 275 -0
232 275 -0
233 275 -0
234 275 -0
235 275 -0
236 275 -0
237 275 -0
238 275 -0
239 275 -0
240 275 -0
121 276 -0
122 276 -0
123 276 -0
124 276 -0
125 276 -0
126 276 -0
127 276 -0
128 276 -0
129 276 -0
130 276 -0
131 276 -0
132 276 -0
133 276 -0
134 276 -0
135 276 -0
136 276 -0
137 276 -0
138 276 -0
139 276 -0
140 276 -0
141 276 -0
142 276 -0
143 276 -0
144 276 -0
145 276 -0
146 276 -0
147 276 -0
148 276 -0
149 276 -0
150 276 -0
151 276 -0
152 276 -0
153 276 -0
154 276 -0
155 276 -0
156 276 -0
157 276 -0
158 276 -0
159 276 -0
160 276 -0
161 276 -0
162 276 -0
163 276 -0
164 276 -0
165 276 -0
166 276 -0
167 276 -0
168 276 -0
169 276 -0
170 276 -0
171 276 -0
172 276 -0
173 276 -0
174 276 -0
175 276 -0
176 276 -0
177 276 -0
178 276 -0
179 276 -0
180 276 -0
181 276 -0
182 276 -0
183 276 -0
184 276 -0
185 276 -0
186 276 -0
187 276 -0
188 276 -0
189 276 -0
190 276 -0
191 276 -0
192 276 -0
193 276 -0
194 276 -0
195 276 -0
196 276 -0
197 276 -0
198 276 -0
199 276 -0
200 276 -0
201 276 -0
202 276 -0
203 276 -0
204 276 -0
205 276 -0
206 276 -0
207 276 -0
208 276 -0
209 276 -0
210 276 -0
211 276 -0
212 276 -0
213 276 -0
214 276 -0
215 276 -0
216 276 -0
217 276 -0
218 276 -0
219 276 -0
220 276 -0
221 276 -0
222 276 -0
223 276 -0
224 276 -0
225 276 -0
226 276 -0
227 276 -0
228 276 -0
229 276 -0
230 276 -0
231 276 -0
232 276 -0
233 276 -0
234 276 -0
235 276 -0
236 276 -0
237 276 -0
238 276 -0
239 276 -0
240 276 -0
121 277 -0
122 277 -0
123 277 -0
124 277 -0
125 277 -0
126 277 -0
127 277 -0
128 277 -0
129 277 -0
130 277 -0
131 277 -0
132 277 -0
133 277 -0
134 277 -0
135 277 -0
136 277 -0
137 277 -0
138 277 -0
139 277 -0
140 277 -0
141 277 -0
142 277 -0
143 277 -0
144 277 -0
145 277 -0
146 277 -0
147 277 -0
148 277 -0
149 277 -0
150 277 -0
151 277 -0
152 277 -0
153 277 -0
154 277 -0
155 277 -0
156 277 -0
157 277 -0
158 277 -0
159 277 -0
160 277 -0
161 277 -0
162 277 -0
163 277 -0
164 277 -0
165 277 -0
166 277 -0
167 277 -0
168 277 -0
169 277 -0
170 277 -0
171 277 -0
172 277 -0
173 277 -0
174 277 -0
175 277 -0
176 277 -0
177 277 -0
178 277 -0
179 277 -0
180 277 -0
181 277 -0
182 277 -0
183 277 -0
184 277 -0
185 277 -0
186 277 -0
187 277 -0
188 277 -0
189 277 -0
190 277 -0
191 277 -0
192 277 -0
193 277 -0
194 277 -0
195 277 -0
196 277 -0
197 277 -0
198 277 -0
199 277 -0
200 277 -0
201 277 -0
202 277 -0
203 277 -0
204 277 -0
205 277 -0
206 277 -0
207 277 -0
208 277 -0
209 277 -0
210 277 -0
211 277 -0
212 277 -0
213 277 -0
214 277 -0
215 277 -0
216 277 -0
217 277 -0
218 277 -0
219 277 -0
220 277 -0
221 277 -0
222 277 -0
223 277 -0
224 277 -0
225 277 -0
226 277 -0
227 277 -0
228 277 -0
229 277 -0
230 277 -0
231 277 -0
232 277 -0
233 277 -0
234 277 -0
235 277 -0
236 277 -0.9779954441855957
237 277 -0
238 277 -0
239 277 -0
240 277 -0
121 278 -0
122 278 -0
123 278 -0
124 278 -0
125 278 -0
126 278 -0
127 278 -0
128 278 -0
129 278 -0
130 278 -0
131 278 -0
132 278 -0
133 278 -0
134 278 -0
135 278 -0
136 278 -0
137 278 -0
138 278 -0
139 278 -0
140 278 -0
141 278 -0
142 278 -0
143 278 -0
144 278 -0
145 278 -0
146 278 -0
147 278 -0
148 278 -0
149 278 -0
150 278 -0
151 278 -0
152 278 -0
153 278 -0
154 278 -0
155 278 -0
156 278 -0
157 278 -0
158 278 -0
159 278 -0
160 278 -0
161 278 -0
162 278 -0
163 278 -0
164 278 -0
165 278 -0
166 278 -0
167 278 -0
168 278 -0
169 278 -0
170 278 -0
171 278 -0
172 278 -0
173 278 -0
174 278 -0
175 278 -0
176 278 -0
177 278 -0
178 278 -0
179 278 -0
180 278 -0
181 278 -0
182 278 -0
183 278 -0
184 278 -0
185 278 -0
186 278 -0
187 278 -0
188 278 -0
189 278 -0
190 278 -0
191 278 -0
192 278 -0
193 278 -0
194 278 -0
195 278 -0
196 278 -0
197 278 -0
198 278 -0
199 278 -0
200 278 -0
201 278 -0
202 278 -0
203 278 -0
204 278 -0
205 278 -0
206 278 -0
207 278 -0
208 278 -0
209 278 -0
210 278 -0
211 278 -0
212 278 -0
213 278 -0
214 278 -0
215 278 -0
216 278 -0
217 278 -0
218 278 -0
219 278 -0
220 278 -0
221 278 -0
222 278 -0
223 278 -0
224 278 -0
225 278 -0
226 278 -0
227 278 -0
228 278 -0
229 278 -0
230 278 -0
231 278 -0
232 278 -0
233 278 -0
234 278 -0
235 278 -0
236 278 -0
237 278 -0.9779954441855957
238 278 -0
239 278 -0
240 278 -0
121 279 -0
122 279 -0
123 279 -0
124 279 -0
125 279 -0
126 279 -0
127 279 -0
128 279 -0
129 279 -0
130 279 -0
131 279 -0
132 279 -0
133 279 -0
134 279 -0
135 279 -0
136 279 -0
137 279 -0
138 279 -0
139 279 -0
140 279 -0
141 279 -0
142 279 -0
143 279 -0
144 279 -0
145 279 -0
146 279 -0
147 279 -0
148 279 -0
149 279 -0
150 279 -0
151 279 -0
152 279 -0
153 279 -0
154 279 -0
155 279 -0
156 279 -0
157 279 -0
158 279 -0
159 279 -0
160 279 -0
161 279 -0
162 279 -0
163 279 -0
164 279 -0
165 279 -0
166 279 -0
167 279 -0
168 279 -0
169 279 -0
170 279 -0
171 279 -0
172 279 -0
173 279 -0
174 279 -0
175 279 -0
176 279 -0
177 279 -0
178 279 -0
179 279 -0
180 279 -0
181 279 -0
182 279 -0
183 279 -0
184 279 -0
185 279 -0
186 279 -0
187 279 -0
188 279 -0
189 279 -0
190 279 -0
191 279 -0
192 279 -0
193 279 -0
194 279 -0
195 279 -0
196 279 -0
197 279 -0
198 279 -0
199 279 -0
200 279 -0
201 279 -0
202 279 -0
203 279 -0
204 279 -0
205 279 -0
206 279 -0
207 279 -0
208 279 -0
209 279 -0
210 279 -0
211 279 -0
212 279 -0
213 279 -0
214 279 -0
215 279 -0
216 279 -0
217 279 -0
218 279 -0
219 279 -0
220 279 -0
221 279 -0
222 279 -0
223 279 -0
224 279 -0
225 279 -0
226 279 -0
227 279 -0
228 279 -0
229 279 -0
230 279 -0
231 279 -0
232 279 -0
233 279 -0
234 279 -0
235 279 -0
236 279 -0
237 279 -0
238 279 -0.9779954441855957
239 279 -0
240 279 -0
121 280 -0
122 280 -0
123 280 -0
124 280 -0
125 280 -0
126 280 -0
127 280 -0
128 280 -0
129 280 -0
130 280 -0
131 280 -0
132 280 -0
133 280 -0
134 280 -0
135 280 -0
136 280 -0
137 280 -0
138 280 -0
139 280 -0
140 280 -0
141 280 -0
142 280 -0
143 280 -0
144 280 -0
145 280 -0
146 280 -0
147 280 -0
148 280 -0
149 280 -0
150 280 -0
151 280 -0
152 280 -0
153 280 -0
154 280 -0
155 280 -0
156 280 -0
157 280 -0
158 280 -0
159 280 -0
160 280 -0
161 280 -0
162 280 -0
163 280 -0
164 280 -0
165 280 -0
166 280 -0
167 280 -0
168 280 -0
169 280 -0
170 280 -0
171 280 -0
172 280 -0
173 280 -0
174 280 -0
175 280 -0
176 280 -0
177 280 -0
178 280 -0
179 280 -0
180 280 -0
181 280 -0
182 280 -0
183 280 -0
184 280 -0
185 280 -0
186 280 -0
187 280 -0
188 280 -0
189 280 -0
190 280 -0
191 280 -0
192 280 -0
193 280 -0
194 280 -0
195 280 -0
196 280 -0
197 280 -0
198 280 -0
199 280 -0
200 280 -0
201 280 -0
202 280 -0
203 280 -0
204 280 -0
205 280 -0
206 280 -0
207 280 -0
208 280 -0
209 280 -0
210 280 -0
211 280 -0
212 280 -0
213 280 -0
214 280 -0
215 280 -0
216 280 -0
217 280 -0
218 280 -0
219 280 -0
220 280 -0
221 280 -0
222 280 -0
223 280 -0
224 280 -0
225 280 -0
226 280 -0
227 280 -0
228 280 -0
229 280 -0
230 280 -0
231 280 -0
232 280 -0
233 280 -0
234 280 -0
235 280 -0
236 280 -0
237 280 -0
238 280 -0
239 280 -0.9779954441855957
240 280 -0
121 281 -0
122 281 -0
123 281 -0
124 281 -0
125 281 -0
126 281 -0
127 281 -0
128 281 -0
129 281 -0
130 281 -0
131 281 -0
132 281 -0
133 281 -0
134 281 -0
135 281 -0
136 281 -0
137 281 -0
138 281 -0
139 281 -0
140 281 -0
141 281 -0
142 281 -0
143 281 -0
144 281 -0
145 281 -0
146 281 -0
147 281 -0
148 281 -0
149 281 -0
150 281 -0
151 281 -0
152 281 -0
153 281 -0
154 281 -0
155 281 -0
156 281 -0
157 281 -0
158 281 -0
159 281 -0
160 281 -0
161 281 -0
162 281 -0
163 281 -0
164 281 -0
165 281 -0
166 281 -0
167 281 -0
168 281 -0
169 281 -0
170 281 -0
171 281 -0
172 281 -0
173 281 -0
174 281 -0
175 281 -0
176 281 -0
177 281 -0
178 281 -0
179 281 -0
180 281 -0
181 281 -0
182 281 -0
183 281 -0
184 281 -0
185 281 -0
186 281 -0
187 281 -0
188 281 -0
189 281 -0
190 281 -0
191 281 -0
192 281 -0
193 281 -0
194 281 -0
195 281 -0
196 281 -0
197 281 -0
198 281 -0
199 281 -0
200 281 -0
201 281 -0
202 281 -0
203 281 -0
204 281 -0
205 281 -0
206 281 -0
207 281 -0
208 281 -0
209 281 -0
210 281 -0
211 281 -0
212 281 -0
213 281 -0
214 281 -0
215 281 -0
216 281 -0
217 281 -0
218 281 -0
219 281 -0
220 281 -0
221 281 -0
222 281 -0
223 281 -0
224 281 -0
225 281 -0
226 281 -0
227 281 -0
228 281 -0
229 281 -0
230 281 -0
231 281 -0
232 281 -0
233 281 -0
234 281 -0
235 281 -0
236 281 -0
237 281 -0
238 281 -0
239 281 -0
240 281 -0.9779954441855957
121 282 -0
122 282 -0
123 282 -0
124 282 -0
125 282 -0
126 282 -0
127 282 -0
128 282 -0
129 282 -0
130 282 -0
131 282 -0
132 282 -0
133 282 -0
134 282 -0
135 282 -0
136 282 -0
137 282 -0
138 282 -0
139 282 -0
140 282 -0
141 282 -0
142 282 -0
143 282 -0
144 282 -0
145 282 -0
146 282 -0
147 282 -0
148 282 -0
149 282 -0
150 282 -0
151 282 -0
152 282 -0
153 282 -0
154 282 -0
155 282 -0
156 282 -0
157 282 -0
158 282 -0
159 282 -0
160 282 -0
161 282 -0
162 282 -0
163 282 -0
164 282 -0
165 282 -0
166 282 -0
167 282 -0
168 282 -0
169 282 -0
170 282 -0
171 282 -0
172 282 -0
173 282 -0
174 282 -0
175 282 -0
176 282 -0
177 282 -0
178 282 -0
179 282 -0
180 282 -0
181 282 -0
182 282 -0
183 282 -0
184 282 -0
185 282 -0
186 282 -0
187 282 -0
188 282 -0
189 282 -0
190 282 -0
191 282 -0
192 282 -0
193 282 -0
194 282 -0
195 282 -0
196 282 -0
197 282 -0
198 282 -0
199 282 -0
200 282 -0
201 282 -0
202 282 -0
203 282 -0
204 282 -0
205 282 -0
206 282 -0
207 282 -0
208 282 -0
209 282 -0
210 282 -0
211 282 -0
212 282 -0
213 282 -0
214 282 -0
215 282 -0
216 282 -0
217 282 -0
218 282 -0
219 282 -0
220 282 -0
221 282 -0
222 282 -0
223 282 -0
224 282 -0
225 282 -0
226 282 -0
227 282 -0
228 282 -0
229 282 -0
230 282 -0
231 282 -0
232 282 -0
233 282 -0
234 282 -0
235 282 -0
236 282 -0
237 282 -0
238 282 -0
239 282 -0
240 282 -0
121 283 -0
122 283 -0
123 283 -0
124 283 -0
125 283 -0
126 283 -0
127 283 -0
128 283 -0
129 283 -0
130 283 -0
131 283 -0
132 283 -0
133 283 -0
134 283 -0
135 283 -0
136 283 -0
137 283 -0
138 283 -0
139 283 -0
140 283 -0
141 283 -0
142 283 -0
143 283 -0
144 283 -0
145 283 -0
146 283 -0
147 283 -0
148 283 -0
149 283 -0
150 283 -0
151 283 -0
152 283 -0
153 283 -0
154 283 -0
155 283 -0
156 283 -0
157 283 -0
158 283 -0
159 283 -0
160 283 -0
161 283 -0
162 283 -0
163 283 -0
164 283 -0
165 283 -0
166 283 -0
167 283 -0
168 283 -0
169 283 -0
170 283 -0
171 283 -0
172 283 -0
173 283 -0
174 283 -0
175 283 -0
176 283 -0
177 283 -0
178 283 -0
179 283 -0
180 283 -0
181 283 -0
182 283 -0
183 283 -0
184 283 -0
185 283 -0
186 283 -0
187 283 -0
188 283 -0
189 283 -0
190 283 -0
191 283 -0
192 283 -0
193 283 -0
194 283 -0
195 283 -0
196 283 -0
197 283 -0
198 283 -0
199 283 -0
200 283 -0
201 283 -0
202 283 -0
203 283 -0
204 283 -0
205 283 -0
206 283 -0
207 283 -0
208 283 -0
209 283 -0
210 283 -0
211 283 -0
212 283 -0
213 283 -0
214 283 -0
215 283 -0
216 283 -0
217 283 -0
218 283 -0
219 283 -0
220 283 -0
221 283 -0
222 283 -0
223 283 -0
224 283 -0
225 283 -0
226 283 -0
227 283 -0
228 283 -0
229 283 -0
230 283 -0
231 283 -0
232 283 -0
233 283 -0
234 283 -0
235 283 -0
236 283 -0
237 283 -0
238 283 -0
239 283 -0
240 283 -0
121 284 -0
122 284 -0
123 284 -0
124 284 -0
125 284 -0
126 284 -0
127 284 -0
128 284 -0
129 284 -0
130 284 -0
131 284 -0
132 284 -0
133 284 -0
134 284 -0
135 284 -0
136 284 -0
137 284 -0
138 284 -0
139 284 -0
140 284 -0
141 284 -0
142 284 -0
143 284 -0
144 284 -0
145 284 -0
146 284 -0
147 284 -0
148 284 -0
149 284 -0
150 284 -0
151 284 -0
152 284 -0
153 284 -0
154 284 -0
155 284 -0
156 284 -0
157 284 -0
158 284 -0
159 284 -0
160 284 -0
161 284 -0
162 284 -0
163 284 -0
164 284 -0
165 284 -0
166 284 -0
167 284 -0
168 284 -0
169 284 -0
170 284 -0
171 284 -0
172 284 -0
173 284 -0
174 284 -0
175 284 -0
176 284 -0
177 284 -0
178 284 -0
179 284 -0
180 284 -0
181 284 -0
182 284 -0
183 284 -0
184 284 -0
185 284 -0
186 284 -0
187 284 -0
188 284 -0
189 284 -0
190 284 -0
191 284 -0
192 284 -0
193 284 -0
194 284 -0
195 284 -0
196 284 -0
197 284 -0
198 284 -0
199 284 -0
200 284 -0
201 284 -0
202 284 -0
203 284 -0
204 284 -0
205 284 -0
206 284 -0
207 284 -0
208 284 -0
209 284 -0
210 284 -0
211 284 -0
212 284 -0
213 284 -0
214 284 -0
215 284 -0
216 284 -0
217 284 -0
218 284 -0
219 284 -0
220 284 -0
221 284 -0
222 284 -0
223 284 -0
224 284 -0
225 284 -0
226 284 -0
227 284 -0
228 284 -0
229 284 -0
230 284 -0
231 284 -0
232 284 -0
233 284 -0
234 284 -0
235 284 -0
236 284 -0
237 284 -0
238 284 -0
239 284 -0
240 284 -0
121 285 -0
122 285 -0
123 285 -0
124 285 -0
125 285 -0
126 285 -0
127 285 -0
128 285 -0
129 285 -0
130 285 -0
131 285 -0
132 285 -0
133 285 -0
134 285 -0
135 285 -0
136 285 -0
137 285 -0
138 285 -0
139 285 -0
140 285 -0
141 285 -0
142 285 -0
143 285 -0
144 285 -0
145 285 -0
146 285 -0
147 285 -0
148 285 -0
149 285 -0
150 285 -0
151 285 -0
152 285 -0
153 285 -0
154 285 -0
155 285 -0
156 285 -0
157 285 -0
158 285 -0
159 285 -0
160 285 -0
161 285 -0
162 285 -0
163 285 -0
164 285 -0
165 285 -0
166 285 -0
167 285 -0
168 285 -0
169 285 -0
170 285 -0
171 285 -0
172 285 -0
173 285 -0
174 285 -0
175 285 -0
176 285 -0
177 285 -0
178 285 -0
179 285 -0
180 285 -0
181 285 -0
182 285 -0
183 285 -0
184 285 -0
185 285 -0
186 285 -0
187 285 -0
188 285 -0
189 285 -0
190 285 -0
191 285 -0
192 285 -0
193 285 -0
194 285 -0
195 285 -0
196 285 -0
197 285 -0
198 285 -0
199 285 -0
200 285 -0
201 285 -0
202 285 -0
203 285 -0
204 285 -0
205 285 -0
206 285 -0
207 285 -0
208 285 -0
209 285 -0
210 285 -0
211 285 -0
212 285 -0
213 285 -0
214 285 -0
215 285 -0
216 285 -0
217 285 -0
218 285 -0
219 285 -0
220 285 -0
221 285 -0
222 285 -0
223 285 -0
224 285 -0
225 285 -0
226 285 -0
227 285 -0
228 285 -0
229 285 -0
230 285 -0
231 285 -0
232 285 -0
233 285 -0
234 285 -0
235 285 -0
236 285 -0
237 285 -0
238 285 -0
239 285 -0
240 285 -0
121 286 -0
122 286 -0
123 286 -0
124 286 -0
125 286 -0
126 286 -0
127 286 -0
128 286 -0
129 286 -0
130 286 -0
131 286 -0
132 286 -0
133 286 -0
134 286 -0
135 286 -0
136 286 -0
137 286 -0
138 286 -0
139 286 -0
140 286 -0
141 286 -0
142 286 -0
143 286 -0
144 286 -0
145 286 -0
146 286 -0
147 286 -0
148 286 -0
149 286 -0
150 286 -0
151 286 -0
152 286 -0
153 286 -0
154 286 -0
155 286 -0
156 286 -0
157 286 -0
158 286 -0
159 286 -0
160 286 -0
161 286 -0
162 286 -0
163 286 -0
164 286 -0
165 286 -0
166 286 -0
167 286 -0
168 286 -0
169 286 -0
170 286 -0
171 286 -0
172 286 -0
173 286 -0
174 286 -0
175 286 -0
176 286 -0
177 286 -0
178 286 -0
179 286 -0
180 286 -0
181 286 -0
182 286 -0
183 286 -0
184 286 -0
185 286 -0
186 286 -0
187 286 -0
188 286 -0
189 286 -0
190 286 -0
191 286 -0
192 286 -0
193 286 -0
194 286 -0
195 286 -0
196 286 -0
197 286 -0
198 286 -0
199 286 -0
200 286 -0
201 286 -0
202 286 -0
203 286 -0
204 286 -0
205 286 -0
206 286 -0
207 286 -0
208 286 -0
209 286 -0
210 286 -0
211 286 -0
212 286 -0
213 286 -0
214 286 -0
215 286 -0
216 286 -0
217 286 -0
218 286 -0
219 286 -0
220 286 -0
221 286 -0
222 286 -0
223 286 -0
224 286 -0
225 286 -0
226 286 -0
227 286 -0
228 286 -0
229 286 -0
230 286 -0
231 286 -0
232 286 -0
233 286 -0
234 286 -0
235 286 -0
236 286 -0
237 286 -0
238 286 -0
239 286 -0
240 286 -0
121 287 -0
122 287 -0
123 287 -0
124 287 -0
125 287 -0
126 287 -0
127 287 -0
128 287 -0
129 287 -0
130 287 -0
131 287 -0
132 287 -0
133 287 -0
134 287 -0
135 287 -0
136 287 -0
137 287 -0
138 287 -0
139 287 -0
140 287 -0
141 287 -0
142 287 -0
143 287 -0
144 287 -0
145 287 -0
146 287 -0
147 287 -0
148 287 -0
149 287 -0
150 287 -0
151 287 -0
152 287 -0
153 287 -0
154 287 -0
155 287 -0
156 287 -0
157 287 -0
158 287 -0
159 287 -0
160 287 -0
161 287 -0
162 287 -0
163 287 -0
164 287 -0
165 287 -0
166 287 -0
167 287 -0
168 287 -0
169 287 -0
170 287 -0
171 287 -0
172 287 -0
173 287 -0
174 287 -0
175 287 -0
176 287 -0
177 287 -0
178 287 -0
179 287 -0
180 287 -0
181 287 -0
182 287 -0
183 287 -0
184 287 -0
185 287 -0
186 287 -0
187 287 -0
188 287 -0
189 287 -0
190 287 -0
191 287 -0
192 287 -0
193 287 -0
194 287 -0
195 287 -0
196 287 -0
197 287 -0
198 287 -0
199 287 -0
200 287 -0
201 287 -0
202 287 -0
203 287 -0
204 287 -0
205 287 -0
206 287 -0
207 287 -0
208 287 -0
209 287 -0
210 287 -0
211 287 -0
212 287 -0
213 287 -0
214 287 -0
215 287 -0
216 287 -0
217 287 -0
218 287 -0
219 287 -0
220 287 -0
221 287 -0
222 287 -0
223 287 -0
224 287 -0
225 287 -0
226 287 -0
227 287 -0
228 287 -0
229 287 -0
230 287 -0
231 287 -0
232 287 -0
233 287 -0
234 287 -0
235 287 -0
236 287 -0
237 287 -0
238 287 -0
239 287 -0
240 287 -0
121 288 -0
122 288 -0
123 288 -0
124 288 -0
125 288 -0
126 288 -0
127 288 -0
128 288 -0
129 288 -0
130 288 -0
131 288 -0
132 288 -0
133 288 -0
134 288 -0
135 288 -0
136 288 -0
137 288 -0
138 288 -0
139 288 -0
140 288 -0
141 288 -0
142 288 -0
143 288 -0
144 288 -0
145 288 -0
146 288 -0
147 288 -0
148 288 -0
149 288 -0
150 288 -0
151 288 -0
152 288 -0
153 288 -0
154 288 -0
155 288 -0
156 288 -0
157 288 -0
158 288 -0
159 288 -0
160 288 -0
161 288 -0
162 288 -0
163 288 -0
164 288 -0
165 288 -0
166 288 -0
167 288 -0
168 288 -0
169 288 -0
170 288 -0
171 288 -0
172 288 -0
173 288 -0
174 288 -0
175 288 -0
176 288 -0
177 288 -0
178 288 -0
179 288 -0
180 288 -0
181 288 -0
182 288 -0
183 288 -0
184 288 -0
185 288 -0
186 288 -0
187 288 -0
188 288 -0
189 288 -0
190 288 -0
191 288 -0
192 288 -0
193 288 -0
194 288 -0
195 288 -0
196 288 -0
197 288 -0
198 288 -0
199 288 -0
200 288 -0
201 288 -0
202 288 -0
203 288 -0
204 288 -0
205 288 -0
206 288 -0
207 288 -0
208 288 -0
209 288 -0
210 288 -0
211 288 -0
212 288 -0
213 288 -0
214 288 -0
215 288 -0
216 288 -0
217 288 -0
218 288 -0
219 288 -0
220 288 -0
221 288 -0
222 288 -0
223 288 -0
224 288 -0
225 288 -0
226 288 -0
227 288 -0
228 288 -0
229 288 -0
230 288 -0
231 288 -0
232 288 -0
233 288 -0
234 288 -0
235 288 -0
236 288 -0
237 288 -0
238 288 -0
239 288 -0
240 288 -0
1 289 -0.9652674876885331
2 289 -0
3 289 -0
4 289 -0
5 289 -0
6 289 -0
7 289 -0
8 289 -0
9 289 -0
10 289 -0
11 289 -0
12 289 -0
13 289 -0
14 289 -0
15 289 -0
16 289 -0
17 289 -0
18 289 -0
19 289 -0
20 289 -0
21 289 -0
22 289 -0
23 289 -0
24 289 -0
25 289 -0
26 289 -0
27 289 -0
28 289 -0
29 289 -0
30 289 -0
31 289 -0
32 289 -0
33 289 -0
34 289 -0
35 289 -0
36 289 -0
37 289 -0
38 289 -0
39 289 -0
40 289 -0
41 289 -0
42 289 -0
43 289 -0
44 289 -0
45 289 -0
46 289 -0
47 289 -0
48 289 -0
49 289 -0
50 289 -0
51 289 -0
52 289 -0
53 289 -0
54 289 -0
55 289 -0
56 289 -0
57 289 -0
58 289 -0
59 289 -0
60 289 -0
121 289 0
122 289 0
123 289 0
124 289 0
125 289 0
126 289 0
127 289 0
128 289 0
129 289 0
130 289 0
131 289 0
132 289 0
133 289 0
134 289 0
135 289 0
136 289 0
137 289 0
138 289 0
139 289 0
140 289 0
141 289 0
142 289 0
143 289 0
144 289 0
145 289 0
146 289 0
147 289 0
148 289 0
149 289 0
150 289 0
151 289 0
152 289 0
153 289 0
154 289 0
155 289 0
156 289 0
157 289 0
158 289 0
159 289 0
160 289 0
161 289 0
162 289 0
163 289 0
164 289 0
165 289 0
166 289 0
167 289 0
168 289 0
169 289 0
170 289 0
171 289 0
172 289 0
173 289 0
174 289 0
175 289 0
176 289 0
177 289 0
178 289 0
179 289 0
180 289 0
1 290 -0
2 290 -0.9652674876885331
3 290 -0
4 290 -0
5 290 -0
6 290 -0
7 290 -0
8 290 -0
9 290 -0
10 290 -0
11 290 -0
12 290 -0
13 290 -0
14 290 -0
15 290 -0
16 290 -0
17 290 -0
18 290 -0
19 290 -0
20 290 -0
21 290 -0
22 290 -0
23 290 -0
24 290 -0
25 290 -0
26 290 -0
27 290 -0
28 290 -0
29 290 -0
30 290 -0
31 290 -0
32 290 -0
33 290 -0
34 290 -0
35 290 -0
36 290 -0
37 290 -0
38 290 -0
39 290 -0
40 290 -0
41 290 -0
42 290 -0
43 290 -0
44 290 -0
45 290 -0
46 290 -0
47 290 -0
48 290 -0
49 290 -0
50 290 -0
51 290 -0
52 290 -0
53 290 -0
54 290 -0
55 290 -0
56 290 -0
57 290 -0
58 290 -0
59 290 -0
60 290 -0
121 290 0
122 290 0
123 290 0
124 290 0
125 290 0
126 290 0
127 290 0
128 290 0
129 290 0
130 290 0
131 290 0
132 290 0
133 290 0
134 290 0
135 290 0
136 290 0
137 290 0
138 290 0
139 290 0
140 290 0
141 290 0
142 290 0
143 290 0
144 290 0
145 290 0
146 290 0
147 290 0
148 290 0
149 290 0
150 290 0
151 290 0
152 290 0
153 290 0
154 290 0
155 290 0
156 290 0
157 290 0
158 290 0
159 290 0
160 290 0
161 290 0
162 290 0
163 290 0
164 290 0
165 290 0
166 290 0
167 290 0
168 290 0
169 290 0
170 290 0
171 290 0
172 290 0
173 290 0
174 290 0
175 290 0
176 290 0
177 290 0
178 290 0
179 290 0
180 290 0
1 291 -0
2 291 -0
3 291 -0.9652674876885331
4 291 -0
5 291 -0
6 291 -0
7 291 -0
8 291 -0
9 291 -0
10 291 -0
11 291 -0
12 291 -0
13 291 -0
14 291 -0
15 291 -0
16 291 -0
17 291 -0
18 291 -0
19 291 -0
20 291 -0
21 291 -0
22 291 -0
23 291 -0
24 291 -0
25 291 -0
26 291 -0
27 291 -0
28 291 -0
29 291 -0
30 291 -0
31 291 -0
32 291 -0
33 291 -0
34 291 -0
35 291 -0
36 291 -0
37 291 -0
38 291 -0
39 291 -0
40 291 -0
41 291 -0
42 291 -0
43 291 -0
44 291 -0
45 291 -0
46 291 -0
47 291 -0
48 291 -0
49 291 -0
50 291 -0
51 291 -0
52 291 -0
53 291 -0
54 291 -0
55 291 -0
56 291 -0
57 291 -0
58 291 -0
59 291 -0
60 291 -0
121 291 0
122 291 0
123 291 0
124 291 0
125 291 0
126 291 0
127 291 0
128 291 0
129 291 0
130 291 0
131 291 0
132 291 0
133 291 0
134 291 0
135 291 0
136 291 0
137 291 0
138 291 0
139 291 0
140 291 0
141 291 0
142 291 0
143 291 0
144 291 0
145 291 0
146 291 0
147 291 0
148 291 0
149 291 0
150 291 0
151 291 0
152 291 0
153 291 0
154 291 0
155 291 0
156 291 0
157 291 0
158 291 0
159 291 0
160 291 0
161 291 0
162 291 0
163 291 0
164 291 0
165 291 0
166 291 0
167 291 0
168 291 0
169 291 0
170 291 0
171 291 0
172 291 0
173 291 0
174 291 0
175 291 0
176 291 0
177 291 0
178 291 0
179 291 0
180 291 0
1 292 -0
2 292 -0
3 292 -0
4 292 -0.9652674876885331
5 292 -0
6 292 -0
7 292 -0
8 292 -0
9 292 -0
10 292 -0
11 292 -0
12 292 -0
13 292 -0
14 292 -0
15 292 -0
16 292 -0
17 292 -0
18 292 -0
19 292 -0
20 292 -0
21 292 -0
22 292 -0
23 292 -0
24 292 -0
25 292 -0
26 292 -0
27 292 -0
28 292 -0
29 292 -0
30 292 -0
31 292 -0
32 292 -0
33 292 -0
34 292 -0
35 292 -0
36 292 -0
37 292 -0
38 292 -0
39 292 -0
40 292 -0
41 292 -0
42 292 -0
43 292 -0
44 292 -0
45 292 -0
46 292 -0
47 292 -0
48 292 -0
49 292 -0
50 292 -0
51 292 -0
52 292 -0
53 292 -0
54 292 -0
55 292 -0
56 292 -0
57 292 -0
58 292 -0
59 292 -0
60 292 -0
121 292 0
122 292 0
123 292 0
124 292 0
125 292 0
126 292 0
127 292 0
128 292 0
129 292 0
130 292 0
131 292 0
132 292 0
133 292 0
134 292 0
135 292 0
136 292 0
137 292 0
138 292 0
139 292 0
140 292 0
141 292 0
142 292 0
143 292 0
144 292 0
145 292 0
146 292 0
147 292 0
148 292 0
149 292 0
150 292 0
151 292 0
152 292 0
153 292 0
154 292 0
155 292 0
156 292 0
157 292 0
158 292 0
159 292 0
160 292 0
161 292 0
162 292 0
163 292 0
164 292 0
165 292 0
166 292 0
167 292 0
168 292 0
169 292 0
170 292 0
171 292 0
172 292 0
173 292 0
174 292 0
175 292 0
176 292 0
177 292 0
178 292 0
179 292 0
180 292 0
1 293 -0
2 293 -0
3 293 -0
4 293 -0
5 293 -0.9652674876885331
6 293 -0
7 293 -0
8 293 -0
9 293 -0
10 293 -0
11 293 -0
12 293 -0
13 293 -0
14 293 -0
15 293 -0
16 293 -0
17 293 -0
18 293 -0
19 293 -0
20 293 -0
21 293 -0
22 293 -0
23 293 -0
24 293 -0
25 293 -0
26 293 -0
27 293 -0
28 293 -0
29 293 -0
30 293 -0
31 293 -0
32 293 -0
33 293 -0
34 293 -0
35 293 -0
36 293 -0
37 293 -0
38 293 -0
39 293 -0
40 293 -0
41 293 -0
42 293 -0
43 293 -0
44 293 -0
45 293 -0
46 293 -0
47 293 -0
48 293 -0
49 293 -0
50 293 -0
51 293 -0
52 293 -0
53 293 -0
54 293 -0
55 293 -0
56 293 -0
57 293 -0
58 293 -0
59 293 -0
60 293 -0
121 293 0
122 293 0
123 293 0
124 293 0
125 293 0
126 293 0
127 293 0
128 293 0
129 293 0
130 293 0
131 293 0
132 293 0
133 293 0
134 293 0
135 293 0
136 293 0
137 293 0
138 293 0
139 293 0
140 293 0
141 293 0
142 293 0
143 293 0
144 293 0
145 293 0
146 293 0
147 293 0
148 293 0
149 293 0
150 293 0
151 293 0
152 293 0
153 293 0
154 293 0
155 293 0
156 293 0
157 293 0
158 293 0
159 293 0
160 293 0
161 293 0
162 293 0
163 293 0
164 293 0
165 293 0
166 293 0
167 293 0
168 293 0
169 293 0
170 293 0
171 293 0
172 293 0
173 293 0
174 293 0
175 293 0
176 293 0
177 293 0
178 293 0
179 293 0
180 293 0
1 294 -0
2 294 -0
3 294 -0
4 294 -0
5 294 -0
6 294 -0
7 294 -0
8 294 -0
9 294 -0
10 294 -0
11 294 -0
12 294 -0
13 294 -0
14 294 -0
15 294 -0
16 294 -0
17 294 -0
18 294 -0
19 294 -0
20 294 -0
21 294 -0
22 294 -0
23 294 -0
24 294 -0
25 294 -0
26 294 -0
27 294 -0
28 294 -0
29 294 -0
30 294 -0
31 294 -0
32 294 -0
33 294 -0
34 294 -0
35 294 -0
36 294 -0
37 294 -0
38 294 -0
39 294 -0
40 294 -0
41 294 -0
42 294 -0
43 294 -0
44 294 -0
45 294 -0
46 294 -0
47 294 -0
48 294 -0
49 294 -0
50 294 -0
51 294 -0
52 294 -0
53 294 -0
54 294 -0
55 294 -0
56 294 -0
57 294 -0
58 294 -0
59 294 -0
60 294 -0
121 294 0
122 294 0
123 294 0
124 294 0
125 294 0
126 294 0
127 294 0
128 294 0
129 294 0
130 294 0
131 294 0
132 294 0
133 294 0
134 294 0
135 294 0
136 294 0
137 294 0
138 294 0
139 294 0
140 294 0
141 294 0
142 294 0
143 294 0
144 294 0
145 294 0
146 294 0
147 294 0
148 294 0
149 294 0
150 294 0
151 294 0
152 294 0
153 294 0
154 294 0
155 294 0
156 294 0
157 294 0
158 294 0
159 294 0
160 294 0
161 294 0
162 294 0
163 294 0
164 294 0
165 294 0
166 294 0
167 294 0
168 294 0
169 294 0
170 294 0
171 294 0
172 294 0
173 294 0
174 294 0
175 294 0
176 294 0
177 294 0
178 294 0
179 294 0
180 294 0
1 295 -0
2 295 -0
3 295 -0
4 295 -0
5 295 -0
6 295 -0
7 295 -0
8 295 -0
9 295 -0
10 295 -0
11 295 -0
12 295 -0
13 295 -0
14 295 -0
15 295 -0
16 295 -0
17 295 -0
18 295 -0
19 295 -0
20 295 -0
21 295 -0
22 295 -0
23 295 -0
24 295 -0
25 295 -0
26 295 -0
27 295 -0
28 295 -0
29 295 -0
30 295 -0
31 295 -0
32 295 -0
33 295 -0
34 295 -0
35 295 -0
36 295 -0
37 295 -0
38 295 -0
39 295 -0
40 295 -0
41 295 -0
42 295 -0
43 295 -0
44 295 -0
45 295 -0
46 295 -0
47 295 -0
48 295 -0
49 295 -0
50 295 -0
51 295 -0
52 295 -0
53 295 -0
54 295 -0
55 295 -0
56 295 -0
57 295 -0
58 295 -0
59 295 -0
60 295 -0
121 295 0
122 295 0
123 295 0
124 295 0
125 295 0
126 295 0
127 295 0
128 295 0
129 295 0
130 295 0
131 295 0
132 295 0
133 295 0
134 295 0
135 295 0
136 295 0
137 295 0
138 295 0
139 295 0
140 295 0
141 295 0
142 295 0
143 295 0
144 295 0
145 295 0
146 295 0
147 295 0
148 295 0
149 295 0
150 295 0
151 295 0
152 295 0
153 295 0
154 295 0
155 295 0
156 295 0
157 295 0
158 295 0
159 295 0
160 295 0
161 295 0
162 295 0
163 295 0
164 295 0
165 295 0
166 295 0
167 295 0
168 295 0
169 295 0
170 295 0
171 295 0
172 295 0
173 295 0
174 295 0
175 295 0
176 295 0
177 295 0
178 295 0
179 295 0
180 295 0
1 296 -0
2 296 -0
3 296 -0
4 296 -0
5 296 -0
6 296 -0
7 296 -0
8 296 -0
9 296 -0
10 296 -0
11 296 -0
12 296 -0
13 296 -0
14 296 -0
15 296 -0
16 296 -0
17 296 -0
18 296 -0
19 296 -0
20 296 -0
21 296 -0
22 296 -0
23 296 -0
24 296 -0
25 296 -0
26 296 -0
27 296 -0
28 296 -0
29 296 -0
30 296 -0
31 296 -0
32 296 -0
33 296 -0
34 296 -0
35 296 -0
36 296 -0
37 296 -0
38 296 -0
39 296 -0
40 296 -0
41 296 -0
42 296 -0
43 296 -0
44 296 -0
45 296 -0
46 296 -0
47 296 -0
48 296 -0
49 296 -0
50 296 -0
51 296 -0
52 296 -0
53 296 -0
54 296 -0
55 296 -0
56 296 -0
57 296 -0
58 296 -0
59 296 -0
60 296 -0
121 296 0
122 296 0
123 296 0
124 296 0
125 296 0
126 296 0
127 296 0
128 296 0
129 296 0
130 296 0
131 296 0
132 296 0
133 296 0
134 296 0
135 296 0
136 296 0
137 296 0
138 296 0
139 296 0
140 296 0
141 296 0
142 296 0
143 296 0
144 296 0
145 296 0
146 296 0
147 296 0
148 296 0
149 296 0
150 296 0
151 296 0
152 296 0
153 296 0
154 296 0
155 296 0
156 296 0
157 296 0
158 296 0
159 296 0
160 296 0
161 296 0
162 296 0
163 296 0
164 296 0
165 296 0
166 296 0
167 296 0
168 296 0
169 296 0
170 296 0
171 296 0
172 296 0
173 296 0
174 296 0
175 296 0
176 296 0
177 296 0
178 296 0
179 296 0
180 296 0
1 297 -0
2 297 -0
3 297 -0
4 297 -0
5 297 -0
6 297 -0
7 297 -0
8 297 -0
9 297 -0
10 297 -0
11 297 -0
12 297 -0
13 297 -0
14 297 -0
15 297 -0
16 297 -0
17 297 -0
18 297 -0
19 297 -0
20 297 -0
21 297 -0
22 297 -0
23 297 -0
24 297 -0
25 297 -0
26 297 -0
27 297 -0
28 297 -0
29 297 -0
30 297 -0
31 297 -0
32 297 -0
33 297 -0
34 297 -0
35 297 -0
36 297 -0
37 297 -0
38 297 -0
39 297 -0
40 297 -0
41 297 -0
42 297 -0
43 297 -0
44 297 -0
45 297 -0
46 297 -0
47 297 -0
48 297 -0
49 297 -0
50 297 -0
51 297 -0
52 297 -0
53 297 -0
54 297 -0
55 297 -0
56 297 -0
57 297 -0
58 297 -0
59 297 -0
60 297 -0
121 297 0
122 297 0
123 297 0
124 297 0
125 297 0
126 297 0
127 297 0
128 297 0
129 297 0
130 297 0
131 297 0
132 297 0
133 297 0
134 297 0
135 297 0
136 297 0
137 297 0
138 297 0
139 297 0
140 297 0
141 297 0
142 297 0
143 297 0
144 297 0
145 297 0
146 297 0
147 297 0
148 297 0
149 297 0
150 297 0
151 297 0
152 297 0
153 297 0
154 297 0
155 297 0
156 297 0
157 297 0
158 297 0
159 297 0
160 297 0
161 297 0
162 297 0
163 297 0
164 297 0
165 297 0
166 297 0
167 297 0
168 297 0
169 297 0
170 297 0
171 297 0
172 297 0
173 297 0
174 297 0
175 297 0
176 297 0
177 297 0
178 297 0
179 297 0
180 297 0
1 298 -0
2 298 -0
3 298 -0
4 298 -0
5 298 -0
6 298 -0
7 298 -0
8 298 -0
9 298 -0
10 298 -0
11 298 -0
12 298 -0
13 298 -0
14 298 -0
15 298 -0
16 298 -0
17 298 -0
18 298 -0
19 298 -0
20 298 -0
21 298 -0
22 298 -0
23 298 -0
24 298 -0
25 298 -0
26 298 -0
27 298 -0
28 298 -0
29 298 -0
30 298 -0
31 298 -0
32 298 -0
33 298 -0
34 298 -0
35 298 -0
36 298 -0
37 298 -0
38 298 -0
39 298 -0
40 298 -0
41 298 -0
42 298 -0
43 298 -0
44 298 -0
45 298 -0
46 298 -0
47 298 -0
48 298 -0
49 298 -0
50 298 -0
51 298 -0
52 298 -0
53 298 -0
54 298 -0
55 298 -0
56 298 -0
57 298 -0
58 298 -0
59 298 -0
60 298 -0
121 298 0
122 298 0
123 298 0
124 298 0
125 298 0
126 298 0
127 298 0
128 298 0
129 298 0
130 298 0
131 298 0
132 298 0
133 298 0
134 298 0
135 298 0
136 298 0
137 298 0
138 298 0
139 298 0
140 298 0
141 298 0
142 298 0
143 298 0
144 298 0
145 298 0
146 298 0
147 298 0
148 298 0
149 298 0
150 298 0
151 298 0
152 298 0
153 298 0
154 298 0
155 298 0
156 298 0
157 298 0
158 298 0
159 298 0
160 298 0
161 298 0
162 298 0
163 298 0
164 298 0
165 298 0
166 298 0
167 298 0
168 298 0
169 298 0
170 298 0
171 298 0
172 298 0
173 298 0
174 298 0
175 298 0
176 298 0
177 298 0
178 298 0
179 298 0
180 298 0
1 299 -0
2 299 -0
3 299 -0
4 299 -0
5 299 -0
6 299 -0
7 299 -0
8 299 -0
9 299 -0
10 299 -0
11 299 -0
12 299 -0
13 299 -0
14 299 -0
15 299 -0
16 299 -0
17 299 -0
18 299 -0
19 299 -0
20 299 -0
21 299 -0
22 299 -0
23 299 -0
24 299 -0
25 299 -0
26 299 -0
27 299 -0
28 299 -0
29 299 -0
30 299 -0
31 299 -0
32 299 -0
33 299 -0
34 299 -0
35 299 -0
36 299 -0
37 299 -0
38 299 -0
39 299 -0
40 299 -0
41 299 -0
42 299 -0
43 299 -0
44 299 -0
45 299 -0
46 299 -0
47 299 -0
48 299 -0
49 299 -0
50 299 -0
51 299 -0
52 299 -0
53 299 -0
54 299 -0
55 299 -0
56 299 -0
57 299 -0
58 299 -0
59 299 -0
60 299 -0
121 299 0
122 299 0
123 299 0
124 299 0
125 299 0
126 299 0
127 299 0
128 299 0
129 299 0
130 299 0
131 299 0
132 299 0
133 299 0
134 299 0
135 299 0
136 299 0
137 299 0
138 299 0
139 299 0
140 299 0
141 299 0
142 299 0
143 299 0
144 299 0
145 299 0
146 299 0
147 299 0
148 299 0
149 299 0
150 299 0
151 299 0
152 299 0
153 299 0
154 299 0
155 299 0
156 299 0
157 299 0
158 299 0
159 299 0
160 299 0
161 299 0
162 299 0
163 299 0
164 299 0
165 299 0
166 299 0
167 299 0
168 299 0
169 299 0
170 299 0
171 299 0
172 299 0
173 299 0
174 299 0
175 299 0
176 299 0
177 299 0
178 299 0
179 299 0
180 299 0
1 300 -0
2 300 -0
3 300 -0
4 300 -0
5 300 -0
6 300 -0
7 300 -0
8 300 -0
9 300 -0
10 300 -0
11 300 -0
12 300 -0
13 300 -0
14 300 -0
15 300 -0
16 300 -0
17 300 -0
18 300 -0
19 300 -0
20 300 -0
21 300 -0
22 300 -0
23 300 -0
24 300 -0
25 300 -0
26 300 -0
27 300 -0
28 300 -0
29 300 -0
30 300 -0
31 300 -0
32 300 -0
33 300 -0
34 300 -0
35 300 -0
36 300 -0
37 300 -0
38 300 -0
39 300 -0
40 300 -0
41 300 -0
42 300 -0
43 300 -0
44 300 -0
45 300 -0
46 300 -0
47 300 -0
48 300 -0
49 300 -0
50 300 -0
51 300 -0
52 300 -0
53 300 -0
54 300 -0
55 300 -0
56 300 -0
57 300 -0
58 300 -0
59 300 -0
60 300 -0
121 300 0
122 300 0
123 300 0
124 300 0
125 300 0
126 300 0
127 300 0
128 300 0
129 300 0
130 300 0
131 300 0
132 300 0
133 300 0
134 300 0
135 300 0
136 300 0
137 300 0
138 300 0
139 300 0
140 300 0
141 300 0
142 300 0
143 300 0
144 300 0
145 300 0
146 300 0
147 300 0
148 300 0
149 300 0
150 300 0
151 300 0
152 300 0
153 300 0
154 300 0
155 300 0
156 300 0
157 300 0
158 300 0
159 300 0
160 300 0
161 300 0
162 300 0
163 300 0
164 300 0
165 300 0
166 300 0
167 300 0
168 300 0
169 300 0
170 300 0
171 300 0
172 300 0
173 300 0
174 300 0
175 300 0
176 300 0
177 300 0
178 300 0
179 300 0
180 300 0
1 301 -0
2 301 -0
3 301 -0
4 301 -0
5 301 -0
6 301 -0.9652674876885331
7 301 -0
8 301 -0
9 301 -0
10 301 -0
11 301 -0
12 301 -0
13 301 -0
14 301 -0
15 301 -0
16 301 -0
17 301 -0
18 301 -0
19 301 -0
20 301 -0
21 301 -0
22 301 -0
23 301 -0
24 301 -0
25 301 -0
26 301 -0
27 301 -0
28 301 -0
29 301 -0
30 301 -0
31 301 -0
32 301 -0
33 301 -0
34 301 -0
35 301 -0
36 301 -0
37 301 -0
38 301 -0
39 301 -0
40 301 -0
41 301 -0
42 301 -0
43 301 -0
44 301 -0
45 301 -0
46 301 -0
47 301 -0
48 301 -0
49 301 -0
50 301 -0
51 301 -0
52 301 -0
53 301 -0
54 301 -0
55 301 -0
56 301 -0
57 301 -0
58 301 -0
59 301 -0
60 301 -0
121 301 0
122 301 0
123 301 0
124 301 0
125 301 0
126 301 0
127 301 0
128 301 0
129 301 0
130 301 0
131 301 0
132 301 0
133 301 0
134 301 0
135 301 0
136 301 0
137 301 0
138 301 0
139 301 0
140 301 0
141 301 0
142 301 0
143 301 0
144 301 0
145 301 0
146 301 0
147 301 0
148 301 0
149 301 0
150 301 0
151 301 0
152 301 0
153 301 0
154 301 0
155 301 0
156 301 0
157 301 0
158 301 0
159 301 0
160 301 0
161 301 0
162 301 0
163 301 0
164 301 0
165 301 0
166 301 0
167 301 0
168 301 0
169 301 0
170 301 0
171 301 0
172 301 0
173 301 0
174 301 0
175 301 0
176 301 0
177 301 0
178 301 0
179 301 0
180 301 0
1 302 -0
2 302 -0
3 302 -0
4 302 -0
5 302 -0
6 302 -0
7 302 -0.9652674876885331
8 302 -0
9 302 -0
10 302 -0
11 302 -0
12 302 -0
13 302 -0
14 302 -0
15 302 -0
16 302 -0
17 302 -0
18 302 -0
19 302 -0
20 302 -0
21 302 -0
22 302 -0
23 302 -0
24 302 -0
25 302 -0
26 302 -0
27 302 -0
28 302 -0
29 302 -0
30 302 -0
31 302 -0
32 302 -0
33 302 -0
34 302 -0
35 302 -0
36 302 -0
37 302 -0
38 302 -0
39 302 -0
40 302 -0
41 302 -0
42 302 -0
43 302 -0
44 302 -0
45 302 -0
46 302 -0
47 302 -0
48 302 -0
49 302 -0
50 302 -0
51 302 -0
52 302 -0
53 302 -0
54 302 -0
55 302 -0
56 302 -0
57 302 -0
58 302 -0
59 302 -0
60 302 -0
121 302 0
122 302 0
123 302 0
124 302 0
125 302 0
126 302 0
127 302 0
128 302 0
129 302 0
130 302 0
131 302 0
132 302 0
133 302 0
134 302 0
135 302 0
136 302 0
137 302 0
138 302 0
139 302 0
140 302 0
141 302 0
142 302 0
143 302 0
144 302 0
145 302 0
146 302 0
147 302 0
148 302 0
149 302 0
150 302 0
151 302 0
152 302 0
153 302 0
154 302 0
155 302 0
156 302 0
157 302 0
158 302 0
159 302 0
160 302 0
161 302 0
162 302 0
163 302 0
164 302 0
165 302 0
166 302 0
167 302 0
168 302 0
169 302 0
170 302 0
171 302 0
172 302 0
173 302 0
174 302 0
175 302 0
176 302 0
177 302 0
178 302 0
179 302 0
180 302 0
1 303 -0
2 303 -0
3 303 -0
4 303 -0
5 303 -0
6 303 -0
7 303 -0
8 303 -0.9652674876885331
9 303 -0
10 303 -0
11 303 -0
12 303 -0
13 303 -0
14 303 -0
15 303 -0
16 303 -0
17 303 -0
18 303 -0
19 303 -0
20 303 -0
21 303 -0
22 303 -0
23 303 -0
24 303 -0
25 303 -0
26 303 -0
27 303 -0
28 303 -0
29 303 -0
30 303 -0
31 303 -0
32 303 -0
33 303 -0
34 303 -0
35 303 -0
36 303 -0
37 303 -0
38 303 -0
39 303 -0
40 303 -0
41 303 -0
42 303 -0
43 303 -0
44 303 -0
45 303 -0
46 303 -0
47 303 -0
48 303 -0
49 303 -0
50 303 -0
51 303 -0
52 303 -0
53 303 -0
54 303 -0
55 303 -0
56 303 -0
57 303 -0
58 303 -0
59 303 -0
60 303 -0
121 303 0
122 303 0
123 303 0
124 303 0
125 303 0
126 303 0
127 303 0
128 303 0
129 303 0
130 303 0
131 303 0
132 303 0
133 303 0
134 303 0
135 303 0
136 303 0
137 303 0
138 303 0
139 303 0
140 303 0
141 303 0
142 303 0
143 303 0
144 303 0
145 303 0
146 303 0
147 303 0
148 303 0
149 303 0
150 303 0
151 303 0
152 303 0
153 303 0
154 303 0
155 303 0
156 303 0
157 303 0
158 303 0
159 303 0
160 303 0
161 303 0
162 303 0
163 303 0
164 303 0
165 303 0
166 303 0
167 303 0
168 303 0
169 303 0
170 303 0
171 303 0
172 303 0
173 303 0
174 303 0
175 303 0
176 303 0
177 303 0
178 303 0
179 303 0
180 303 0
1 304 -0
2 304 -0
3 304 -0
4 304 -0
5 304 -0
6 304 -0
7 304 -0
8 304 -0
9 304 -0.9652674876885331
10 304 -0
11 304 -0
12 304 -0
13 304 -0
14 304 -0
15 304 -0
16 304 -0
17 304 -0
18 304 -0
19 304 -0
20 304 -0
21 304 -0
22 304 -0
23 304 -0
24 304 -0
25 304 -0
26 304 -0
27 304 -0
28 304 -0
29 304 -0
30 304 -0
31 304 -0
32 304 -0
33 304 -0
34 304 -0
35 304 -0
36 304 -0
37 304 -0
38 304 -0
39 304 -0
40 304 -0
41 304 -0
42 304 -0
43 304 -0
44 304 -0
45 304 -0
46 304 -0
47 304 -0
48 304 -0
49 304 -0
50 304 -0
51 304 -0
52 304 -0
53 304 -0
54 304 -0
55 304 -0
56 304 -0
57 304 -0
58 304 -0
59 304 -0
60 304 -0
121 304 0
122 304 0
123 304 0
124 304 0
125 304 0
126 304 0
127 304 0
128 304 0
129 304 0
130 304 0
131 304 0
132 304 0
133 304 0
134 304 0
135 304 0
136 304 0
137 304 0
138 304 0
139 304 0
140 304 0
141 304 0
142 304 0
143 304 0
144 304 0
145 304 0
146 304 0
147 304 0
148 304 0
149 304 0
150 304 0
151 304 0
152 304 0
153 304 0
154 304 0
155 304 0
156 304 0
157 304 0
158 304 0
159 304 0
160 304 0
161 304 0
162 304 0
163 304 0
164 304 0
165 304 0
166 304 0
167 304 0
168 304 0
169 304 0
170 304 0
171 304 0
172 304 0
173 304 0
174 304 0
175 304 0
176 304 0
177 304 0
178 304 0
179 304 0
180 304 0
1 305 -0
2 305 -0
3 305 -0
4 305 -0
5 305 -0
6 305 -0
7 305 -0
8 305 -0
9 305 -0
10 305 -0.9652674876885331
11 305 -0
12 305 -0
13 305 -0
14 305 -0
15 305 -0
16 305 -0
17 305 -0
18 305 -0
19 305 -0
20 305 -0
21 305 -0
22 305 -0
23 305 -0
24 305 -0
25 305 -0
26 305 -0
27 305 -0
28 305 -0
29 305 -0
30 305 -0
31 305 -0
32 305 -0
33 305 -0
34 305 -0
35 305 -0
36 305 -0
37 305 -0
38 305 -0
39 305 -0
40 305 -0
41 305 -0
42 305 -0
43 305 -0
44 305 -0
45 305 -0
46 305 -0
47 305 -0
48 305 -0
49 305 -0
50 305 -0
51 305 -0
52 305 -0
53 305 -0
54 305 -0
55 305 -0
56 305 -0
57 305 -0
58 305 -0
59 305 -0
60 305 -0
121 305 0
122 305 0
123 305 0
124 305 0
125 305 0
126 305 0
127 305 0
128 305 0
129 305 0
130 305 0
131 305 0
132 305 0
133 305 0
134 305 0
135 305 0
136 305 0
137 305 0
138 305 0
139 305 0
140 305 0
141 305 0
142 305 0
143 305 0
144 305 0
145 305 0
146 305 0
147 305 0
148 305 0
149 305 0
150 305 0
151 305 0
152 305 0
153 305 0
154 305 0
155 305 0
156 305 0
157 305 0
158 305 0
159 305 0
160 305 0
161 305 0
162 305 0
163 305 0
164 305 0
165 305 0
166 305 0
167 305 0
168 305 0
169 305 0
170 305 0
171 305 0
172 305 0
173 305 0
174 305 0
175 305 0
176 305 0
177 305 0
178 305 0
179 305 0
180 305 0
1 306 -0
2 306 -0
3 306 -0
4 306 -0
5 306 -0
6 306 -0
7 306 -0
8 306 -0
9 306 -0
10 306 -0
11 306 -0
12 306 -0
13 306 -0
14 306 -0
15 306 -0
16 306 -0
17 306 -0
18 306 -0
19 306 -0
20 306 -0
21 306 -0
22 306 -0
23 306 -0
24 306 -0
25 306 -0
26 306 -0
27 306 -0
28 306 -0
29 306 -0
30 306 -0
31 306 -0
32 306 -0
33 306 -0
34 306 -0
35 306 -0
36 306 -0
37 306 -0
38 306 -0
39 306 -0
40 306 -0
41 306 -0
42 306 -0
43 306 -0
44 306 -0
45 306 -0
46 306 -0
47 306 -0
48 306 -0
49 306 -0
50 306 -0
51 306 -0
52 306 -0
53 306 -0
54 306 -0
55 306 -0
56 306 -0
57 306 -0
58 306 -0
59 306 -0
60 306 -0
121 306 0
122 306 0
123 306 0
124 306 0
125 306 0
126 306 0
127 306 0
128 306 0
129 306 0
130 306 0
131 306 0
132 306 0
133 306 0
134 306 0
135 306 0
136 306 0
137 306 0
138 306 0
139 306 0
140 306 0
141 306 0
142 306 0
143 306 0
144 306 0
145 306 0
146 306 0
147 306 0
148 306 0
149 306 0
150 306 0
151 306 0
152 306 0
153 306 0
154 306 0
155 306 0
156 306 0
157 306 0
158 306 0
159 306 0
160 306 0
161 306 0
162 306 0
163 306 0
164 306 0
165 306 0
166 306 0
167 306 0
168 306 0
169 306 0
170 306 0
171 306 0
172 306 0
173 306 0
174 306 0
175 306 0
176 306 0
177 306 0
178 306 0
179 306 0
180 306 0
1 307 -0
2 307 -0
3 307 -0
4 307 -0
5 307 -0
6 307 -0
7 307 -0
8 307 -0
9 307 -0
10 307 -0
11 307 -0
12 307 -0
13 307 -0
14 307 -0
15 307 -0
16 307 -0
17 307 -0
18 307 -0
19 307 -0
20 307 -0
21 307 -0
22 307 -0
23 307 -0
24 307 -0
25 307 -0
26 307 -0
27 307 -0
28 307 -0
29 307 -0
30 307 -0
31 307 -0
32 307 -0
33 307 -0
34 307 -0
35 307 -0
36 307 -0
37 307 -0
38 307 -0
39 307 -0
40 307 -0
41 307 -0
42 307 -0
43 307 -0
44 307 -0
45 307 -0
46 307 -0
47 307 -0
48 307 -0
49 307 -0
50 307 -0
51 307 -0
52 307 -0
53 307 -0
54 307 -0
55 307 -0
56 307 -0
57 307 -0
58 307 -0
59 307 -0
60 307 -0
121 307 0
122 307 0
123 307 0
124 307 0
125 307 0
126 307 0
127 307 0
128 307 0
129 307 0
130 307 0
131 307 0
132 307 0
133 307 0
134 307 0
135 307 0
136 307 0
137 307 0
138 307 0
139 307 0
140 307 0
141 307 0
142 307 0
143 307 0
144 307 0
145 307 0
146 307 0
147 307 0
148 307 0
149 307 0
150 307 0
151 307 0
152 307 0
153 307 0
154 307 0
155 307 0
156 307 0
157 307 0
158 307 0
159 307 0
160 307 0
161 307 0
162 307 0
163 307 0
164 307 0
165 307 0
166 307 0
167 307 0
168 307 0
169 307 0
170 307 0
171 307 0
172 307 0
173 307 0
174 307 0
175 307 0
176 307 0
177 307 0
178 307 0
179 307 0
180 307 0
1 308 -0
2 308 -0
3 308 -0
4 308 -0
5 308 -0
6 308 -0
7 308 -0
8 308 -0
9 308 -0
10 308 -0
11 308 -0
12 308 -0
13 308 -0
14 308 -0
15 308 -0
16 308 -0
17 308 -0
18 308 -0
19 308 -0
20 308 -0
21 308 -0
22 308 -0
23 308 -0
24 308 -0
25 308 -0
26 308 -0
27 308 -0
28 308 -0
29 308 -0
30 308 -0
31 308 -0
32 308 -0
33 308 -0
34 308 -0
35 308 -0
36 308 -0
37 308 -0
38 308 -0
39 308 -0
40 308 -0
41 308 -0
42 308 -0
43 308 -0
44 308 -0
45 308 -0
46 308 -0
47 308 -0
48 308 -0
49 308 -0
50 308 -0
51 308 -0
52 308 -0
53 308 -0
54 308 -0
55 308 -0
56 308 -0
57 308 -0
58 308 -0
59 308 -0
60 308 -0
121 308 0
122 308 0
123 308 0
124 308 0
125 308 0
126 308 0
127 308 0
128 308 0
129 308 0
130 308 0
131 308 0
132 308 0
133 308 0
134 308 0
135 308 0
136 308 0
137 308 0
138 308 0
139 308 0
140 308 0
141 308 0
142 308 0
143 308 0
144 308 0
145 308 0
146 308 0
147 308 0
148 308 0
149 308 0
150 308 0
151 308 0
152 308 0
153 308 0
154 308 0
155 308 0
156 308 0
157 308 0
158 308 0
159 308 0
160 308 0
161 308 0
162 308 0
163 308 0
164 308 0
165 308 0
166 308 0
167 308 0
168 308 0
169 308 0
170 308 0
171 308 0
172 308 0
173 308 0
174 308 0
175 308 0
176 308 0
177 308 0
178 308 0
179 308 0
180 308 0
1 309 -0
2 309 -0
3 309 -0
4 309 -0
5 309 -0
6 309 -0
7 309 -0
8 309 -0
9 309 -0
10 309 -0
11 309 -0
12 309 -0
13 309 -0
14 309 -0
15 309 -0
16 309 -0
17 309 -0
18 309 -0
19 309 -0
20 309 -0
21 309 -0
22 309 -0
23 309 -0
24 309 -0
25 309 -0
26 309 -0
27 309 -0
28 309 -0
29 309 -0
30 309 -0
31 309 -0
32 309 -0
33 309 -0
34 309 -0
35 309 -0
36 309 -0
37 309 -0
38 309 -0
39 309 -0
40 309 -0
41 309 -0
42 309 -0
43 309 -0
44 309 -0
45 309 -0
46 309 -0
47 309 -0
48 309 -0
49 309 -0
50 309 -0
51 309 -0
52 309 -0
53 309 -0
54 309 -0
55 309 -0
56 309 -0
57 309 -0
58 309 -0
59 309 -0
60 309 -0
121 309 0
122 309 0
123 309 0
124 309 0
125 309 0
126 309 0
127 309 0
128 309 0
129 309 0
130 309 0
131 309 0
132 309 0
133 309 0
134 309 0
135 309 0
136 309 0
137 309 0
138 309 0
139 309 0
140 309 0
141 309 0
142 309 0
143 309 0
144 309 0
145 309 0
146 309 0
147 309 0
148 309 0
149 309 0
150 309 0
151 309 0
152 309 0
153 309 0
154 309 0
155 309 0
156 309 0
157 309 0
158 309 0
159 309 0
160 309 0
161 309 0
162 309 0
163 309 0
164 309 0
165 309 0
166 309 0
167 309 0
168 309 0
169 309 0
170 309 0
171 309 0
172 309 0
173 309 0
174 309 0
175 309 0
176 309 0
177 309 0
178 309 0
179 309 0
180 309 0
1 310 -0
2 310 -0
3 310 -0
4 310 -0
5 310 -0
6 310 -0
7 310 -0
8 310 -0
9 310 -0
10 310 -0
11 310 -0
12 310 -0
13 310 -0
14 310 -0
15 310 -0
16 310 -0
17 310 -0
18 310 -0
19 310 -0
20 310 -0
21 310 -0
22 310 -0
23 310 -0
24 310 -0
25 310 -0
26 310 -0
27 310 -0
28 310 -0
29 310 -0
30 310 -0
31 310 -0
32 310 -0
33 310 -0
34 310 -0
35 310 -0
36 310 -0
37 310 -0
38 310 -0
39 310 -0
40 310 -0
41 310 -0
42 310 -0
43 310 -0
44 310 -0
45 310 -0
46 310 -0
47 310 -0
48 310 -0
49 310 -0
50 310 -0
51 310 -0
52 310 -0
53 310 -0
54 310 -0
55 310 -0
56 310 -0
57 310 -0
58 310 -0
59 310 -0
60 310 -0
121 310 0
122 310 0
123 310 0
124 310 0
125 310 0
126 310 0
127 310 0
128 310 0
129 310 0
130 310 0
131 310 0
132 310 0
133 310 0
134 310 0
135 310 0
136 310 0
137 310 0
138 310 0
139 310 0
140 310 0
141 310 0
142 310 0
143 310 0
144 310 0
145 310 0
146 310 0
147 310 0
148 310 0
149 310 0
150 310 0
151 310 0
152 310 0
153 310 0
154 310 0
155 310 0
156 310 0
157 310 0
158 310 0
159 310 0
160 310 0
161 310 0
162 310 0
163 310 0
164 310 0
165 310 0
166 310 0
167 310 0
168 310 0
169 310 0
170 310 0
171 310 0
172 310 0
173 310 0
174 310 0
175 310 0
176 310 0
177 310 0
178 310 0
179 310 0
180 310 0
1 311 -0
2 311 -0
3 311 -0
4 311 -0
5 311 -0
6 311 -0
7 311 -0
8 311 -0
9 311 -0
10 311 -0
11 311 -0
12 311 -0
13 311 -0
14 311 -0
15 311 -0
16 311 -0
17 311 -0
18 311 -0
19 311 -0
20 311 -0
21 311 -0
22 311 -0
23 311 -0
24 311 -0
25 311 -0
26 311 -0
27 311 -0
28 311 -0
29 311 -0
30 311 -0
31 311 -0
32 311 -0
33 311 -0
34 311 -0
35 311 -0
36 311 -0
37 311 -0
38 311 -0
39 311 -0
40 311 -0
41 311 -0
42 311 -0
43 311 -0
44 311 -0
45 311 -0
46 311 -0
47 311 -0
48 311 -0
49 311 -0
50 311 -0
51 311 -0
52 311 -0
53 311 -0
54 311 -0
55 311 -0
56 311 -0
57 311 -0
58 311 -0
59 311 -0
60 311 -0
121 311 0
122 311 0
123 311 0
124 311 0
125 311 0
126 311 0
127 311 0
128 311 0
129 311 0
130 311 0
131 311 0
132 311 0
133 311 0
134 311 0
135 311 0
136 311 0
137 311 0
138 311 0
139 311 0
140 311 0
141 311 0
142 311 0
143 311 0
144 311 0
145 311 0
146 311 0
147 311 0
148 311 0
149 311 0
150 311 0
151 311 0
152 311 0
153 311 0
154 311 0
155 311 0
156 311 0
157 311 0
158 311 0
159 311 0
160 311 0
161 311 0
162 311 0
163 311 0
164 311 0
165 311 0
166 311 0
167 311 0
168 311 0
169 311 0
170 311 0
171 311 0
172 311 0
173 311 0
174 311 0
175 311 0
176 311 0
177 311 0
178 311 0
179 311 0
180 311 0
1 312 -0
2 312 -0
3 312 -0
4 312 -0
5 312 -0
6 312 -0
7 312 -0
8 312 -0
9 312 -0
10 312 -0
11 312 -0
12 312 -0
13 312 -0
14 312 -0
15 312 -0
16 312 -0
17 312 -0
18 312 -0
19 312 -0
20 312 -0
21 312 -0
22 312 -0
23 312 -0
24 312 -0
25 312 -0
26 312 -0
27 312 -0
28 312 -0
29 312 -0
30 312 -0
31 312 -0
32 312 -0
33 312 -0
34 312 -0
35 312 -0
36 312 -0
37 312 -0
38 312 -0
39 312 -0
40 312 -0
41 312 -0
42 312 -0
43 312 -0
44 312 -0
45 312 -0
46 312 -0
47 312 -0
48 312 -0
49 312 -0
50 312 -0
51 312 -0
52 312 -0
53 312 -0
54 312 -0
55 312 -0
56 312 -0
57 312 -0
58 312 -0
59 312 -0
60 312 -0
121 312 0
122 312 0
123 312 0
124 312 0
125 312 0
126 312 0
127 312 0
128 312 0
129 312 0
130 312 0
131 312 0
132 312 0
133 312 0
134 312 0
135 312 0
136 312 0
137 312 0
138 312 0
139 312 0
140 312 0
141 312 0
142 312 0
143 312 0
144 312 0
145 312 0
146 312 0
147 312 0
148 312 0
149 312 0
150 312 0
151 312 0
152 312 0
153 312 0
154 312 0
155 312 0
156 312 0
157 312 0
158 312 0
159 312 0
160 312 0
161 312 0
162 312 0
163 312 0
164 312 0
165 312 0
166 312 0
167 312 0
168 312 0
169 312 0
170 312 0
171 312 0
172 312 0
173 312 0
174 312 0
175 312 0
176 312 0
177 312 0
178 312 0
179 312 0
180 312 0
1 313 -0
2 313 -0
3 313 -0
4 313 -0
5 313 -0
6 313 -0
7 313 -0
8 313 -0
9 313 -0
10 313 -0
11 313 -0.9652674876885331
12 313 -0
13 313 -0
14 313 -0
15 313 -0
16 313 -0
17 313 -0
18 313 -0
19 313 -0
20 313 -0
21 313 -0
22 313 -0
23 313 -0
24 313 -0
25 313 -0
26 313 -0
27 313 -0
28 313 -0
29 313 -0
30 313 -0
31 313 -0
32 313 -0
33 313 -0
34 313 -0
35 313 -0
36 313 -0
37 313 -0
38 313 -0
39 313 -0
40 313 -0
41 313 -0
42 313 -0
43 313 -0
44 313 -0
45 313 -0
46 313 -0
47 313 -0
48 313 -0
49 313 -0
50 313 -0
51 313 -0
52 313 -0
53 313 -0
54 313 -0
55 313 -0
56 313 -0
57 313 -0
58 313 -0
59 313 -0
60 313 -0
121 313 0
122 313 0
123 313 0
124 313 0
125 313 0
126 313 0
127 313 0
128 313 0
129 313 0
130 313 0
131 313 0
132 313 0
133 313 0
134 313 0
135 313 0
136 313 0
137 313 0
138 313 0
139 313 0
140 313 0
141 313 0
142 313 0
143 313 0
144 313 0
145 313 0
146 313 0
147 313 0
148 313 0
149 313 0
150 313 0
151 313 0
152 313 0
153 313 0
154 313 0
155 313 0
156 313 0
157 313 0
158 313 0
159 313 0
160 313 0
161 313 0
162 313 0
163 313 0
164 313 0
165 313 0
166 313 0
167 313 0
168 313 0
169 313 0
170 313 0
171 313 0
172 313 0
173 313 0
174 313 0
175 313 0
176 313 0
177 313 0
178 313 0
179 313 0
180 313 0
1 314 -0
2 314 -0
3 314 -0
4 314 -0
5 314 -0
6 314 -0
7 314 -0
8 314 -0
9 314 -0
10 314 -0
11 314 -0
12 314 -0.9652674876885331
13 314 -0
14 314 -0
15 314 -0
16 314 -0
17 314 -0
18 314 -0
19 314 -0
20 314 -0
21 314 -0
22 314 -0
23 314 -0
24 314 -0
25 314 -0
26 314 -0
27 314 -0
28 314 -0
29 314 -0
30 314 -0
31 314 -0
32 314 -0
33 314 -0
34 314 -0
35 314 -0
36 314 -0
37 314 -0
38 314 -0
39 314 -0
40 314 -0
41 314 -0
42 314 -0
43 314 -0
44 314 -0
45 314 -0
46 314 -0
47 314 -0
48 314 -0
49 314 -0
50 314 -0
51 314 -0
52 314 -0
53 314 -0
54 314 -0
55 314 -0
56 314 -0
57 314 -0
58 314 -0
59 314 -0
60 314 -0
121 314 0
122 314 0
123 314 0
124 314 0
125 314 0
126 314 0
127 314 0
128 314 0
129 314 0
130 314 0
131 314 0
132 314 0
133 314 0
134 314 0
135 314 0
136 314 0
137 314 0
138 314 0
139 314 0
140 314 0
141 314 0
142 314 0
143 314 0
144 314 0
145 314 0
146 314 0
147 314 0
148 314 0
149 314 0
150 314 0
151 314 0
152 314 0
153 314 0
154 314 0
155 314 0
156 314 0
157 314 0
158 314 0
159 314 0
160 314 0
161 314 0
162 314 0
163 314 0
164 314 0
165 314 0
166 314 0
167 314 0
168 314 0
169 314 0
170 314 0
171 314 0
172 314 0
173 314 0
174 314 0
175 314 0
176 314 0
177 314 0
178 314 0
179 314 0
180 314 0
1 315 -0
2 315 -0
3 315 -0
4 315 -0
5 315 -0
6 315 -0
7 315 -0
8 315 -0
9 315 -0
10 315 -0
11 315 -0
12 315 -0
13 315 -0.9652674876885331
14 315 -0
15 315 -0
16 315 -0
17 315 -0
18 315 -0
19 315 -0
20 315 -0
21 315 -0
22 315 -0
23 315 -0
24 315 -0
25 315 -0
26 315 -0
27 315 -0
28 315 -0
29 315 -0
30 315 -0
31 315 -0
32 315 -0
33 315 -0
34 315 -0
35 315 -0
36 315 -0
37 315 -0
38 315 -0
39 315 -0
40 315 -0
41 315 -0
42 315 -0
43 315 -0
44 315 -0
45 315 -0
46 315 -0
47 315 -0
48 315 -0
49 315 -0
50 315 -0
51 315 -0
52 315 -0
53 315 -0
54 315 -0
55 315 -0
56 315 -0
57 315 -0
58 315 -0
59 315 -0
60 315 -0
121 315 0
122 315 0
123 315 0
124 315 0
125 315 0
126 315 0
127 315 0
128 315 0
129 315 0
130 315 0
131 315 0
132 315 0
133 315 0
134 315 0
135 315 0
136 315 0
137 315 0
138 315 0
139 315 0
140 315 0
141 315 0
142 315 0
143 315 0
144 315 0
145 315 0
146 315 0
147 315 0
148 315 0
149 315 0
150 315 0
151 315 0
152 315 0
153 315 0
154 315 0
155 315 0
156 315 0
157 315 0
158 315 0
159 315 0
160 315 0
161 315 0
162 315 0
163 315 0
164 315 0
165 315 0
166 315 0
167 315 0
168 315 0
169 315 0
170 315 0
171 315 0
172 315 0
173 315 0
174 315 0
175 315 0
176 315 0
177 315 0
178 315 0
179 315 0
180 315 0
1 316 -0
2 316 -0
3 316 -0
4 316 -0
5 316 -0
6 316 -0
7 316 -0
8 316 -0
9 316 -0
10 316 -0
11 316 -0
12 316 -0
13 316 -0
14 316 -0.9652674876885331
15 316 -0
16 316 -0
17 316 -0
18 316 -0
19 316 -0
20 316 -0
21 316 -0
22 316 -0
23 316 -0
24 316 -0
25 316 -0
26 316 -0
27 316 -0
28 316 -0
29 316 -0
30 316 -0
31 316 -0
32 316 -0
33 316 -0
34 316 -0
35 316 -0
36 316 -0
37 316 -0
38 316 -0
39 316 -0
40 316 -0
41 316 -0
42 316 -0
43 316 -0
44 316 -0
45 316 -0
46 316 -0
47 316 -0
48 316 -0
49 316 -0
50 316 -0
51 316 -0
52 316 -0
53 316 -0
54 316 -0
55 316 -0
56 316 -0
57 316 -0
58 316 -0
59 316 -0
60 316 -0
121 316 0
122 316 0
123 316 0
124 316 0
125 316 0
126 316 0
127 316 0
128 316 0
129 316 0
130 316 0
131 316 0
132 316 0
133 316 0
134 316 0
135 316 0
136 316 0
137 316 0
138 316 0
139 316 0
140 316 0
141 316 0
142 316 0
143 316 0
144 316 0
145 316 0
146 316 0
147 316 0
148 316 0
149 316 0
150 316 0
151 316 0
152 316 0
153 316 0
154 316 0
155 316 0
156 316 0
157 316 0
158 316 0
159 316 0
160 316 0
161 316 0
162 316 0
163 316 0
164 316 0
165 316 0
166 316 0
167 316 0
168 316 0
169 316 0
170 316 0
171 316 0
172 316 0
173 316 0
174 316 0
175 316 0
176 316 0
177 316 0
178 316 0
179 316 0
180 316 0
1 317 -0
2 317 -0
3 317 -0
4 317 -0
5 317 -0
6 317 -0
7 317 -0
8 317 -0
9 317 -0
10 317 -0
11 317 -0
12 317 -0
13 317 -0
14 317 -0
15 317 -0.9652674876885331
16 317 -0
17 317 -0
18 317 -0
19 317 -0
20 317 -0
21 317 -0
22 317 -0
23 317 -0
24 317 -0
25 317 -0
26 317 -0
27 317 -0
28 317 -0
29 317 -0
30 317 -0
31 317 -0
32 317 -0
33 317 -0
34 317 -0
35 317 -0
36 317 -0
37 317 -0
38 317 -0
39 317 -0
40 317 -0
41 317 -0
42 317 -0
43 317 -0
44 317 -0
45 317 -0
46 317 -0
47 317 -0
48 317 -0
49 317 -0
50 317 -0
51 317 -0
52 317 -0
53 317 -0
54 317 -0
55 317 -0
56 317 -0
57 317 -0
58 317 -0
59 317 -0
60 317 -0
121 317 0
122 317 0
123 317 0
124 317 0
125 317 0
126 317 0
127 317 0
128 317 0
129 317 0
130 317 0
131 317 0
132 317 0
133 317 0
134 317 0
135 317 0
136 317 0
137 317 0
138 317 0
139 317 0
140 317 0
141 317 0
142 317 0
143 317 0
144 317 0
145 317 0
146 317 0
147 317 0
148 317 0
149 317 0
150 317 0
151 317 0
152 317 0
153 317 0
154 317 0
155 317 0
156 317 0
157 317 0
158 317 0
159 317 0
160 317 0
161 317 0
162 317 0
163 317 0
164 317 0
165 317 0
166 317 0
167 317 0
168 317 0
169 317 0
170 317 0
171 317 0
172 317 0
173 317 0
174 317 0
175 317 0
176 317 0
177 317 0
178 317 0
179 317 0
180 317 0
1 318 -0
2 318 -0
3 318 -0
4 318 -0
5 318 -0
6 318 -0
7 318 -0
8 318 -0
9 318 -0
10 318 -0
11 318 -0
12 318 -0
13 318 -0
14 318 -0
15 318 -0
16 318 -0
17 318 -0
18 318 -0
19 318 -0
20 318 -0
21 318 -0
22 318 -0
23 318 -0
24 318 -0
25 318 -0
26 318 -0
27 318 -0
28 318 -0
29 318 -0
30 318 -0
31 318 -0
32 318 -0
33 318 -0
34 318 -0
35 318 -0
36 318 -0
37 318 -0
38 318 -0
39 318 -0
40 318 -0
41 318 -0
42 318 -0
43 318 -0
44 318 -0
45 318 -0
46 318 -0
47 318 -0
48 318 -0
49 318 -0
50 318 -0
51 318 -0
52 318 -0
53 318 -0
54 318 -0
55 318 -0
56 318 -0
57 318 -0
58 318 -0
59 318 -0
60 318 -0
121 318 0
122 318 0
123 318 0
124 318 0
125 318 0
126 318 0
127 318 0
128 318 0
129 318 0
130 318 0
131 318 0
132 318 0
133 318 0
134 318 0
135 318 0
136 318 0
137 318 0
138 318 0
139 318 0
140 318 0
141 318 0
142 318 0
143 318 0
144 318 0
145 318 0
146 318 0
147 318 0
148 318 0
149 318 0
150 318 0
151 318 0
152 318 0
153 318 0
154 318 0
155 318 0
156 318 0
157 318 0
158 318 0
159 318 0
160 318 0
161 318 0
162 318 0
163 318 0
164 318 0
165 318 0
166 318 0
167 318 0
168 318 0
169 318 0
170 318 0
171 318 0
172 318 0
173 318 0
174 318 0
175 318 0
176 318 0
177 318 0
178 318 0
179 318 0
180 318 0
1 319 -0
2 319 -0
3 319 -0
4 319 -0
5 319 -0
6 319 -0
7 319 -0
8 319 -0
9 319 -0
10 319 -0
11 319 -0
12 319 -0
13 319 -0
14 319 -0
15 319 -0
16 319 -0
17 319 -0
18 319 -0
19 319 -0
20 319 -0
21 319 -0
22 319 -0
23 319 -0
24 319 -0
25 319 -0
26 319 -0
27 319 -0
28 319 -0
29 319 -0
30 319 -0
31 319 -0
32 319 -0
33 319 -0
34 319 -0
35 319 -0
36 319 -0
37 319 -0
38 319 -0
39 319 -0
40 319 -0
41 319 -0
42 319 -0
43 319 -0
44 319 -0
45 319 -0
46 319 -0
47 319 -0
48 319 -0
49 319 -0
50 319 -0
51 319 -0
52 319 -0
53 319 -0
54 319 -0
55 319 -0
56 319 -0
57 319 -0
58 319 -0
59 319 -0
60 319 -0
121 319 0
122 319 0
123 319 0
124 319 0
125 319 0
126 319 0
127 319 0
128 319 0
129 319 0
130 319 0
131 319 0
132 319 0
133 319 0
134 319 0
135 319 0
136 319 0
137 319 0
138 319 0
139 319 0
140 319 0
141 319 0
142 319 0
143 319 0
144 319 0
145 319 0
146 319 0
147 319 0
148 319 0
149 319 0
150 319 0
151 319 0
152 319 0
153 319 0
154 319 0
155 319 0
156 319 0
157 319 0
158 319 0
159 319 0
160 319 0
161 319 0
162 319 0
163 319 0
164 319 0
165 319 0
166 319 0
167 319 0
168 319 0
169 319 0
170 319 0
171 319 0
172 319 0
173 319 0
174 319 0
175 319 0
176 319 0
177 319 0
178 319 0
179 319 0
180 319 0
1 320 -0
2 320 -0
3 320 -0
4 320 -0
5 320 -0
6 320 -0
7 320 -0
8 320 -0
9 320 -0
10 320 -0
11 320 -0
12 320 -0
13 320 -0
14 320 -0
15 320 -0
16 320 -0
17 320 -0
18 320 -0
19 320 -0
20 320 -0
21 320 -0
22 320 -0
23 320 -0
24 320 -0
25 320 -0
26 320 -0
27 320 -0
28 320 -0
29 320 -0
30 320 -0
31 320 -0
32 320 -0
33 320 -0
34 320 -0
35 320 -0
36 320 -0
37 320 -0
38 320 -0
39 320 -0
40 320 -0
41 320 -0
42 320 -0
43 320 -0
44 320 -0
45 320 -0
46 320 -0
47 320 -0
48 320 -0
49 320 -0
50 320 -0
51 320 -0
52 320 -0
53 320 -0
54 320 -0
55 320 -0
56 320 -0
57 320 -0
58 320 -0
59 320 -0
60 320 -0
121 320 0
122 320 0
123 320 0
124 320 0
125 320 0
126 320 0
127 320 0
128 320 0
129 320 0
130 320 0
131 320 0
132 320 0
133 320 0
134 320 0
135 320 0
136 320 0
137 320 0
138 320 0
139 320 0
140 320 0
141 320 0
142 320 0
143 320 0
144 320 0
145 320 0
146 320 0
147 320 0
148 320 0
149 320 0
150 320 0
151 320 0
152 320 0
153 320 0
154 320 0
155 320 0
156 320 0
157 320 0
158 320 0
159 320 0
160 320 0
161 320 0
162 320 0
163 320 0
164 320 0
165 320 0
166 320 0
167 320 0
168 320 0
169 320 0
170 320 0
171 320 0
172 320 0
173 320 0
174 320 0
175 320 0
176 320 0
177 320 0
178 320 0
179 320 0
180 320 0
1 321 -0
2 321 -0
3 321 -0
4 321 -0
5 321 -0
6 321 -0
7 321 -0
8 321 -0
9 321 -0
10 321 -0
11 321 -0
12 321 -0
13 321 -0
14 321 -0
15 321 -0
16 321 -0
17 321 -0
18 321 -0
19 321 -0
20 321 -0
21 321 -0
22 321 -0
23 321 -0
24 321 -0
25 321 -0
26 321 -0
27 321 -0
28 321 -0
29 321 -0
30 321 -0
31 321 -0
32 321 -0
33 321 -0
34 321 -0
35 321 -0
36 321 -0
37 321 -0
38 321 -0
39 321 -0
40 321 -0
41 321 -0
42 321 -0
43 321 -0
44 321 -0
45 321 -0
46 321 -0
47 321 -0
48 321 -0
49 321 -0
50 321 -0
51 321 -0
52 321 -0
53 321 -0
54 321 -0
55 321 -0
56 321 -0
57 321 -0
58 321 -0
59 321 -0
60 321 -0
121 321 0
122 321 0
123 321 0
124 321 0
125 321 0
126 321 0
127 321 0
128 321 0
129 321 0
130 321 0
131 321 0
132 321 0
133 321 0
134 321 0
135 321 0
136 321 0
137 321 0
138 321 0
139 321 0
140 321 0
141 321 0
142 321 0
143 321 0
144 321 0
145 321 0
146 321 0
147 321 0
148 321 0
149 321 0
150 321 0
151 321 0
152 321 0
153 321 0
154 321 0
155 321 0
156 321 0
157 321 0
158 321 0
159 321 0
160 321 0
161 321 0
162 321 0
163 321 0
164 321 0
165 321 0
166 321 0
167 321 0
168 321 0
169 321 0
170 321 0
171 321 0
172 321 0
173 321 0
174 321 0
175 321 0
176 321 0
177 321 0
178 321 0
179 321 0
180 321 0
1 322 -0
2 322 -0
3 322 -0
4 322 -0
5 322 -0
6 322 -0
7 322 -0
8 322 -0
9 322 -0
10 322 -0
11 322 -0
12 322 -0
13 322 -0
14 322 -0
15 322 -0
16 322 -0
17 322 -0
18 322 -0
19 322 -0
20 322 -0
21 322 -0
22 322 -0
23 322 -0
24 322 -0
25 322 -0
26 322 -0
27 322 -0
28 322 -0
29 322 -0
30 322 -0
31 322 -0
32 322 -0
33 322 -0
34 322 -0
35 322 -0
36 322 -0
37 322 -0
38 322 -0
39 322 -0
40 322 -0
41 322 -0
42 322 -0
43 322 -0
44 322 -0
45 322 -0
46 322 -0
47 322 -0
48 322 -0
49 322 -0
50 322 -0
51 322 -0
52 322 -0
53 322 -0
54 322 -0
55 322 -0
56 322 -0
57 322 -0
58 322 -0
59 322 -0
60 322 -0
121 322 0
122 322 0
123 322 0
124 322 0
125 322 0
126 322 0
127 322 0
128 322 0
129 322 0
130 322 0
131 322 0
132 322 0
133 322 0
134 322 0
135 322 0
136 322 0
137 322 0
138 322 0
139 322 0
140 322 0
141 322 0
142 322 0
143 322 0
144 322 0
145 322 0
146 322 0
147 322 0
148 322 0
149 322 0
150 322 0
151 322 0
152 322 0
153 322 0
154 322 0
155 322 0
156 322 0
157 322 0
158 322 0
159 322 0
160 322 0
161 322 0
162 322 0
163 322 0
164 322 0
165 322 0
166 322 0
167 322 0
168 322 0
169 322 0
170 322 0
171 322 0
172 322 0
173 322 0
174 322 0
175 322 0
176 322 0
177 322 0
178 322 0
179 322 0
180 322 0
1 323 -0
2 323 -0
3 323 -0
4 323 -0
5 323 -0
6 323 -0
7 323 -0
8 323 -0
9 323 -0
10 323 -0
11 323 -0
12 323 -0
13 323 -0
14 323 -0
15 323 -0
16 323 -0
17 323 -0
18 323 -0
19 323 -0
20 323 -0
21 323 -0
22 323 -0
23 323 -0
24 323 -0
25 323 -0
26 323 -0
27 323 -0
28 323 -0
29 323 -0
30 323 -0
31 323 -0
32 323 -0
33 323 -0
34 323 -0
35 323 -0
36 323 -0
37 323 -0
38 323 -0
39 323 -0
40 323 -0
41 323 -0
42 323 -0
43 323 -0
44 323 -0
45 323 -0
46 323 -0
47 323 -0
48 323 -0
49 323 -0
50 323 -0
51 323 -0
52 323 -0
53 323 -0
54 323 -0
55 323 -0
56 323 -0
57 323 -0
58 323 -0
59 323 -0
60 323 -0
121 323 0
122 323 0
123 323 0
124 323 0
125 323 0
126 323 0
127 323 0
128 323 0
129 323 0
130 323 0
131 323 0
132 323 0
133 323 0
134 323 0
135 323 0
136 323 0
137 323 0
138 323 0
139 323 0
140 323 0
141 323 0
142 323 0
143 323 0
144 323 0
145 323 0
146 323 0
147 323 0
148 323 0
149 323 0
150 323 0
151 323 0
152 323 0
153 323 0
154 323 0
155 323 0
156 323 0
157 323 0
158 323 0
159 323 0
160 323 0
161 323 0
162 323 0
163 323 0
164 323 0
165 323 0
166 323 0
167 323 0
168 323 0
169 323 0
170 323 0
171 323 0
172 323 0
173 323 0
174 323 0
175 323 0
176 323 0
177 323 0
178 323 0
179 323 0
180 323 0
1 324 -0
2 324 -0
3 324 -0
4 324 -0
5 324 -0
6 324 -0
7 324 -0
8 324 -0
9 324 -0
10 324 -0
11 324 -0
12 324 -0
13 324 -0
14 324 -0
15 324 -0
16 324 -0
17 324 -0
18 324 -0
19 324 -0
20 324 -0
21 324 -0
22 324 -0
23 324 -0
24 324 -0
25 324 -0
26 324 -0
27 324 -0
28 324 -0
29 324 -0
30 324 -0
31 324 -0
32 324 -0
33 324 -0
34 324 -0
35 324 -0
36 324 -0
37 324 -0
38 324 -0
39 324 -0
40 324 -0
41 324 -0
42 324 -0
43 324 -0
44 324 -0
45 324 -0
46 324 -0
47 324 -0
48 324 -0
49 324 -0
50 324 -0
51 324 -0
52 324 -0
53 324 -0
54 324 -0
55 324 -0
56 324 -0
57 324 -0
58 324 -0
59 324 -0
60 324 -0
121 324 0
122 324 0
123 324 0
124 324 0
125 324 0
126 324 0
127 324 0
128 324 0
129 324 0
130 324 0
131 324 0
132 324 0
133 324 0
134 324 0
135 324 0
136 324 0
137 324 0
138 324 0
139 324 0
140 324 0
141 324 0
142 324 0
143 324 0
144 324 0
145 324 0
146 324 0
147 324 0
148 324 0
149 324 0
150 324 0
151 324 0
152 324 0
153 324 0
154 324 0
155 324 0
156 324 0
157 324 0
158 324 0
159 324 0
160 324 0
161 324 0
162 324 0
163 324 0
164 324 0
165 324 0
166 324 0
167 324 0
168 324 0
169 324 0
170 324 0
171 324 0
172 324 0
173 324 0
174 324 0
175 324 0
176 324 0
177 324 0
178 324 0
179 324 0
180 324 0
1 325 -0
2 325 -0
3 325 -0
4 325 -0
5 325 -0
6 325 -0
7 325 -0
8 325 -0
9 325 -0
10 325 -0
11 325 -0
12 325 -0
13 325 -0
14 325 -0
15 325 -0
16 325 -0.9652674876885331
17 325 -0
18 325 -0
19 325 -0
20 325 -0
21 325 -0
22 325 -0
23 325 -0
24 325 -0
25 325 -0
26 325 -0
27 325 -0
28 325 -0
29 325 -0
30 325 -0
31 325 -0
32 325 -0
33 325 -0
34 325 -0
35 325 -0
36 325 -0
37 325 -0
38 325 -0
39 325 -0
40 325 -0
41 325 -0
42 325 -0
43 325 -0
44 325 -0
45 325 -0
46 325 -0
47 325 -0
48 325 -0
49 325 -0
50 325 -0
51 325 -0
52 325 -0
53 325 -0
54 325 -0
55 325 -0
56 325 -0
57 325 -0
58 325 -0
59 325 -0
60 325 -0
121 325 0
122 325 0
123 325 0
124 325 0
125 325 0
126 325 0
127 325 0
128 325 0
129 325 0
130 325 0
131 325 0
132 325 0
133 325 0
134 325 0
135 325 0
136 325 0
137 325 0
138 325 0
139 325 0
140 325 0
141 325 0
142 325 0
143 325 0
144 325 0
145 325 0
146 325 0
147 325 0
148 325 0
149 325 0
150 325 0
151 325 0
152 325 0
153 325 0
154 325 0
155 325 0
156 325 0
157 325 0
158 325 0
159 325 0
160 325 0
161 325 0
162 325 0
163 325 0
164 325 0
165 325 0
166 325 0
167 325 0
168 325 0
169 325 0
170 325 0
171 325 0
172 325 0
173 325 0
174 325 0
175 325 0
176 325 0
177 325 0
178 325 0
179 325 0
180 325 0
1 326 -0
2 326 -0
3 326 -0
4 326 -0
5 326 -0
6 326 -0
7 326 -0
8 326 -0
9 326 -0
10 326 -0
11 326 -0
12 326 -0
13 326 -0
14 326 -0
15 326 -0
16 326 -0
17 326 -0.9652674876885331
18 326 -0
19 326 -0
20 326 -0
21 326 -0
22 326 -0
23 326 -0
24 326 -0
25 326 -0
26 326 -0
27 326 -0
28 326 -0
29 326 -0
30 326 -0
31 326 -0
32 326 -0
33 326 -0
34 326 -0
35 326 -0
36 326 -0
37 326 -0
38 326 -0
39 326 -0
40 326 -0
41 326 -0
42 326 -0
43 326 -0
44 326 -0
45 326 -0
46 326 -0
47 326 -0
48 326 -0
49 326 -0
50 326 -0
51 326 -0
52 326 -0
53 326 -0
54 326 -0
55 326 -0
56 326 -0
57 326 -0
58 326 -0
59 326 -0
60 326 -0
121 326 0
122 326 0
123 326 0
124 326 0
125 326 0
126 326 0
127 326 0
128 326 0
129 326 0
130 326 0
131 326 0
132 326 0
133 326 0
134 326 0
135 326 0
136 326 0
137 326 0
138 326 0
139 326 0
140 326 0
141 326 0
142 326 0
143 326 0
144 326 0
145 326 0
146 326 0
147 326 0
148 326 0
149 326 0
150 326 0
151 326 0
152 326 0
153 326 0
154 326 0
155 326 0
156 326 0
157 326 0
158 326 0
159 326 0
160 326 0
161 326 0
162 326 0
163 326 0
164 326 0
165 326 0
166 326 0
167 326 0
168 326 0
169 326 0
170 326 0
171 326 0
172 326 0
173 326 0
174 326 0
175 326 0
176 326 0
177 326 0
178 326 0
179 326 0
180 326 0
1 327 -0
2 327 -0
3 327 -0
4 327 -0
5 327 -0
6 327 -0
7 327 -0
8 327 -0
9 327 -0
10 327 -0
11 327 -0
12 327 -0
13 327 -0
14 327 -0
15 327 -0
16 327 -0
17 327 -0
18 327 -0.9652674876885331
19 327 -0
20 327 -0
21 327 -0
22 327 -0
23 327 -0
24 327 -0
25 327 -0
26 327 -0
27 327 -0
28 327 -0
29 327 -0
30 327 -0
31 327 -0
32 327 -0
33 327 -0
34 327 -0
35 327 -0
36 327 -0
37 327 -0
38 327 -0
39 327 -0
40 327 -0
41 327 -0
42 327 -0
43 327 -0
44 327 -0
45 327 -0
46 327 -0
47 327 -0
48 327 -0
49 327 -0
50 327 -0
51 327 -0
52 327 -0
53 327 -0
54 327 -0
55 327 -0
56 327 -0
57 327 -0
58 327 -0
59 327 -0
60 327 -0
121 327 0
122 327 0
123 327 0
124 327 0
125 327 0
126 327 0
127 327 0
128 327 0
129 327 0
130 327 0
131 327 0
132 327 0
133 327 0
134 327 0
135 327 0
136 327 0
137 327 0
138 327 0
139 327 0
140 327 0
141 327 0
142 327 0
143 327 0
144 327 0
145 327 0
146 327 0
147 327 0
148 327 0
149 327 0
150 327 0
151 327 0
152 327 0
153 327 0
154 327 0
155 327 0
156 327 0
157 327 0
158 327 0
159 327 0
160 327 0
161 327 0
162 327 0
163 327 0
164 327 0
165 327 0
166 327 0
167 327 0
168 327 0
169 327 0
170 327 0
171 327 0
172 327 0
173 327 0
174 327 0
175 327 0
176 327 0
177 327 0
178 327 0
179 327 0
180 327 0
1 328 -0
2 328 -0
3 328 -0
4 328 -0
5 328 -0
6 328 -0
7 328 -0
8 328 -0
9 328 -0
10 328 -0
11 328 -0
12 328 -0
13 328 -0
14 328 -0
15 328 -0
16 328 -0
17 328 -0
18 328 -0
19 328 -0.9652674876885331
20 328 -0
21 328 -0
22 328 -0
23 328 -0
24 328 -0
25 328 -0
26 328 -0
27 328 -0
28 328 -0
29 328 -0
30 328 -0
31 328 -0
32 328 -0
33 328 -0
34 328 -0
35 328 -0
36 328 -0
37 328 -0
38 328 -0
39 328 -0
40 328 -0
41 328 -0
42 328 -0
43 328 -0
44 328 -0
45 328 -0
46 328 -0
47 328 -0
48 328 -0
49 328 -0
50 328 -0
51 328 -0
52 328 -0
53 328 -0
54 328 -0
55 328 -0
56 328 -0
57 328 -0
58 328 -0
59 328 -0
60 328 -0
121 328 0
122 328 0
123 328 0
124 328 0
125 328 0
126 328 0
127 328 0
128 328 0
129 328 0
130 328 0
131 328 0
132 328 0
133 328 0
134 328 0
135 328 0
136 328 0
137 328 0
138 328 0
139 328 0
140 328 0
141 328 0
142 328 0
143 328 0
144 328 0
145 328 0
146 328 0
147 328 0
148 328 0
149 328 0
150 328 0
151 328 0
152 328 0
153 328 0
154 328 0
155 328 0
156 328 0
157 328 0
158 328 0
159 328 0
160 328 0
161 328 0
162 328 0
163 328 0
164 328 0
165 328 0
166 328 0
167 328 0
168 328 0
169 328 0
170 328 0
171 328 0
172 328 0
173 328 0
174 328 0
175 328 0
176 328 0
177 328 0
178 328 0
179 328 0
180 328 0
1 329 -0
2 329 -0
3 329 -0
4 329 -0
5 329 -0
6 329 -0
7 329 -0
8 329 -0
9 329 -0
10 329 -0
11 329 -0
12 329 -0
13 329 -0
14 329 -0
15 329 -0
16 329 -0
17 329 -0
18 329 -0
19 329 -0
20 329 -0.9652674876885331
21 329 -0
22 329 -0
23 329 -0
24 329 -0
25 329 -0
26 329 -0
27 329 -0
28 329 -0
29 329 -0
30 329 -0
31 329 -0
32 329 -0
33 329 -0
34 329 -0
35 329 -0
36 329 -0
37 329 -0
38 329 -0
39 329 -0
40 329 -0
41 329 -0
42 329 -0
43 329 -0
44 329 -0
45 329 -0
46 329 -0
47 329 -0
48 329 -0
49 329 -0
50 329 -0
51 329 -0
52 329 -0
53 329 -0
54 329 -0
55 329 -0
56 329 -0
57 329 -0
58 329 -0
59 329 -0
60 329 -0
121 329 0
122 329 0
123 329 0
124 329 0
125 329 0
126 329 0
127 329 0
128 329 0
129 329 0
130 329 0
131 329 0
132 329 0
133 329 0
134 329 0
135 329 0
136 329 0
137 329 0
138 329 0
139 329 0
140 329 0
141 329 0
142 329 0
143 329 0
144 329 0
145 329 0
146 329 0
147 329 0
148 329 0
149 329 0
150 329 0
151 329 0
152 329 0
153 329 0
154 329 0
155 329 0
156 329 0
157 329 0
158 329 0
159 329 0
160 329 0
161 329 0
162 329 0
163 329 0
164 329 0
165 329 0
166 329 0
167 329 0
168 329 0
169 329 0
170 329 0
171 329 0
172 329 0
173 329 0
174 329 0
175 329 0
176 329 0
177 329 0
178 329 0
179 329 0
180 329 0
1 330 -0
2 330 -0
3 330 -0
4 330 -0
5 330 -0
6 330 -0
7 330 -0
8 330 -0
9 330 -0
10 330 -0
11 330 -0
12 330 -0
13 330 -0
14 330 -0
15 330 -0
16 330 -0
17 330 -0
18 330 -0
19 330 -0
20 330 -0
21 330 -0
22 330 -0
23 330 -0
24 330 -0
25 330 -0
26 330 -0
27 330 -0
28 330 -0
29 330 -0
30 330 -0
31 330 -0
32 330 -0
33 330 -0
34 330 -0
35 330 -0
36 330 -0
37 330 -0
38 330 -0
39 330 -0
40 330 -0
41 330 -0
42 330 -0
43 330 -0
44 330 -0
45 330 -0
46 330 -0
47 330 -0
48 330 -0
49 330 -0
50 330 -0
51 330 -0
52 330 -0
53 330 -0
54 330 -0
55 330 -0
56 330 -0
57 330 -0
58 330 -0
59 330 -0
60 330 -0
121 330 0
122 330 0
123 330 0
124 330 0
125 330 0
126 330 0
127 330 0
128 330 0
129 330 0
130 330 0
131 330 0
132 330 0
133 330 0
134 330 0
135 330 0
136 330 0
137 330 0
138 330 0
139 330 0
140 330 0
141 330 0
142 330 0
143 330 0
144 330 0
145 330 0
146 330 0
147 330 0
148 330 0
149 330 0
150 330 0
151 330 0
152 330 0
153 330 0
154 330 0
155 330 0
156 330 0
157 330 0
158 330 0
159 330 0
160 330 0
161 330 0
162 330 0
163 330 0
164 330 0
165 330 0
166 330 0
167 330 0
168 330 0
169 330 0
170 330 0
171 330 0
172 330 0
173 330 0
174 330 0
175 330 0
176 330 0
177 330 0
178 330 0
179 330 0
180 330 0
1 331 -0
2 331 -0
3 331 -0
4 331 -0
5 331 -0
6 331 -0
7 331 -0
8 331 -0
9 331 -0
10 331 -0
11 331 -0
12 331 -0
13 331 -0
14 331 -0
15 331 -0
16 331 -0
17 331 -0
18 331 -0
19 331 -0
20 331 -0
21 331 -0
22 331 -0
23 331 -0
24 331 -0
25 331 -0
26 331 -0
27 331 -0
28 331 -0
29 331 -0
30 331 -0
31 331 -0
32 331 -0
33 331 -0
34 331 -0
35 331 -0
36 331 -0
37 331 -0
38 331 -0
39 331 -0
40 331 -0
41 331 -0
42 331 -0
43 331 -0
44 331 -0
45 331 -0
46 331 -0
47 331 -0
48 331 -0
49 331 -0
50 331 -0
51 331 -0
52 331 -0
53 331 -0
54 331 -0
55 331 -0
56 331 -0
57 331 -0
58 331 -0
59 331 -0
60 331 -0
121 331 0
122 331 0
123 331 0
124 331 0
125 331 0
126 331 0
127 331 0
128 331 0
129 331 0
130 331 0
131 331 0
132 331 0
133 331 0
134 331 0
135 331 0
136 331 0
137 331 0
138 331 0
139 331 0
140 331 0
141 331 0
142 331 0
143 331 0
144 331 0
145 331 0
146 331 0
147 331 0
148 331 0
149 331 0
150 331 0
151 331 0
152 331 0
153 331 0
154 331 0
155 331 0
156 331 0
157 331 0
158 331 0
159 331 0
160 331 0
161 331 0
162 331 0
163 331 0
164 331 0
165 331 0
166 331 0
167 331 0
168 331 0
169 331 0
170 331 0
171 331 0
172 331 0
173 331 0
174 331 0
175 331 0
176 331 0
177 331 0
178 331 0
179 331 0
180 331 0
1 332 -0
2 332 -0
3 332 -0
4 332 -0
5 332 -0
6 332 -0
7 332 -0
8 332 -0
9 332 -0
10 332 -0
11 332 -0
12 332 -0
13 332 -0
14 332 -0
15 332 -0
16 332 -0
17 332 -0
18 332 -0
19 332 -0
20 332 -0
21 332 -0
22 332 -0
23 332 -0
24 332 -0
25 332 -0
26 332 -0
27 332 -0
28 332 -0
29 332 -0
30 332 -0
31 332 -0
32 332 -0
33 332 -0
34 332 -0
35 332 -0
36 332 -0
37 332 -0
38 332 -0
39 332 -0
40 332 -0
41 332 -0
42 332 -0
43 332 -0
44 332 -0
45 332 -0
46 332 -0
47 332 -0
48 332 -0
49 332 -0
50 332 -0
51 332 -0
52 332 -0
53 332 -0
54 332 -0
55 332 -0
56 332 -0
57 332 -0
58 332 -0
59 332 -0
60 332 -0
121 332 0
122 332 0
123 332 0
124 332 0
125 332 0
126 332 0
127 332 0
128 332 0
129 332 0
130 332 0
131 332 0
132 332 0
133 332 0
134 332 0
135 332 0
136 332 0
137 332 0
138 332 0
139 332 0
140 332 0
141 332 0
142 332 0
143 332 0
144 332 0
145 332 0
146 332 0
147 332 0
148 332 0
149 332 0
150 332 0
151 332 0
152 332 0
153 332 0
154 332 0
155 332 0
156 332 0
157 332 0
158 332 0
159 332 0
160 332 0
161 332 0
162 332 0
163 332 0
164 332 0
165 332 0
166 332 0
167 332 0
168 332 0
169 332 0
170 332 0
171 332 0
172 332 0
173 332 0
174 332 0
175 332 0
176 332 0
177 332 0
178 332 0
179 332 0
180 332 0
1 333 -0
2 333 -0
3 333 -0
4 333 -0
5 333 -0
6 333 -0
7 333 -0
8 333 -0
9 333 -0
10 333 -0
11 333 -0
12 333 -0
13 333 -0
14 333 -0
15 333 -0
16 333 -0
17 333 -0
18 333 -0
19 333 -0
20 333 -0
21 333 -0
22 333 -0
23 333 -0
24 333 -0
25 333 -0
26 333 -0
27 333 -0
28 333 -0
29 333 -0
30 333 -0
31 333 -0
32 333 -0
33 333 -0
34 333 -0
35 333 -0
36 333 -0
37 333 -0
38 333 -0
39 333 -0
40 333 -0
41 333 -0
42 333 -0
43 333 -0
44 333 -0
45 333 -0
46 333 -0
47 333 -0
48 333 -0
49 333 -0
50 333 -0
51 333 -0
52 333 -0
53 333 -0
54 333 -0
55 333 -0
56 333 -0
57 333 -0
58 333 -0
59 333 -0
60 333 -0
121 333 0
122 333 0
123 333 0
124 333 0
125 333 0
126 333 0
127 333 0
128 333 0
129 333 0
130 333 0
131 333 0
132 333 0
133 333 0
134 333 0
135 333 0
136 333 0
137 333 0
138 333 0
139 333 0
140 333 0
141 333 0
142 333 0
143 333 0
144 333 0
145 333 0
146 333 0
147 333 0
148 333 0
149 333 0
150 333 0
151 333 0
152 333 0
153 333 0
154 333 0
155 333 0
156 333 0
157 333 0
158 333 0
159 333 0
160 333 0
161 333 0
162 333 0
163 333 0
164 333 0
165 333 0
166 333 0
167 333 0
168 333 0
169 333 0
170 333 0
171 333 0
172 333 0
173 333 0
174 333 0
175 333 0
176 333 0
177 333 0
178 333 0
179 333 0
180 333 0
1 334 -0
2 334 -0
3 334 -0
4 334 -0
5 334 -0
6 334 -0
7 334 -0
8 334 -0
9 334 -0
10 334 -0
11 334 -0
12 334 -0
13 334 -0
14 334 -0
15 334 -0
16 334 -0
17 334 -0
18 334 -0
19 334 -0
20 334 -0
21 334 -0
22 334 -0
23 334 -0
24 334 -0
25 334 -0
26 334 -0
27 334 -0
28 334 -0
29 334 -0
30 334 -0
31 334 -0
32 334 -0
33 334 -0
34 334 -0
35 334 -0
36 334 -0
37 334 -0
38 334 -0
39 334 -0
40 334 -0
41 334 -0
42 334 -0
43 334 -0
44 334 -0
45 334 -0
46 334 -0
47 334 -0
48 334 -0
49 334 -0
50 334 -0
51 334 -0
52 334 -0
53 334 -0
54 334 -0
55 334 -0
56 334 -0
57 334 -0
58 334 -0
59 334 -0
60 334 -0
121 334 0
122 334 0
123 334 0
124 334 0
125 334 0
126 334 0
127 334 0
128 334 0
129 334 0
130 334 0
131 334 0
132 334 0
133 334 0
134 334 0
135 334 0
136 334 0
137 334 0
138 334 0
139 334 0
140 334 0
141 334 0
142 334 0
143 334 0
144 334 0
145 334 0
146 334 0
147 334 0
148 334 0
149 334 0
150 334 0
151 334 0
152 334 0
153 334 0
154 334 0
155 334 0
156 334 0
157 334 0
158 334 0
159 334 0
160 334 0
161 334 0
162 334 0
163 334 0
164 334 0
165 334 0
166 334 0
167 334 0
168 334 0
169 334 0
170 334 0
171 334 0
172 334 0
173 334 0
174 334 0
175 334 0
176 334 0
177 334 0
178 334 0
179 334 0
180 334 0
1 335 -0
2 335 -0
3 335 -0
4 335 -0
5 335 -0
6 335 -0
7 335 -0
8 335 -0
9 335 -0
10 335 -0
11 335 -0
12 335 -0
13 335 -0
14 335 -0
15 335 -0
16 335 -0
17 335 -0
18 335 -0
19 335 -0
20 335 -0
21 335 -0
22 335 -0
23 335 -0
24 335 -0
25 335 -0
26 335 -0
27 335 -0
28 335 -0
29 335 -0
30 335 -0
31 335 -0
32 335 -0
33 335 -0
34 335 -0
35 335 -0
36 335 -0
37 335 -0
38 335 -0
39 335 -0
40 335 -0
41 335 -0
42 335 -0
43 335 -0
44 335 -0
45 335 -0
46 335 -0
47 335 -0
48 335 -0
49 335 -0
50 335 -0
51 335 -0
52 335 -0
53 335 -0
54 335 -0
55 335 -0
56 335 -0
57 335 -0
58 335 -0
59 335 -0
60 335 -0
121 335 0
122 335 0
123 335 0
124 335 0
125 335 0
126 335 0
127 335 0
128 335 0
129 335 0
130 335 0
131 335 0
132 335 0
133 335 0
134 335 0
135 335 0
136 335 0
137 335 0
138 335 0
139 335 0
140 335 0
141 335 0
142 335 0
143 335 0
144 335 0
145 335 0
146 335 0
147 335 0
148 335 0
149 335 0
150 335 0
151 335 0
152 335 0
153 335 0
154 335 0
155 335 0
156 335 0
157 335 0
158 335 0
159 335 0
160 335 0
161 335 0
162 335 0
163 335 0
164 335 0
165 335 0
166 335 0
167 335 0
168 335 0
169 335 0
170 335 0
171 335 0
172 335 0
173 335 0
174 335 0
175 335 0
176 335 0
177 335 0
178 335 0
179 335 0
180 335 0
1 336 -0
2 336 -0
3 336 -0
4 336 -0
5 336 -0
6 336 -0
7 336 -0
8 336 -0
9 336 -0
10 336 -0
11 336 -0
12 336 -0
13 336 -0
14 336 -0
15 336 -0
16 336 -0
17 336 -0
18 336 -0
19 336 -0
20 336 -0
21 336 -0
22 336 -0
23 336 -0
24 336 -0
25 336 -0
26 336 -0
27 336 -0
28 336 -0
29 336 -0
30 336 -0
31 336 -0
32 336 -0
33 336 -0
34 336 -0
35 336 -0
36 336 -0
37 336 -0
38 336 -0
39 336 -0
40 336 -0
41 336 -0
42 336 -0
43 336 -0
44 336 -0
45 336 -0
46 336 -0
47 336 -0
48 336 -0
49 336 -0
50 336 -0
51 336 -0
52 336 -0
53 336 -0
54 336 -0
55 336 -0
56 336 -0
57 336 -0
58 336 -0
59 336 -0
60 336 -0
121 336 0
122 336 0
123 336 0
124 336 0
125 336 0
126 336 0
127 336 0
128 336 0
129 336 0
130 336 0
131 336 0
132 336 0
133 336 0
134 336 0
135 336 0
136 336 0
137 336 0
138 336 0
139 336 0
140 336 0
141 336 0
142 336 0
143 336 0
144 336 0
145 336 0
146 336 0
147 336 0
148 336 0
149 336 0
150 336 0
151 336 0
152 336 0
153 336 0
154 336 0
155 336 0
156 336 0
157 336 0
158 336 0
159 336 0
160 336 0
161 336 0
162 336 0
163 336 0
164 336 0
165 336 0
166 336 0
167 336 0
168 336 0
169 336 0
170 336 0
171 336 0
172 336 0
173 336 0
174 336 0
175 336 0
176 336 0
177 336 0
178 336 0
179 336 0
180 336 0
1 337 -0
2 337 -0
3 337 -0
4 337 -0
5 337 -0
6 337 -0
7 337 -0
8 337 -0
9 337 -0
10 337 -0
11 337 -0
12 337 -0
13 337 -0
14 337 -0
15 337 -0
16 337 -0
17 337 -0
18 337 -0
19 337 -0
20 337 -0
21 337 -0.9652674876885331
22 337 -0
23 337 -0
24 337 -0
25 337 -0
26 337 -0
27 337 -0
28 337 -0
29 337 -0
30 337 -0
31 337 -0
32 337 -0
33 337 -0
34 337 -0
35 337 -0
36 337 -0
37 337 -0
38 337 -0
39 337 -0
40 337 -0
41 337 -0
42 337 -0
43 337 -0
44 337 -0
45 337 -0
46 337 -0
47 337 -0
48 337 -0
49 337 -0
50 337 -0
51 337 -0
52 337 -0
53 337 -0
54 337 -0
55 337 -0
56 337 -0
57 337 -0
58 337 -0
59 337 -0
60 337 -0
121 337 0
122 337 0
123 337 0
124 337 0
125 337 0
126 337 0
127 337 0
128 337 0
129 337 0
130 337 0
131 337 0
132 337 0
133 337 0
134 337 0
135 337 0
136 337 0
137 337 0
138 337 0
139 337 0
140 337 0
141 337 0
142 337 0
143 337 0
144 337 0
145 337 0
146 337 0
147 337 0
148 337 0
149 337 0
150 337 0
151 337 0
152 337 0
153 337 0
154 337 0
155 337 0
156 337 0
157 337 0
158 337 0
159 337 0
160 337 0
161 337 0
162 337 0
163 337 0
164 337 0
165 337 0
166 337 0
167 337 0
168 337 0
169 337 0
170 337 0
171 337 0
172 337 0
173 337 0
174 337 0
175 337 0
176 337 0
177 337 0
178 337 0
179 337 0
180 337 0
1 338 -0
2 338 -0
3 338 -0
4 338 -0
5 338 -0
6 338 -0
7 338 -0
8 338 -0
9 338 -0
10 338 -0
11 338 -0
12 338 -0
13 338 -0
14 338 -0
15 338 -0
16 338 -0
17 338 -0
18 338 -0
19 338 -0
20 338 -0
21 338 -0
22 338 -0.9652674876885331
23 338 -0
24 338 -0
25 338 -0
26 338 -0
27 338 -0
28 338 -0
29 338 -0
30 338 -0
31 338 -0
32 338 -0
33 338 -0
34 338 -0
35 338 -0
36 338 -0
37 338 -0
38 338 -0
39 338 -0
40 338 -0
41 338 -0
42 338 -0
43 338 -0
44 338 -0
45 338 -0
46 338 -0
47 338 -0
48 338 -0
49 338 -0
50 338 -0
51 338 -0
52 338 -0
53 338 -0
54 338 -0
55 338 -0
56 338 -0
57 338 -0
58 338 -0
59 338 -0
60 338 -0
121 338 0
122 338 0
123 338 0
124 338 0
125 338 0
126 338 0
127 338 0
128 338 0
129 338 0
130 338 0
131 338 0
132 338 0
133 338 0
134 338 0
135 338 0
136 338 0
137 338 0
138 338 0
139 338 0
140 338 0
141 338 0
142 338 0
143 338 0
144 338 0
145 338 0
146 338 0
147 338 0
148 338 0
149 338 0
150 338 0
151 338 0
152 338 0
153 338 0
154 338 0
155 338 0
156 338 0
157 338 0
158 338 0
159 338 0
160 338 0
161 338 0
162 338 0
163 338 0
164 338 0
165 338 0
166 338 0
167 338 0
168 338 0
169 338 0
170 338 0
171 338 0
172 338 0
173 338 0
174 338 0
175 338 0
176 338 0
177 338 0
178 338 0
179 338 0
180 338 0
1 339 -0
2 339 -0
3 339 -0
4 339 -0
5 339 -0
6 339 -0
7 339 -0
8 339 -0
9 339 -0
10 339 -0
11 339 -0
12 339 -0
13 339 -0
14 339 -0
15 339 -0
16 339 -0
17 339 -0
18 339 -0
19 339 -0
20 339 -0
21 339 -0
22 339 -0
23 339 -0.9652674876885331
24 339 -0
25 339 -0
26 339 -0
27 339 -0
28 339 -0
29 339 -0
30 339 -0
31 339 -0
32 339 -0
33 339 -0
34 339 -0
35 339 -0
36 339 -0
37 339 -0
38 339 -0
39 339 -0
40 339 -0
41 339 -0
42 339 -0
43 339 -0
44 339 -0
45 339 -0
46 339 -0
47 339 -0
48 339 -0
49 339 -0
50 339 -0
51 339 -0
52 339 -0
53 339 -0
54 339 -0
55 339 -0
56 339 -0
57 339 -0
58 339 -0
59 339 -0
60 339 -0
121 339 0
122 339 0
123 339 0
124 339 0
125 339 0
126 339 0
127 339 0
128 339 0
129 339 0
130 339 0
131 339 0
132 339 0
133 339 0
134 339 0
135 339 0
136 339 0
137 339 0
138 339 0
139 339 0
140 339 0
141 339 0
142 339 0
143 339 0
144 339 0
145 339 0
146 339 0
147 339 0
148 339 0
149 339 0
150 339 0
151 339 0
152 339 0
153 339 0
154 339 0
155 339 0
156 339 0
157 339 0
158 339 0
159 339 0
160 339 0
161 339 0
162 339 0
163 339 0
164 339 0
165 339 0
166 339 0
167 339 0
168 339 0
169 339 0
170 339 0
171 339 0
172 339 0
173 339 0
174 339 0
175 339 0
176 339 0
177 339 0
178 339 0
179 339 0
180 339 0
1 340 -0
2 340 -0
3 340 -0
4 340 -0
5 340 -0
6 340 -0
7 340 -0
8 340 -0
9 340 -0
10 340 -0
11 340 -0
12 340 -0
13 340 -0
14 340 -0
15 340 -0
16 340 -0
17 340 -0
18 340 -0
19 340 -0
20 340 -0
21 340 -0
22 340 -0
23 340 -0
24 340 -0.9652674876885331
25 340 -0
26 340 -0
27 340 -0
28 340 -0
29 340 -0
30 340 -0
31 340 -0
32 340 -0
33 340 -0
34 340 -0
35 340 -0
36 340 -0
37 340 -0
38 340 -0
39 340 -0
40 340 -0
41 340 -0
42 340 -0
43 340 -0
44 340 -0
45 340 -0
46 340 -0
47 340 -0
48 340 -0
49 340 -0
50 340 -0
51 340 -0
52 340 -0
53 340 -0
54 340 -0
55 340 -0
56 340 -0
57 340 -0
58 340 -0
59 340 -0
60 340 -0
121 340 0
122 340 0
123 340 0
124 340 0
125 340 0
126 340 0
127 340 0
128 340 0
129 340 0
130 340 0
131 340 0
132 340 0
133 340 0
134 340 0
135 340 0
136 340 0
137 340 0
138 340 0
139 340 0
140 340 0
141 340 0
142 340 0
143 340 0
144 340 0
145 340 0
146 340 0
147 340 0
148 340 0
149 340 0
150 340 0
151 340 0
152 340 0
153 340 0
154 340 0
155 340 0
156 340 0
157 340 0
158 340 0
159 340 0
160 340 0
161 340 0
162 340 0
163 340 0
164 340 0
165 340 0
166 340 0
167 340 0
168 340 0
169 340 0
170 340 0
171 340 0
172 340 0
173 340 0
174 340 0
175 340 0
176 340 0
177 340 0
178 340 0
179 340 0
180 340 0
1 341 -0
2 341 -0
3 341 -0
4 341 -0
5 341 -0
6 341 -0
7 341 -0
8 341 -0
9 341 -0
10 341 -0
11 341 -0
12 341 -0
13 341 -0
14 341 -0
15 341 -0
16 341 -0
17 341 -0
18 341 -0
19 341 -0
20 341 -0
21 341 -0
22 341 -0
23 341 -0
24 341 -0
25 341 -0.9652674876885331
26 341 -0
27 341 -0
28 341 -0
29 341 -0
30 341 -0
31 341 -0
32 341 -0
33 341 -0
34 341 -0
35 341 -0
36 341 -0
37 341 -0
38 341 -0
39 341 -0
40 341 -0
41 341 -0
42 341 -0
43 341 -0
44 341 -0
45 341 -0
46 341 -0
47 341 -0
48 341 -0
49 341 -0
50 341 -0
51 341 -0
52 341 -0
53 341 -0
54 341 -0
55 341 -0
56 341 -0
57 341 -0
58 341 -0
59 341 -0
60 341 -0
121 341 0
122 341 0
123 341 0
124 341 0
125 341 0
126 341 0
127 341 0
128 341 0
129 341 0
130 341 0
131 341 0
132 341 0
133 341 0
134 341 0
135 341 0
136 341 0
137 341 0
138 341 0
139 341 0
140 341 0
141 341 0
142 341 0
143 341 0
144 341 0
145 341 0
146 341 0
147 341 0
148 341 0
149 341 0
150 341 0
151 341 0
152 341 0
153 341 0
154 341 0
155 341 0
156 341 0
157 341 0
158 341 0
159 341 0
160 341 0
161 341 0
162 341 0
163 341 0
164 341 0
165 341 0
166 341 0
167 341 0
168 341 0
169 341 0
170 341 0
171 341 0
172 341 0
173 341 0
174 341 0
175 341 0
176 341 0
177 341 0
178 341 0
179 341 0
180 341 0
1 342 -0
2 342 -0
3 342 -0
4 342 -0
5 342 -0
6 342 -0
7 342 -0
8 342 -0
9 342 -0
10 342 -0
11 342 -0
12 342 -0
13 342 -0
14 342 -0
15 342 -0
16 342 -0
17 342 -0
18 342 -0
19 342 -0
20 342 -0
21 342 -0
22 342 -0
23 342 -0
24 342 -0
25 342 -0
26 342 -0
27 342 -0
28 342 -0
29 342 -0
30 342 -0
31 342 -0
32 342 -0
33 342 -0
34 342 -0
35 342 -0
36 342 -0
37 342 -0
38 342 -0
39 342 -0
40 342 -0
41 342 -0
42 342 -0
43 342 -0
44 342 -0
45 342 -0
46 342 -0
47 342 -0
48 342 -0
49 342 -0
50 342 -0
51 342 -0
52 342 -0
53 342 -0
54 342 -0
55 342 -0
56 342 -0
57 342 -0
58 342 -0
59 342 -0
60 342 -0
121 342 0
122 342 0
123 342 0
124 342 0
125 342 0
126 342 0
127 342 0
128 342 0
129 342 0
130 342 0
131 342 0
132 342 0
133 342 0
134 342 0
135 342 0
136 342 0
137 342 0
138 342 0
139 342 0
140 342 0
141 342 0
142 342 0
143 342 0
144 342 0
145 342 0
146 342 0
147 342 0
148 342 0
149 342 0
150 342 0
151 342 0
152 342 0
153 342 0
154 342 0
155 342 0
156 342 0
157 342 0
158 342 0
159 342 0
160 342 0
161 342 0
162 342 0
163 342 0
164 342 0
165 342 0
166 342 0
167 342 0
168 342 0
169 342 0
170 342 0
171 342 0
172 342 0
173 342 0
174 342 0
175 342 0
176 342 0
177 342 0
178 342 0
179 342 0
180 342 0
1 343 -0
2 343 -0
3 343 -0
4 343 -0
5 343 -0
6 343 -0
7 343 -0
8 343 -0
9 343 -0
10 343 -0
11 343 -0
12 343 -0
13 343 -0
14 343 -0
15 343 -0
16 343 -0
17 343 -0
18 343 -0
19 343 -0
20 343 -0
21 343 -0
22 343 -0
23 343 -0
24 343 -0
25 343 -0
26 343 -0
27 343 -0
28 343 -0
29 343 -0
30 343 -0
31 343 -0
32 343 -0
33 343 -0
34 343 -0
35 343 -0
36 343 -0
37 343 -0
38 343 -0
39 343 -0
40 343 -0
41 343 -0
42 343 -0
43 343 -0
44 343 -0
45 343 -0
46 343 -0
47 343 -0
48 343 -0
49 343 -0
50 343 -0
51 343 -0
52 343 -0
53 343 -0
54 343 -0
55 343 -0
56 343 -0
57 343 -0
58 343 -0
59 343 -0
60 343 -0
121 343 0
122 343 0
123 343 0
124 343 0
125 343 0
126 343 0
127 343 0
128 343 0
129 343 0
130 343 0
131 343 0
132 343 0
133 343 0
134 343 0
135 343 0
136 343 0
137 343 0
138 343 0
139 343 0
140 343 0
141 343 0
142 343 0
143 343 0
144 343 0
145 343 0
146 343 0
147 343 0
148 343 0
149 343 0
150 343 0
151 343 0
152 343 0
153 343 0
154 343 0
155 343 0
156 343 0
157 343 0
158 343 0
159 343 0
160 343 0
161 343 0
162 343 0
163 343 0
164 343 0
165 343 0
166 343 0
167 343 0
168 343 0
169 343 0
170 343 0
171 343 0
172 343 0
173 343 0
174 343 0
175 343 0
176 343 0
177 343 0
178 343 0
179 343 0
180 343 0
1 344 -0
2 344 -0
3 344 -0
4 344 -0
5 344 -0
6 344 -0
7 344 -0
8 344 -0
9 344 -0
10 344 -0
11 344 -0
12 344 -0
13 344 -0
14 344 -0
15 344 -0
16 344 -0
17 344 -0
18 344 -0
19 344 -0
20 344 -0
21 344 -0
22 344 -0
23 344 -0
24 344 -0
25 344 -0
26 344 -0
27 344 -0
28 344 -0
29 344 -0
30 344 -0
31 344 -0
32 344 -0
33 344 -0
34 344 -0
35 344 -0
36 344 -0
37 344 -0
38 344 -0
39 344 -0
40 344 -0
41 344 -0
42 344 -0
43 344 -0
44 344 -0
45 344 -0
46 344 -0
47 344 -0
48 344 -0
49 344 -0
50 344 -0
51 344 -0
52 344 -0
53 344 -0
54 344 -0
55 344 -0
56 344 -0
57 344 -0
58 344 -0
59 344 -0
60 344 -0
121 344 0
122 344 0
123 344 0
124 344 0
125 344 0
126 344 0
127 344 0
128 344 0
129 344 0
130 344 0
131 344 0
132 344 0
133 344 0
134 344 0
135 344 0
136 344 0
137 344 0
138 344 0
139 344 0
140 344 0
141 344 0
142 344 0
143 344 0
144 344 0
145 344 0
146 344 0
147 344 0
148 344 0
149 344 0
150 344 0
151 344 0
152 344 0
153 344 0
154 344 0
155 344 0
156 344 0
157 344 0
158 344 0
159 344 0
160 344 0
161 344 0
162 344 0
163 344 0
164 344 0
165 344 0
166 344 0
167 344 0
168 344 0
169 344 0
170 344 0
171 344 0
172 344 0
173 344 0
174 344 0
175 344 0
176 344 0
177 344 0
178 344 0
179 344 0
180 344 0
1 345 -0
2 345 -0
3 345 -0
4 345 -0
5 345 -0
6 345 -0
7 345 -0
8 345 -0
9 345 -0
10 345 -0
11 345 -0
12 345 -0
13 345 -0
14 345 -0
15 345 -0
16 345 -0
17 345 -0
18 345 -0
19 345 -0
20 345 -0
21 345 -0
22 345 -0
23 345 -0
24 345 -0
25 345 -0
26 345 -0
27 345 -0
28 345 -0
29 345 -0
30 345 -0
31 345 -0
32 345 -0
33 345 -0
34 345 -0
35 345 -0
36 345 -0
37 345 -0
38 345 -0
39 345 -0
40 345 -0
41 345 -0
42 345 -0
43 345 -0
44 345 -0
45 345 -0
46 345 -0
47 345 -0
48 345 -0
49 345 -0
50 345 -0
51 345 -0
52 345 -0
53 345 -0
54 345 -0
55 345 -0
56 345 -0
57 345 -0
58 345 -0
59 345 -0
60 345 -0
121 345 0
122 345 0
123 345 0
124 345 0
125 345 0
126 345 0
127 345 0
128 345 0
129 345 0
130 345 0
131 345 0
132 345 0
133 345 0
134 345 0
135 345 0
136 345 0
137 345 0
138 345 0
139 345 0
140 345 0
141 345 0
142 345 0
143 345 0
144 345 0
145 345 0
146 345 0
147 345 0
148 345 0
149 345 0
150 345 0
151 345 0
152 345 0
153 345 0
154 345 0
155 345 0
156 345 0
157 345 0
158 345 0
159 345 0
160 345 0
161 345 0
162 345 0
163 345 0
164 345 0
165 345 0
166 345 0
167 345 0
168 345 0
169 345 0
170 345 0
171 345 0
172 345 0
173 345 0
174 345 0
175 345 0
176 345 0
177 345 0
178 345 0
179 345 0
180 345 0
1 346 -0
2 346 -0
3 346 -0
4 346 -0
5 346 -0
6 346 -0
7 346 -0
8 346 -0
9 346 -0
10 346 -0
11 346 -0
12 346 -0
13 346 -0
14 346 -0
15 346 -0
16 346 -0
17 346 -0
18 346 -0
19 346 -0
20 346 -0
21 346 -0
22 346 -0
23 346 -0
24 346 -0
25 346 -0
26 346 -0
27 346 -0
28 346 -0
29 346 -0
30 346 -0
31 346 -0
32 346 -0
33 346 -0
34 346 -0
35 346 -0
36 346 -0
37 346 -0
38 346 -0
39 346 -0
40 346 -0
41 346 -0
42 346 -0
43 346 -0
44 346 -0
45 346 -0
46 346 -0
47 346 -0
48 346 -0
49 346 -0
50 346 -0
51 346 -0
52 346 -0
53 346 -0
54 346 -0
55 346 -0
56 346 -0
57 346 -0
58 346 -0
59 346 -0
60 346 -0
121 346 0
122 346 0
123 346 0
124 346 0
125 346 0
126 346 0
127 346 0
128 346 0
129 346 0
130 346 0
131 346 0
132 346 0
133 346 0
134 346 0
135 346 0
136 346 0
137 346 0
138 346 0
139 346 0
140 346 0
141 346 0
142 346 0
143 346 0
144 346 0
145 346 0
146 346 0
147 346 0
148 346 0
149 346 0
150 346 0
151 346 0
152 346 0
153 346 0
154 346 0
155 346 0
156 346 0
157 346 0
158 346 0
159 346 0
160 346 0
161 346 0
162 346 0
163 346 0
164 346 0
165 346 0
166 346 0
167 346 0
168 346 0
169 346 0
170 346 0
171 346 0
172 346 0
173 346 0
174 346 0
175 346 0
176 346 0
177 346 0
178 346 0
179 346 0
180 346 0
1 347 -0
2 347 -0
3 347 -0
4 347 -0
5 347 -0
6 347 -0
7 347 -0
8 347 -0
9 347 -0
10 347 -0
11 347 -0
12 347 -0
13 347 -0
14 347 -0
15 347 -0
16 347 -0
17 347 -0
18 347 -0
19 347 -0
20 347 -0
21 347 -0
22 347 -0
23 347 -0
24 347 -0
25 347 -0
26 347 -0
27 347 -0
28 347 -0
29 347 -0
30 347 -0
31 347 -0
32 347 -0
33 347 -0
34 347 -0
35 347 -0
36 347 -0
37 347 -0
38 347 -0
39 347 -0
40 347 -0
41 347 -0
42 347 -0
43 347 -0
44 347 -0
45 347 -0
46 347 -0
47 347 -0
48 347 -0
49 347 -0
50 347 -0
51 347 -0
52 347 -0
53 347 -0
54 347 -0
55 347 -0
56 347 -0
57 347 -0
58 347 -0
59 347 -0
60 347 -0
121 347 0
122 347 0
123 347 0
124 347 0
125 347 0
126 347 0
127 347 0
128 347 0
129 347 0
130 347 0
131 347 0
132 347 0
133 347 0
134 347 0
135 347 0
136 347 0
137 347 0
138 347 0
139 347 0
140 347 0
141 347 0
142 347 0
143 347 0
144 347 0
145 347 0
146 347 0
147 347 0
148 347 0
149 347 0
150 347 0
151 347 0
152 347 0
153 347 0
154 347 0
155 347 0
156 347 0
157 347 0
158 347 0
159 347 0
160 347 0
161 347 0
162 347 0
163 347 0
164 347 0
165 347 0
166 347 0
167 347 0
168 347 0
169 347 0
170 347 0
171 347 0
172 347 0
173 347 0
174 347 0
175 347 0
176 347 0
177 347 0
178 347 0
179 347 0
180 347 0
1 348 -0
2 348 -0
3 348 -0
4 348 -0
5 348 -0
6 348 -0
7 348 -0
8 348 -0
9 348 -0
10 348 -0
11 348 -0
12 348 -0
13 348 -0
14 348 -0
15 348 -0
16 348 -0
17 348 -0
18 348 -0
19 348 -0
20 348 -0
21 348 -0
22 348 -0
23 348 -0
24 348 -0
25 348 -0
26 348 -0
27 348 -0
28 348 -0
29 348 -0
30 348 -0
31 348 -0
32 348 -0
33 348 -0
34 348 -0
35 348 -0
36 348 -0
37 348 -0
38 348 -0
39 348 -0
40 348 -0
41 348 -0
42 348 -0
43 348 -0
44 348 -0
45 348 -0
46 348 -0
47 348 -0
48 348 -0
49 348 -0
50 348 -0
51 348 -0
52 348 -0
53 348 -0
54 348 -0
55 348 -0
56 348 -0
57 348 -0
58 348 -0
59 348 -0
60 348 -0
121 348 0
122 348 0
123 348 0
124 348 0
125 348 0
126 348 0
127 348 0
128 348 0
129 348 0
130 348 0
131 348 0
132 348 0
133 348 0
134 348 0
135 348 0
136 348 0
137 348 0
138 348 0
139 348 0
140 348 0
141 348 0
142 348 0
143 348 0
144 348 0
145 348 0
146 348 0
147 348 0
148 348 0
149 348 0
150 348 0
151 348 0
152 348 0
153 348 0
154 348 0
155 348 0
156 348 0
157 348 0
158 348 0
159 348 0
160 348 0
161 348 0
162 348 0
163 348 0
164 348 0
165 348 0
166 348 0
167 348 0
168 348 0
169 348 0
170 348 0
171 348 0
172 348 0
173 348 0
174 348 0
175 348 0
176 348 0
177 348 0
178 348 0
179 348 0
180 348 0
1 349 -0
2 349 -0
3 349 -0
4 349 -0
5 349 -0
6 349 -0
7 349 -0
8 349 -0
9 349 -0
10 349 -0
11 349 -0
12 349 -0
13 349 -0
14 349 -0
15 349 -0
16 349 -0
17 349 -0
18 349 -0
19 349 -0
20 349 -0
21 349 -0
22 349 -0
23 349 -0
24 349 -0
25 349 -0
26 349 -0.9652674876885331
27 349 -0
28 349 -0
29 349 -0
30 349 -0
31 349 -0
32 349 -0
33 349 -0
34 349 -0
35 349 -0
36 349 -0
37 349 -0
38 349 -0
39 349 -0
40 349 -0
41 349 -0
42 349 -0
43 349 -0
44 349 -0
45 349 -0
46 349 -0
47 349 -0
48 349 -0
49 349 -0
50 349 -0
51 349 -0
52 349 -0
53 349 -0
54 349 -0
55 349 -0
56 349 -0
57 349 -0
58 349 -0
59 349 -0
60 349 -0
121 349 0
122 349 0
123 349 0
124 349 0
125 349 0
126 349 0
127 349 0
128 349 0
129 349 0
130 349 0
131 349 0
132 349 0
133 349 0
134 349 0
135 349 0
136 349 0
137 349 0
138 349 0
139 349 0
140 349 0
141 349 0
142 349 0
143 349 0
144 349 0
145 349 0
146 349 0
147 349 0
148 349 0
149 349 0
150 349 0
151 349 0
152 349 0
153 349 0
154 349 0
155 349 0
156 349 0
157 349 0
158 349 0
159 349 0
160 349 0
161 349 0
162 349 0
163 349 0
164 349 0
165 349 0
166 349 0
167 349 0
168 349 0
169 349 0
170 349 0
171 349 0
172 349 0
173 349 0
174 349 0
175 349 0
176 349 0
177 349 0
178 349 0
179 349 0
180 349 0
1 350 -0
2 350 -0
3 350 -0
4 350 -0
5 350 -0
6 350 -0
7 350 -0
8 350 -0
9 350 -0
10 350 -0
11 350 -0
12 350 -0
13 350 -0
14 350 -0
15 350 -0
16 350 -0
17 350 -0
18 350 -0
19 350 -0
20 350 -0
21 350 -0
22 350 -0
23 350 -0
24 350 -0
25 350 -0
26 350 -0
27 350 -0.9652674876885331
28 350 -0
29 350 -0
30 350 -0
31 350 -0
32 350 -0
33 350 -0
34 350 -0
35 350 -0
36 350 -0
37 350 -0
38 350 -0
39 350 -0
40 350 -0
41 350 -0
42 350 -0
43 350 -0
44 350 -0
45 350 -0
46 350 -0
47 350 -0
48 350 -0
49 350 -0
50 350 -0
51 350 -0
52 350 -0
53 350 -0
54 350 -0
55 350 -0
56 350 -0
57 350 -0
58 350 -0
59 350 -0
60 350 -0
121 350 0
122 350 0
123 350 0
124 350 0
125 350 0
126 350 0
127 350 0
128 350 0
129 350 0
130 350 0
131 350 0
132 350 0
133 350 0
134 350 0
135 350 0
136 350 0
137 350 0
138 350 0
139 350 0
140 350 0
141 350 0
142 350 0
143 350 0
144 350 0
145 350 0
146 350 0
147 350 0
148 350 0
149 350 0
150 350 0
151 350 0
152 350 0
153 350 0
154 350 0
155 350 0
156 350 0
157 350 0
158 350 0
159 350 0
160 350 0
161 350 0
162 350 0
163 350 0
164 350 0
165 350 0
166 350 0
167 350 0
168 350 0
169 350 0
170 350 0
171 350 0
172 350 0
173 350 0
174 350 0
175 350 0
176 350 0
177 350 0
178 350 0
179 350 0
180 350 0
1 351 -0
2 351 -0
3 351 -0
4 351 -0
5 351 -0
6 351 -0
7 351 -0
8 351 -0
9 351 -0
10 351 -0
11 351 -0
12 351 -0
13 351 -0
14 351 -0
15 351 -0
16 351 -0
17 351 -0
18 351 -0
19 351 -0
20 351 -0
21 351 -0
22 351 -0
23 351 -0
24 351 -0
25 351 -0
26 351 -0
27 351 -0
28 351 -0.9652674876885331
29 351 -0
30 351 -0
31 351 -0
32 351 -0
33 351 -0
34 351 -0
35 351 -0
36 351 -0
37 351 -0
38 351 -0
39 351 -0
40 351 -0
41 351 -0
42 351 -0
43 351 -0
44 351 -0
45 351 -0
46 351 -0
47 351 -0
48 351 -0
49 351 -0
50 351 -0
51 351 -0
52 351 -0
53 351 -0
54 351 -0
55 351 -0
56 351 -0
57 351 -0
58 351 -0
59 351 -0
60 351 -0
121 351 0
122 351 0
123 351 0
124 351 0
125 351 0
126 351 0
127 351 0
128 351 0
129 351 0
130 351 0
131 351 0
132 351 0
133 351 0
134 351 0
135 351 0
136 351 0
137 351 0
138 351 0
139 351 0
140 351 0
141 351 0
142 351 0
143 351 0
144 351 0
145 351 0
146 351 0
147 351 0
148 351 0
149 351 0
150 351 0
151 351 0
152 351 0
153 351 0
154 351 0
155 351 0
156 351 0
157 351 0
158 351 0
159 351 0
160 351 0
161 351 0
162 351 0
163 351 0
164 351 0
165 351 0
166 351 0
167 351 0
168 351 0
169 351 0
170 351 0
171 351 0
172 351 0
173 351 0
174 351 0
175 351 0
176 351 0
177 351 0
178 351 0
179 351 0
180 351 0
1 352 -0
2 352 -0
3 352 -0
4 352 -0
5 352 -0
6 352 -0
7 352 -0
8 352 -0
9 352 -0
10 352 -0
11 352 -0
12 352 -0
13 352 -0
14 352 -0
15 352 -0
16 352 -0
17 352 -0
18 352 -0
19 352 -0
20 352 -0
21 352 -0
22 352 -0
23 352 -0
24 352 -0
25 352 -0
26 352 -0
27 352 -0
28 352 -0
29 352 -0.9652674876885331
30 352 -0
31 352 -0
32 352 -0
33 352 -0
34 352 -0
35 352 -0
36 352 -0
37 352 -0
38 352 -0
39 352 -0
40 352 -0
41 352 -0
42 352 -0
43 352 -0
44 352 -0
45 352 -0
46 352 -0
47 352 -0
48 352 -0
49 352 -0
50 352 -0
51 352 -0
52 352 -0
53 352 -0
54 352 -0
55 352 -0
56 352 -0
57 352 -0
58 352 -0
59 352 -0
60 352 -0
121 352 0
122 352 0
123 352 0
124 352 0
125 352 0
126 352 0
127 352 0
128 352 0
129 352 0
130 352 0
131 352 0
132 352 0
133 352 0
134 352 0
135 352 0
136 352 0
137 352 0
138 352 0
139 352 0
140 352 0
141 352 0
142 352 0
143 352 0
144 352 0
145 352 0
146 352 0
147 352 0
148 352 0
149 352 0
150 352 0
151 352 0
152 352 0
153 352 0
154 352 0
155 352 0
156 352 0
157 352 0
158 352 0
159 352 0
160 352 0
161 352 0
162 352 0
163 352 0
164 352 0
165 352 0
166 352 0
167 352 0
168 352 0
169 352 0
170 352 0
171 352 0
172 352 0
173 352 0
174 352 0
175 352 0
176 352 0
177 352 0
178 352 0
179 352 0
180 352 0
1 353 -0
2 353 -0
3 353 -0
4 353 -0
5 353 -0
6 353 -0
7 353 -0
8 353 -0
9 353 -0
10 353 -0
11 353 -0
12 353 -0
13 353 -0
14 353 -0
15 353 -0
16 353 -0
17 353 -0
18 353 -0
19 353 -0
20 353 -0
21 353 -0
22 353 -0
23 353 -0
24 353 -0
25 353 -0
26 353 -0
27 353 -0
28 353 -0
29 353 -0
30 353 -0.9652674876885331
31 353 -0
32 353 -0
33 353 -0
34 353 -0
35 353 -0
36 353 -0
37 353 -0
38 353 -0
39 353 -0
40 353 -0
41 353 -0
42 353 -0
43 353 -0
44 353 -0
45 353 -0
46 353 -0
47 353 -0
48 353 -0
49 353 -0
50 353 -0
51 353 -0
52 353 -0
53 353 -0
54 353 -0
55 353 -0
56 353 -0
57 353 -0
58 353 -0
59 353 -0
60 353 -0
121 353 0
122 353 0
123 353 0
124 353 0
125 353 0
126 353 0
127 353 0
128 353 0
129 353 0
130 353 0
131 353 0
132 353 0
133 353 0
134 353 0
135 353 0
136 353 0
137 353 0
138 353 0
139 353 0
140 353 0
141 353 0
142 353 0
143 353 0
144 353 0
145 353 0
146 353 0
147 353 0
148 353 0
149 353 0
150 353 0
151 353 0
152 353 0
153 353 0
154 353 0
155 353 0
156 353 0
157 353 0
158 353 0
159 353 0
160 353 0
161 353 0
162 353 0
163 353 0
164 353 0
165 353 0
166 353 0
167 353 0
168 353 0
169 353 0
170 353 0
171 353 0
172 353 0
173 353 0
174 353 0
175 353 0
176 353 0
177 353 0
178 353 0
179 353 0
180 353 0
1 354 -0
2 354 -0
3 354 -0
4 354 -0
5 354 -0
6 354 -0
7 354 -0
8 354 -0
9 354 -0
10 354 -0
11 354 -0
12 354 -0
13 354 -0
14 354 -0
15 354 -0
16 354 -0
17 354 -0
18 354 -0
19 354 -0
20 354 -0
21 354 -0
22 354 -0
23 354 -0
24 354 -0
25 354 -0
26 354 -0
27 354 -0
28 354 -0
29 354 -0
30 354 -0
31 354 -0
32 354 -0
33 354 -0
34 354 -0
35 354 -0
36 354 -0
37 354 -0
38 354 -0
39 354 -0
40 354 -0
41 354 -0
42 354 -0
43 354 -0
44 354 -0
45 354 -0
46 354 -0
47 354 -0
48 354 -0
49 354 -0
50 354 -0
51 354 -0
52 354 -0
53 354 -0
54 354 -0
55 354 -0
56 354 -0
57 354 -0
58 354 -0
59 354 -0
60 354 -0
121 354 0
122 354 0
123 354 0
124 354 0
125 354 0
126 354 0
127 354 0
128 354 0
129 354 0
130 354 0
131 354 0
132 354 0
133 354 0
134 354 0
135 354 0
136 354 0
137 354 0
138 354 0
139 354 0
140 354 0
141 354 0
142 354 0
143 354 0
144 354 0
145 354 0
146 354 0
147 354 0
148 354 0
149 354 0
150 354 0
151 354 0
152 354 0
153 354 0
154 354 0
155 354 0
156 354 0
157 354 0
158 354 0
159 354 0
160 354 0
161 354 0
162 354 0
163 354 0
164 354 0
165 354 0
166 354 0
167 354 0
168 354 0
169 354 0
170 354 0
171 354 0
172 354 0
173 354 0
174 354 0
175 354 0
176 354 0
177 354 0
178 354 0
179 354 0
180 354 0
1 355 -0
2 355 -0
3 355 -0
4 355 -0
5 355 -0
6 355 -0
7 355 -0
8 355 -0
9 355 -0
10 355 -0
11 355 -0
12 355 -0
13 355 -0
14 355 -0
15 355 -0
16 355 -0
17 355 -0
18 355 -0
19 355 -0
20 355 -0
21 355 -0
22 355 -0
23 355 -0
24 355 -0
25 355 -0
26 355 -0
27 355 -0
28 355 -0
29 355 -0
30 355 -0
31 355 -0
32 355 -0
33 355 -0
34 355 -0
35 355 -0
36 355 -0
37 355 -0
38 355 -0
39 355 -0
40 355 -0
41 355 -0
42 355 -0
43 355 -0
44 355 -0
45 355 -0
46 355 -0
47 355 -0
48 355 -0
49 355 -0
50 355 -0
51 355 -0
52 355 -0
53 355 -0
54 355 -0
55 355 -0
56 355 -0
57 355 -0
58 355 -0
59 355 -0
60 355 -0
121 355 0
122 355 0
123 355 0
124 355 0
125 355 0
126 355 0
127 355 0
128 355 0
129 355 0
130 355 0
131 355 0
132 355 0
133 355 0
134 355 0
135 355 0
136 355 0
137 355 0
138 355 0
139 355 0
140 355 0
141 355 0
142 355 0
143 355 0
144 355 0
145 355 0
146 355 0
147 355 0
148 355 0
149 355 0
150 355 0
151 355 0
152 355 0
153 355 0
154 355 0
155 355 0
156 355 0
157 355 0
158 355 0
159 355 0
160 355 0
161 355 0
162 355 0
163 355 0
164 355 0
165 355 0
166 355 0
167 355 0
168 355 0
169 355 0
170 355 0
171 355 0
172 355 0
173 355 0
174 355 0
175 355 0
176 355 0
177 355 0
178 355 0
179 355 0
180 355 0
1 356 -0
2 356 -0
3 356 -0
4 356 -0
5 356 -0
6 356 -0
7 356 -0
8 356 -0
9 356 -0
10 356 -0
11 356 -0
12 356 -0
13 356 -0
14 356 -0
15 356 -0
16 356 -0
17 356 -0
18 356 -0
19 356 -0
20 356 -0
21 356 -0
22 356 -0
23 356 -0
24 356 -0
25 356 -0
26 356 -0
27 356 -0
28 356 -0
29 356 -0
30 356 -0
31 356 -0
32 356 -0
33 356 -0
34 356 -0
35 356 -0
36 356 -0
37 356 -0
38 356 -0
39 356 -0
40 356 -0
41 356 -0
42 356 -0
43 356 -0
44 356 -0
45 356 -0
46 356 -0
47 356 -0
48 356 -0
49 356 -0
50 356 -0
51 356 -0
52 356 -0
53 356 -0
54 356 -0
55 356 -0
56 356 -0
57 356 -0
58 356 -0
59 356 -0
60 356 -0
121 356 0
122 356 0
123 356 0
124 356 0
125 356 0
126 356 0
127 356 0
128 356 0
129 356 0
130 356 0
131 356 0
132 356 0
133 356 0
134 356 0
135 356 0
136 356 0
137 356 0
138 356 0
139 356 0
140 356 0
141 356 0
142 356 0
143 356 0
144 356 0
145 356 0
146 356 0
147 356 0
148 356 0
149 356 0
150 356 0
151 356 0
152 356 0
153 356 0
154 356 0
155 356 0
156 356 0
157 356 0
158 356 0
159 356 0
160 356 0
161 356 0
162 356 0
163 356 0
164 356 0
165 356 0
166 356 0
167 356 0
168 356 0
169 356 0
170 356 0
171 356 0
172 356 0
173 356 0
174 356 0
175 356 0
176 356 0
177 356 0
178 356 0
179 356 0
180 356 0
1 357 -0
2 357 -0
3 357 -0
4 357 -0
5 357 -0
6 357 -0
7 357 -0
8 357 -0
9 357 -0
10 357 -0
11 357 -0
12 357 -0
13 357 -0
14 357 -0
15 357 -0
16 357 -0
17 357 -0
18 357 -0
19 357 -0
20 357 -0
21 357 -0
22 357 -0
23 357 -0
24 357 -0
25 357 -0
26 357 -0
27 357 -0
28 357 -0
29 357 -0
30 357 -0
31 357 -0
32 357 -0
33 357 -0
34 357 -0
35 357 -0
36 357 -0
37 357 -0
38 357 -0
39 357 -0
40 357 -0
41 357 -0
42 357 -0
43 357 -0
44 357 -0
45 357 -0
46 357 -0
47 357 -0
48 357 -0
49 357 -0
50 357 -0
51 357 -0
52 357 -0
53 357 -0
54 357 -0
55 357 -0
56 357 -0
57 357 -0
58 357 -0
59 357 -0
60 357 -0
121 357 0
122 357 0
123 357 0
124 357 0
125 357 0
126 357 0
127 357 0
128 357 0
129 357 0
130 357 0
131 357 0
132 357 0
133 357 0
134 357 0
135 357 0
136 357 0
137 357 0
138 357 0
139 357 0
140 357 0
141 357 0
142 357 0
143 357 0
144 357 0
145 357 0
146 357 0
147 357 0
148 357 0
149 357 0
150 357 0
151 357 0
152 357 0
153 357 0
154 357 0
155 357 0
156 357 0
157 357 0
158 357 0
159 357 0
160 357 0
161 357 0
162 357 0
163 357 0
164 357 0
165 357 0
166 357 0
167 357 0
168 357 0
169 357 0
170 357 0
171 357 0
172 357 0
173 357 0
174 357 0
175 357 0
176 357 0
177 357 0
178 357 0
179 357 0
180 357 0
1 358 -0
2 358 -0
3 358 -0
4 358 -0
5 358 -0
6 358 -0
7 358 -0
8 358 -0
9 358 -0
10 358 -0
11 358 -0
12 358 -0
13 358 -0
14 358 -0
15 358 -0
16 358 -0
17 358 -0
18 358 -0
19 358 -0
20 358 -0
21 358 -0
22 358 -0
23 358 -0
24 358 -0
25 358 -0
26 358 -0
27 358 -0
28 358 -0
29 358 -0
30 358 -0
31 358 -0
32 358 -0
33 358 -0
34 358 -0
35 358 -0
36 358 -0
37 358 -0
38 358 -0
39 358 -0
40 358 -0
41 358 -0
42 358 -0
43 358 -0
44 358 -0
45 358 -0
46 358 -0
47 358 -0
48 358 -0
49 358 -0
50 358 -0
51 358 -0
52 358 -0
53 358 -0
54 358 -0
55 358 -0
56 358 -0
57 358 -0
58 358 -0
59 358 -0
60 358 -0
121 358 0
122 358 0
123 358 0
124 358 0
125 358 0
126 358 0
127 358 0
128 358 0
129 358 0
130 358 0
131 358 0
132 358 0
133 358 0
134 358 0
135 358 0
136 358 0
137 358 0
138 358 0
139 358 0
140 358 0
141 358 0
142 358 0
143 358 0
144 358 0
145 358 0
146 358 0
147 358 0
148 358 0
149 358 0
150 358 0
151 358 0
152 358 0
153 358 0
154 358 0
155 358 0
156 358 0
157 358 0
158 358 0
159 358 0
160 358 0
161 358 0
162 358 0
163 358 0
164 358 0
165 358 0
166 358 0
167 358 0
168 358 0
169 358 0
170 358 0
171 358 0
172 358 0
173 358 0
174 358 0
175 358 0
176 358 0
177 358 0
178 358 0
179 358 0
180 358 0
1 359 -0
2 359 -0
3 359 -0
4 359 -0
5 359 -0
6 359 -0
7 359 -0
8 359 -0
9 359 -0
10 359 -0
11 359 -0
12 359 -0
13 359 -0
14 359 -0
15 359 -0
16 359 -0
17 359 -0
18 359 -0
19 359 -0
20 359 -0
21 359 -0
22 359 -0
23 359 -0
24 359 -0
25 359 -0
26 359 -0
27 359 -0
28 359 -0
29 359 -0
30 359 -0
31 359 -0
32 359 -0
33 359 -0
34 359 -0
35 359 -0
36 359 -0
37 359 -0
38 359 -0
39 359 -0
40 359 -0
41 359 -0
42 359 -0
43 359 -0
44 359 -0
45 359 -0
46 359 -0
47 359 -0
48 359 -0
49 359 -0
50 359 -0
51 359 -0
52 359 -0
53 359 -0
54 359 -0
55 359 -0
56 359 -0
57 359 -0
58 359 -0
59 359 -0
60 359 -0
121 359 0
122 359 0
123 359 0
124 359 0
125 359 0
126 359 0
127 359 0
128 359 0
129 359 0
130 359 0
131 359 0
132 359 0
133 359 0
134 359 0
135 359 0
136 359 0
137 359 0
138 359 0
139 359 0
140 359 0
141 359 0
142 359 0
143 359 0
144 359 0
145 359 0
146 359 0
147 359 0
148 359 0
149 359 0
150 359 0
151 359 0
152 359 0
153 359 0
154 359 0
155 359 0
156 359 0
157 359 0
158 359 0
159 359 0
160 359 0
161 359 0
162 359 0
163 359 0
164 359 0
165 359 0
166 359 0
167 359 0
168 359 0
169 359 0
170 359 0
171 359 0
172 359 0
173 359 0
174 359 0
175 359 0
176 359 0
177 359 0
178 359 0
179 359 0
180 359 0
1 360 -0
2 360 -0
3 360 -0
4 360 -0
5 360 -0
6 360 -0
7 360 -0
8 360 -0
9 360 -0
10 360 -0
11 360 -0
12 360 -0
13 360 -0
14 360 -0
15 360 -0
16 360 -0
17 360 -0
18 360 -0
19 360 -0
20 360 -0
21 360 -0
22 360 -0
23 360 -0
24 360 -0
25 360 -0
26 360 -0
27 360 -0
28 360 -0
29 360 -0
30 360 -0
31 360 -0
32 360 -0
33 360 -0
34 360 -0
35 360 -0
36 360 -0
37 360 -0
38 360 -0
39 360 -0
40 360 -0
41 360 -0
42 360 -0
43 360 -0
44 360 -0
45 360 -0
46 360 -0
47 360 -0
48 360 -0
49 360 -0
50 360 -0
51 360 -0
52 360 -0
53 360 -0
54 360 -0
55 360 -0
56 360 -0
57 360 -0
58 360 -0
59 360 -0
60 360 -0
121 360 0
122 360 0
123 360 0
124 360 0
125 360 0
126 360 0
127 360 0
128 360 0
129 360 0
130 360 0
131 360 0
132 360 0
133 360 0
134 360 0
135 360 0
136 360 0
137 360 0
138 360 0
139 360 0
140 360 0
141 360 0
142 360 0
143 360 0
144 360 0
145 360 0
146 360 0
147 360 0
148 360 0
149 360 0
150 360 0
151 360 0
152 360 0
153 360 0
154 360 0
155 360 0
156 360 0
157 360 0
158 360 0
159 360 0
160 360 0
161 360 0
162 360 0
163 360 0
164 360 0
165 360 0
166 360 0
167 360 0
168 360 0
169 360 0
170 360 0
171 360 0
172 360 0
173 360 0
174 360 0
175 360 0
176 360 0
177 360 0
178 360 0
179 360 0
180 360 0
1 361 -0
2 361 -0
3 361 -0
4 361 -0
5 361 -0
6 361 -0
7 361 -0
8 361 -0
9 361 -0
10 361 -0
11 361 -0
12 361 -0
13 361 -0
14 361 -0
15 361 -0
16 361 -0
17 361 -0
18 361 -0
19 361 -0
20 361 -0
21 361 -0
22 361 -0
23 361 -0
24 361 -0
25 361 -0
26 361 -0
27 361 -0
28 361 -0
29 361 -0
30 361 -0
31 361 -0.9652674876885331
32 361 -0
33 361 -0
34 361 -0
35 361 -0
36 361 -0
37 361 -0
38 361 -0
39 361 -0
40 361 -0
41 361 -0
42 361 -0
43 361 -0
44 361 -0
45 361 -0
46 361 -0
47 361 -0
48 361 -0
49 361 -0
50 361 -0
51 361 -0
52 361 -0
53 361 -0
54 361 -0
55 361 -0
56 361 -0
57 361 -0
58 361 -0
59 361 -0
60 361 -0
121 361 0
122 361 0
123 361 0
124 361 0
125 361 0
126 361 0
127 361 0
128 361 0
129 361 0
130 361 0
131 361 0
132 361 0
133 361 0
134 361 0
135 361 0
136 361 0
137 361 0
138 361 0
139 361 0
140 361 0
141 361 0
142 361 0
143 361 0
144 361 0
145 361 0
146 361 0
147 361 0
148 361 0
149 361 0
150 361 0
151 361 0
152 361 0
153 361 0
154 361 0
155 361 0
156 361 0
157 361 0
158 361 0
159 361 0
160 361 0
161 361 0
162 361 0
163 361 0
164 361 0
165 361 0
166 361 0
167 361 0
168 361 0
169 361 0
170 361 0
171 361 0
172 361 0
173 361 0
174 361 0
175 361 0
176 361 0
177 361 0
178 361 0
179 361 0
180 361 0
1 362 -0
2 362 -0
3 362 -0
4 362 -0
5 362 -0
6 362 -0
7 362 -0
8 362 -0
9 362 -0
10 362 -0
11 362 -0
12 362 -0
13 362 -0
14 362 -0
15 362 -0
16 362 -0
17 362 -0
18 362 -0
19 362 -0
20 362 -0
21 362 -0
22 362 -0
23 362 -0
24 362 -0
25 362 -0
26 362 -0
27 362 -0
28 362 -0
29 362 -0
30 362 -0
31 362 -0
32 362 -0.9652674876885331
33 362 -0
34 362 -0
35 362 -0
36 362 -0
37 362 -0
38 362 -0
39 362 -0
40 362 -0
41 362 -0
42 362 -0
43 362 -0
44 362 -0
45 362 -0
46 362 -0
47 362 -0
48 362 -0
49 362 -0
50 362 -0
51 362 -0
52 362 -0
53 362 -0
54 362 -0
55 362 -0
56 362 -0
57 362 -0
58 362 -0
59 362 -0
60 362 -0
121 362 0
122 362 0
123 362 0
124 362 0
125 362 0
126 362 0
127 362 0
128 362 0
129 362 0
130 362 0
131 362 0
132 362 0
133 362 0
134 362 0
135 362 0
136 362 0
137 362 0
138 362 0
139 362 0
140 362 0
141 362 0
142 362 0
143 362 0
144 362 0
145 362 0
146 362 0
147 362 0
148 362 0
149 362 0
150 362 0
151 362 0
152 362 0
153 362 0
154 362 0
155 362 0
156 362 0
157 362 0
158 362 0
159 362 0
160 362 0
161 362 0
162 362 0
163 362 0
164 362 0
165 362 0
166 362 0
167 362 0
168 362 0
169 362 0
170 362 0
171 362 0
172 362 0
173 362 0
174 362 0
175 362 0
176 362 0
177 362 0
178 362 0
179 362 0
180 362 0
1 363 -0
2 363 -0
3 363 -0
4 363 -0
5 363 -0
6 363 -0
7 363 -0
8 363 -0
9 363 -0
10 363 -0
11 363 -0
12 363 -0
13 363 -0
14 363 -0
15 363 -0
16 363 -0
17 363 -0
18 363 -0
19 363 -0
20 363 -0
21 363 -0
22 363 -0
23 363 -0
24 363 -0
25 363 -0
26 363 -0
27 363 -0
28 363 -0
29 363 -0
30 363 -0
31 363 -0
32 363 -0
33 363 -0.9652674876885331
34 363 -0
35 363 -0
36 363 -0
37 363 -0
38 363 -0
39 363 -0
40 363 -0
41 363 -0
42 363 -0
43 363 -0
44 363 -0
45 363 -0
46 363 -0
47 363 -0
48 363 -0
49 363 -0
50 363 -0
51 363 -0
52 363 -0
53 363 -0
54 363 -0
55 363 -0
56 363 -0
57 363 -0
58 363 -0
59 363 -0
60 363 -0
121 363 0
122 363 0
123 363 0
124 363 0
125 363 0
126 363 0
127 363 0
128 363 0
129 363 0
130 363 0
131 363 0
132 363 0
133 363 0
134 363 0
135 363 0
136 363 0
137 363 0
138 363 0
139 363 0
140 363 0
141 363 0
142 363 0
143 363 0
144 363 0
145 363 0
146 363 0
147 363 0
148 363 0
149 363 0
150 363 0
151 363 0
152 363 0
153 363 0
154 363 0
155 363 0
156 363 0
157 363 0
158 363 0
159 363 0
160 363 0
161 363 0
162 363 0
163 363 0
164 363 0
165 363 0
166 363 0
167 363 0
168 363 0
169 363 0
170 363 0
171 363 0
172 363 0
173 363 0
174 363 0
175 363 0
176 363 0
177 363 0
178 363 0
179 363 0
180 363 0
1 364 -0
2 364 -0
3 364 -0
4 364 -0
5 364 -0
6 364 -0
7 364 -0
8 364 -0
9 364 -0
10 364 -0
11 364 -0
12 364 -0
13 364 -0
14 364 -0
15 364 -0
16 364 -0
17 364 -0
18 364 -0
19 364 -0
20 364 -0
21 364 -0
22 364 -0
23 364 -0
24 364 -0
25 364 -0
26 364 -0
27 364 -0
28 364 -0
29 364 -0
30 364 -0
31 364 -0
32 364 -0
33 364 -0
34 364 -0.9652674876885331
35 364 -0
36 364 -0
37 364 -0
38 364 -0
39 364 -0
40 364 -0
41 364 -0
42 364 -0
43 364 -0
44 364 -0
45 364 -0
46 364 -0
47 364 -0
48 364 -0
49 364 -0
50 364 -0
51 364 -0
52 364 -0
53 364 -0
54 364 -0
55 364 -0
56 364 -0
57 364 -0
58 364 -0
59 364 -0
60 364 -0
121 364 0
122 364 0
123 364 0
124 364 0
125 364 0
126 364 0
127 364 0
128 364 0
129 364 0
130 364 0
131 364 0
132 364 0
133 364 0
134 364 0
135 364 0
136 364 0
137 364 0
138 364 0
139 364 0
140 364 0
141 364 0
142 364 0
143 364 0
144 364 0
145 364 0
146 364 0
147 364 0
148 364 0
149 364 0
150 364 0
151 364 0
152 364 0
153 364 0
154 364 0
155 364 0
156 364 0
157 364 0
158 364 0
159 364 0
160 364 0
161 364 0
162 364 0
163 364 0
164 364 0
165 364 0
166 364 0
167 364 0
168 364 0
169 364 0
170 364 0
171 364 0
172 364 0
173 364 0
174 364 0
175 364 0
176 364 0
177 364 0
178 364 0
179 364 0
180 364 0
1 365 -0
2 365 -0
3 365 -0
4 365 -0
5 365 -0
6 365 -0
7 365 -0
8 365 -0
9 365 -0
10 365 -0
11 365 -0
12 365 -0
13 365 -0
14 365 -0
15 365 -0
16 365 -0
17 365 -0
18 365 -0
19 365 -0
20 365 -0
21 365 -0
22 365 -0
23 365 -0
24 365 -0
25 365 -0
26 365 -0
27 365 -0
28 365 -0
29 365 -0
30 365 -0
31 365 -0
32 365 -0
33 365 -0
34 365 -0
35 365 -0.9652674876885331
36 365 -0
37 365 -0
38 365 -0
39 365 -0
40 365 -0
41 365 -0
42 365 -0
43 365 -0
44 365 -0
45 365 -0
46 365 -0
47 365 -0
48 365 -0
49 365 -0
50 365 -0
51 365 -0
52 365 -0
53 365 -0
54 365 -0
55 365 -0
56 365 -0
57 365 -0
58 365 -0
59 365 -0
60 365 -0
121 365 0
122 365 0
123 365 0
124 365 0
125 365 0
126 365 0
127 365 0
128 365 0
129 365 0
130 365 0
131 365 0
132 365 0
133 365 0
134 365 0
135 365 0
136 365 0
137 365 0
138 365 0
139 365 0
140 365 0
141 365 0
142 365 0
143 365 0
144 365 0
145 365 0
146 365 0
147 365 0
148 365 0
149 365 0
150 365 0
151 365 0
152 365 0
153 365 0
154 365 0
155 365 0
156 365 0
157 365 0
158 365 0
159 365 0
160 365 0
161 365 0
162 365 0
163 365 0
164 365 0
165 365 0
166 365 0
167 365 0
168 365 0
169 365 0
170 365 0
171 365 0
172 365 0
173 365 0
174 365 0
175 365 0
176 365 0
177 365 0
178 365 0
179 365 0
180 365 0
1 366 -0
2 366 -0
3 366 -0
4 366 -0
5 366 -0
6 366 -0
7 366 -0
8 366 -0
9 366 -0
10 366 -0
11 366 -0
12 366 -0
13 366 -0
14 366 -0
15 366 -0
16 366 -0
17 366 -0
18 366 -0
19 366 -0
20 366 -0
21 366 -0
22 366 -0
23 366 -0
24 366 -0
25 366 -0
26 366 -0
27 366 -0
28 366 -0
29 366 -0
30 366 -0
31 366 -0
32 366 -0
33 366 -0
34 366 -0
35 366 -0
36 366 -0
37 366 -0
38 366 -0
39 366 -0
40 366 -0
41 366 -0
42 366 -0
43 366 -0
44 366 -0
45 366 -0
46 366 -0
47 366 -0
48 366 -0
49 366 -0
50 366 -0
51 366 -0
52 366 -0
53 366 -0
54 366 -0
55 366 -0
56 366 -0
57 366 -0
58 366 -0
59 366 -0
60 366 -0
121 366 0
122 366 0
123 366 0
124 366 0
125 366 0
126 366 0
127 366 0
128 366 0
129 366 0
130 366 0
131 366 0
132 366 0
133 366 0
134 366 0
135 366 0
136 366 0
137 366 0
138 366 0
139 366 0
140 366 0
141 366 0
142 366 0
143 366 0
144 366 0
145 366 0
146 366 0
147 366 0
148 366 0
149 366 0
150 366 0
151 366 0
152 366 0
153 366 0
154 366 0
155 366 0
156 366 0
157 366 0
158 366 0
159 366 0
160 366 0
161 366 0
162 366 0
163 366 0
164 366 0
165 366 0
166 366 0
167 366 0
168 366 0
169 366 0
170 366 0
171 366 0
172 366 0
173 366 0
174 366 0
175 366 0
176 366 0
177 366 0
178 366 0
179 366 0
180 366 0
1 367 -0
2 367 -0
3 367 -0
4 367 -0
5 367 -0
6 367 -0
7 367 -0
8 367 -0
9 367 -0
10 367 -0
11 367 -0
12 367 -0
13 367 -0
14 367 -0
15 367 -0
16 367 -0
17 367 -0
18 367 -0
19 367 -0
20 367 -0
21 367 -0
22 367 -0
23 367 -0
24 367 -0
25 367 -0
26 367 -0
27 367 -0
28 367 -0
29 367 -0
30 367 -0
31 367 -0
32 367 -0
33 367 -0
34 367 -0
35 367 -0
36 367 -0
37 367 -0
38 367 -0
39 367 -0
40 367 -0
41 367 -0
42 367 -0
43 367 -0
44 367 -0
45 367 -0
46 367 -0
47 367 -0
48 367 -0
49 367 -0
50 367 -0
51 367 -0
52 367 -0
53 367 -0
54 367 -0
55 367 -0
56 367 -0
57 367 -0
58 367 -0
59 367 -0
60 367 -0
121 367 0
122 367 0
123 367 0
124 367 0
125 367 0
126 367 0
127 367 0
128 367 0
129 367 0
130 367 0
131 367 0
132 367 0
133 367 0
134 367 0
135 367 0
136 367 0
137 367 0
138 367 0
139 367 0
140 367 0
141 367 0
142 367 0
143 367 0
144 367 0
145 367 0
146 367 0
147 367 0
148 367 0
149 367 0
150 367 0
151 367 0
152 367 0
153 367 0
154 367 0
155 367 0
156 367 0
157 367 0
158 367 0
159 367 0
160 367 0
161 367 0
162 367 0
163 367 0
164 367 0
165 367 0
166 367 0
167 367 0
168 367 0
169 367 0
170 367 0
171 367 0
172 367 0
173 367 0
174 367 0
175 367 0
176 367 0
177 367 0
178 367 0
179 367 0
180 367 0
1 368 -0
2 368 -0
3 368 -0
4 368 -0
5 368 -0
6 368 -0
7 368 -0
8 368 -0
9 368 -0
10 368 -0
11 368 -0
12 368 -0
13 368 -0
14 368 -0
15 368 -0
16 368 -0
17 368 -0
18 368 -0
19 368 -0
20 368 -0
21 368 -0
22 368 -0
23 368 -0
24 368 -0
25 368 -0
26 368 -0
27 368 -0
28 368 -0
29 368 -0
30 368 -0
31 368 -0
32 368 -0
33 368 -0
34 368 -0
35 368 -0
36 368 -0
37 368 -0
38 368 -0
39 368 -0
40 368 -0
41 368 -0
42 368 -0
43 368 -0
44 368 -0
45 368 -0
46 368 -0
47 368 -0
48 368 -0
49 368 -0
50 368 -0
51 368 -0
52 368 -0
53 368 -0
54 368 -0
55 368 -0
56 368 -0
57 368 -0
58 368 -0
59 368 -0
60 368 -0
121 368 0
122 368 0
123 368 0
124 368 0
125 368 0
126 368 0
127 368 0
128 368 0
129 368 0
130 368 0
131 368 0
132 368 0
133 368 0
134 368 0
135 368 0
136 368 0
137 368 0
138 368 0
139 368 0
140 368 0
141 368 0
142 368 0
143 368 0
144 368 0
145 368 0
146 368 0
147 368 0
148 368 0
149 368 0
150 368 0
151 368 0
152 368 0
153 368 0
154 368 0
155 368 0
156 368 0
157 368 0
158 368 0
159 368 0
160 368 0
161 368 0
162 368 0
163 368 0
164 368 0
165 368 0
166 368 0
167 368 0
168 368 0
169 368 0
170 368 0
171 368 0
172 368 0
173 368 0
174 368 0
175 368 0
176 368 0
177 368 0
178 368 0
179 368 0
180 368 0
1 369 -0
2 369 -0
3 369 -0
4 369 -0
5 369 -0
6 369 -0
7 369 -0
8 369 -0
9 369 -0
10 369 -0
11 369 -0
12 369 -0
13 369 -0
14 369 -0
15 369 -0
16 369 -0
17 369 -0
18 369 -0
19 369 -0
20 369 -0
21 369 -0
22 369 -0
23 369 -0
24 369 -0
25 369 -0
26 369 -0
27 369 -0
28 369 -0
29 369 -0
30 369 -0
31 369 -0
32 369 -0
33 369 -0
34 369 -0
35 369 -0
36 369 -0
37 369 -0
38 369 -0
39 369 -0
40 369 -0
41 369 -0
42 369 -0
43 369 -0
44 369 -0
45 369 -0
46 369 -0
47 369 -0
48 369 -0
49 369 -0
50 369 -0
51 369 -0
52 369 -0
53 369 -0
54 369 -0
55 369 -0
56 369 -0
57 369 -0
58 369 -0
59 369 -0
60 369 -0
121 369 0
122 369 0
123 369 0
124 369 0
125 369 0
126 369 0
127 369 0
128 369 0
129 369 0
130 369 0
131 369 0
132 369 0
133 369 0
134 369 0
135 369 0
136 369 0
137 369 0
138 369 0
139 369 0
140 369 0
141 369 0
142 369 0
143 369 0
144 369 0
145 369 0
146 369 0
147 369 0
148 369 0
149 369 0
150 369 0
151 369 0
152 369 0
153 369 0
154 369 0
155 369 0
156 369 0
157 369 0
158 369 0
159 369 0
160 369 0
161 369 0
162 369 0
163 369 0
164 369 0
165 369 0
166 369 0
167 369 0
168 369 0
169 369 0
170 369 0
171 369 0
172 369 0
173 369 0
174 369 0
175 369 0
176 369 0
177 369 0
178 369 0
179 369 0
180 369 0
1 370 -0
2 370 -0
3 370 -0
4 370 -0
5 370 -0
6 370 -0
7 370 -0
8 370 -0
9 370 -0
10 370 -0
11 370 -0
12 370 -0
13 370 -0
14 370 -0
15 370 -0
16 370 -0
17 370 -0
18 370 -0
19 370 -0
20 370 -0
21 370 -0
22 370 -0
23 370 -0
24 370 -0
25 370 -0
26 370 -0
27 370 -0
28 370 -0
29 370 -0
30 370 -0
31 370 -0
32 370 -0
33 370 -0
34 370 -0
35 370 -0
36 370 -0
37 370 -0
38 370 -0
39 370 -0
40 370 -0
41 370 -0
42 370 -0
43 370 -0
44 370 -0
45 370 -0
46 370 -0
47 370 -0
48 370 -0
49 370 -0
50 370 -0
51 370 -0
52 370 -0
53 370 -0
54 370 -0
55 370 -0
56 370 -0
57 370 -0
58 370 -0
59 370 -0
60 370 -0
121 370 0
122 370 0
123 370 0
124 370 0
125 370 0
126 370 0
127 370 0
128 370 0
129 370 0
130 370 0
131 370 0
132 370 0
133 370 0
134 370 0
135 370 0
136 370 0
137 370 0
138 370 0
139 370 0
140 370 0
141 370 0
142 370 0
143 370 0
144 370 0
145 370 0
146 370 0
147 370 0
148 370 0
149 370 0
150 370 0
151 370 0
152 370 0
153 370 0
154 370 0
155 370 0
156 370 0
157 370 0
158 370 0
159 370 0
160 370 0
161 370 0
162 370 0
163 370 0
164 370 0
165 370 0
166 370 0
167 370 0
168 370 0
169 370 0
170 370 0
171 370 0
172 370 0
173 370 0
174 370 0
175 370 0
176 370 0
177 370 0
178 370 0
179 370 0
180 370 0
1 371 -0
2 371 -0
3 371 -0
4 371 -0
5 371 -0
6 371 -0
7 371 -0
8 371 -0
9 371 -0
10 371 -0
11 371 -0
12 371 -0
13 371 -0
14 371 -0
15 371 -0
16 371 -0
17 371 -0
18 371 -0
19 371 -0
20 371 -0
21 371 -0
22 371 -0
23 371 -0
24 371 -0
25 371 -0
26 371 -0
27 371 -0
28 371 -0
29 371 -0
30 371 -0
31 371 -0
32 371 -0
33 371 -0
34 371 -0
35 371 -0
36 371 -0
37 371 -0
38 371 -0
39 371 -0
40 371 -0
41 371 -0
42 371 -0
43 371 -0
44 371 -0
45 371 -0
46 371 -0
47 371 -0
48 371 -0
49 371 -0
50 371 -0
51 371 -0
52 371 -0
53 371 -0
54 371 -0
55 371 -0
56 371 -0
57 371 -0
58 371 -0
59 371 -0
60 371 -0
121 371 0
122 371 0
123 371 0
124 371 0
125 371 0
126 371 0
127 371 0
128 371 0
129 371 0
130 371 0
131 371 0
132 371 0
133 371 0
134 371 0
135 371 0
136 371 0
137 371 0
138 371 0
139 371 0
140 371 0
141 371 0
142 371 0
143 371 0
144 371 0
145 371 0
146 371 0
147 371 0
148 371 0
149 371 0
150 371 0
151 371 0
152 371 0
153 371 0
154 371 0
155 371 0
156 371 0
157 371 0
158 371 0
159 371 0
160 371 0
161 371 0
162 371 0
163 371 0
164 371 0
165 371 0
166 371 0
167 371 0
168 371 0
169 371 0
170 371 0
171 371 0
172 371 0
173 371 0
174 371 0
175 371 0
176 371 0
177 371 0
178 371 0
179 371 0
180 371 0
1 372 -0
2 372 -0
3 372 -0
4 372 -0
5 372 -0
6 372 -0
7 372 -0
8 372 -0
9 372 -0
10 372 -0
11 372 -0
12 372 -0
13 372 -0
14 372 -0
15 372 -0
16 372 -0
17 372 -0
18 372 -0
19 372 -0
20 372 -0
21 372 -0
22 372 -0
23 372 -0
24 372 -0
25 372 -0
26 372 -0
27 372 -0
28 372 -0
29 372 -0
30 372 -0
31 372 -0
32 372 -0
33 372 -0
34 372 -0
35 372 -0
36 372 -0
37 372 -0
38 372 -0
39 372 -0
40 372 -0
41 372 -0
42 372 -0
43 372 -0
44 372 -0
45 372 -0
46 372 -0
47 372 -0
48 372 -0
49 372 -0
50 372 -0
51 372 -0
52 372 -0
53 372 -0
54 372 -0
55 372 -0
56 372 -0
57 372 -0
58 372 -0
59 372 -0
60 372 -0
121 372 0
122 372 0
123 372 0
124 372 0
125 372 0
126 372 0
127 372 0
128 372 0
129 372 0
130 372 0
131 372 0
132 372 0
133 372 0
134 372 0
135 372 0
136 372 0
137 372 0
138 372 0
139 372 0
140 372 0
141 372 0
142 372 0
143 372 0
144 372 0
145 372 0
146 372 0
147 372 0
148 372 0
149 372 0
150 372 0
151 372 0
152 372 0
153 372 0
154 372 0
155 372 0
156 372 0
157 372 0
158 372 0
159 372 0
160 372 0
161 372 0
162 372 0
163 372 0
164 372 0
165 372 0
166 372 0
167 372 0
168 372 0
169 372 0
170 372 0
171 372 0
172 372 0
173 372 0
174 372 0
175 372 0
176 372 0
177 372 0
178 372 0
179 372 0
180 372 0
1 373 -0
2 373 -0
3 373 -0
4 373 -0
5 373 -0
6 373 -0
7 373 -0
8 373 -0
9 373 -0
10 373 -0
11 373 -0
12 373 -0
13 373 -0
14 373 -0
15 373 -0
16 373 -0
17 373 -0
18 373 -0
19 373 -0
20 373 -0
21 373 -0
22 373 -0
23 373 -0
24 373 -0
25 373 -0
26 373 -0
27 373 -0
28 373 -0
29 373 -0
30 373 -0
31 373 -0
32 373 -0
33 373 -0
34 373 -0
35 373 -0
36 373 -0.9652674876885331
37 373 -0
38 373 -0
39 373 -0
40 373 -0
41 373 -0
42 373 -0
43 373 -0
44 373 -0
45 373 -0
46 373 -0
47 373 -0
48 373 -0
49 373 -0
50 373 -0
51 373 -0
52 373 -0
53 373 -0
54 373 -0
55 373 -0
56 373 -0
57 373 -0
58 373 -0
59 373 -0
60 373 -0
121 373 0.99716157836265906
122 373 0
123 373 0
124 373 0
125 373 0
126 373 0
127 373 0
128 373 0
129 373 0
130 373 0
131 373 0
132 373 0
133 373 0
134 373 0
135 373 0
136 373 0
137 373 0
138 373 0
139 373 0
140 373 0
141 373 0
142 373 0
143 373 0
144 373 0
145 373 0
146 373 0
147 373 0
148 373 0
149 373 0
150 373 0
151 373 0
152 373 0
153 373 0
154 373 0
155 373 0
156 373 0
157 373 0
158 373 0
159 373 0
160 373 0
161 373 0
162 373 0
163 373 0
164 373 0
165 373 0
166 373 0
167 373 0
168 373 0
169 373 0
170 373 0
171 373 0
172 373 0
173 373 0
174 373 0
175 373 0
176 373 0
177 373 0
178 373 0
179 373 0
180 373 0
1 374 -0
2 374 -0
3 374 -0
4 374 -0
5 374 -0
6 374 -0
7 374 -0
8 374 -0
9 374 -0
10 374 -0
11 374 -0
12 374 -0
13 374 -0
14 374 -0
15 374 -0
16 374 -0
17 374 -0
18 374 -0
19 374 -0
20 374 -0
21 374 -0
22 374 -0
23 374 -0
24 374 -0
25 374 -0
26 374 -0
27 374 -0
28 374 -0
29 374 -0
30 374 -0
31 374 -0
32 374 -0
33 374 -0
34 374 -0
35 374 -0
36 374 -0
37 374 -0.9652674876885331
38 374 -0
39 374 -0
40 374 -0
41 374 -0
42 374 -0
43 374 -0
44 374 -0
45 374 -0
46 374 -0
47 374 -0
48 374 -0
49 374 -0
50 374 -0
51 374 -0
52 374 -0
53 374 -0
54 374 -0
55 374 -0
56 374 -0
57 374 -0
58 374 -0
59 374 -0
60 374 -0
121 374 0
122 374 0.99716157836265906
123 374 0
124 374 0
125 374 0
126 374 0
127 374 0
128 374 0
129 374 0
130 374 0
131 374 0
132 374 0
133 374 0
134 374 0
135 374 0
136 374 0
137 374 0
138 374 0
139 374 0
140 374 0
141 374 0
142 374 0
143 374 0
144 374 0
145 374 0
146 374 0
147 374 0
148 374 0
149 374 0
150 374 0
151 374 0
152 374 0
153 374 0
154 374 0
155 374 0
156 374 0
157 374 0
158 374 0
159 374 0
160 374 0
161 374 0
162 374 0
163 374 0
164 374 0
165 374 0
166 374 0
167 374 0
168 374 0
169 374 0
170 374 0
171 374 0
172 374 0
173 374 0
174 374 0
175 374 0
176 374 0
177 374 0
178 374 0
179 374 0
180 374 0
1 375 -0
2 375 -0
3 375 -0
4 375 -0
5 375 -0
6 375 -0
7 375 -0
8 375 -0
9 375 -0
10 375 -0
11 375 -0
12 375 -0
13 375 -0
14 375 -0
15 375 -0
16 375 -0
17 375 -0
18 375 -0
19 375 -0
20 375 -0
21 375 -0
22 375 -0
23 375 -0
24 375 -0
25 375 -0
26 375 -0
27 375 -0
28 375 -0
29 375 -0
30 375 -0
31 375 -0
32 375 -0
33 375 -0
34 375 -0
35 375 -0
36 375 -0
37 375 -0
38 375 -0.9652674876885331
39 375 -0
40 375 -0
41 375 -0
42 375 -0
43 375 -0
44 375 -0
45 375 -0
46 375 -0
47 375 -0
48 375 -0
49 375 -0
50 375 -0
51 375 -0
52 375 -0
53 375 -0
54 375 -0
55 375 -0
56 375 -0
57 375 -0
58 375 -0
59 375 -0
60 375 -0
121 375 0
122 375 0
123 375 0.99716157836265906
124 375 0
125 375 0
126 375 0
127 375 0
128 375 0
129 375 0
130 375 0
131 375 0
132 375 0
133 375 0
134 375 0
135 375 0
136 375 0
137 375 0
138 375 0
139 375 0
140 375 0
141 375 0
142 375 0
143 375 0
144 375 0
145 375 0
146 375 0
147 375 0
148 375 0
149 375 0
150 375 0
151 375 0
152 375 0
153 375 0
154 375 0
155 375 0
156 375 0
157 375 0
158 375 0
159 375 0
160 375 0
161 375 0
162 375 0
163 375 0
164 375 0
165 375 0
166 375 0
167 375 0
168 375 0
169 375 0
170 375 0
171 375 0
172 375 0
173 375 0
174 375 0
175 375 0
176 375 0
177 375 0
178 375 0
179 375 0
180 375 0
1 376 -0
2 376 -0
3 376 -0
4 376 -0
5 376 -0
6 376 -0
7 376 -0
8 376 -0
9 376 -0
10 376 -0
11 376 -0
12 376 -0
13 376 -0
14 376 -0
15 376 -0
16 376 -0
17 376 -0
18 376 -0
19 376 -0
20 376 -0
21 376 -0
22 376 -0
23 376 -0
24 376 -0
25 376 -0
26 376 -0
27 376 -0
28 376 -0
29 376 -0
30 376 -0
31 376 -0
32 376 -0
33 376 -0
34 376 -0
35 376 -0
36 376 -0
37 376 -0
38 376 -0
39 376 -0.9652674876885331
40 376 -0
41 376 -0
42 376 -0
43 376 -0
44 376 -0
45 376 -0
46 376 -0
47 376 -0
48 376 -0
49 376 -0
50 376 -0
51 376 -0
52 376 -0
53 376 -0
54 376 -0
55 376 -0
56 376 -0
57 376 -0
58 376 -0
59 376 -0
60 376 -0
121 376 0
122 376 0
123 376 0
124 376 0.99716157836265906
125 376 0
126 376 0
127 376 0
128 376 0
129 376 0
130 376 0
131 376 0
132 376 0
133 376 0
134 376 0
135 376 0
136 376 0
137 376 0
138 376 0
139 376 0
140 376 0
141 376 0
142 376 0
143 376 0
144 376 0
145 376 0
146 376 0
147 376 0
148 376 0
149 376 0
150 376 0
151 376 0
152 376 0
153 376 0
154 376 0
155 376 0
156 376 0
157 376 0
158 376 0
159 376 0
160 376 0
161 376 0
162 376 0
163 376 0
164 376 0
165 376 0
166 376 0
167 376 0
168 376 0
169 376 0
170 376 0
171 376 0
172 376 0
173 376 0
174 376 0
175 376 0
176 376 0
177 376 0
178 376 0
179 376 0
180 376 0
1 377 -0
2 377 -0
3 377 -0
4 377 -0
5 377 -0
6 377 -0
7 377 -0
8 377 -0
9 377 -0
10 377 -0
11 377 -0
12 377 -0
13 377 -0
14 377 -0
15 377 -0
16 377 -0
17 377 -0
18 377 -0
19 377 -0
20 377 -0
21 377 -0
22 377 -0
23 377 -0
24 377 -0
25 377 -0
26 377 -0
27 377 -0
28 377 -0
29 377 -0
30 377 -0
31 377 -0
32 377 -0
33 377 -0
34 377 -0
35 377 -0
36 377 -0
37 377 -0
38 377 -0
39 377 -0
40 377 -0.9652674876885331
41 377 -0
42 377 -0
43 377 -0
44 377 -0
45 377 -0
46 377 -0
47 377 -0
48 377 -0
49 377 -0
50 377 -0
51 377 -0
52 377 -0
53 377 -0
54 377 -0
55 377 -0
56 377 -0
57 377 -0
58 377 -0
59 377 -0
60 377 -0
121 377 0
122 377 0
123 377 0
124 377 0
125 377 0.99716157836265906
126 377 0
127 377 0
128 377 0
129 377 0
130 377 0
131 377 0
132 377 0
133 377 0
134 377 0
135 377 0
136 377 0
137 377 0
138 377 0
139 377 0
140 377 0
141 377 0
142 377 0
143 377 0
144 377 0
145 377 0
146 377 0
147 377 0
148 377 0
149 377 0
150 377 0
151 377 0
152 377 0
153 377 0
154 377 0
155 377 0
156 377 0
157 377 0
158 377 0
159 377 0
160 377 0
161 377 0
162 377 0
163 377 0
164 377 0
165 377 0
166 377 0
167 377 0
168 377 0
169 377 0
170 377 0
171 377 0
172 377 0
173 377 0
174 377 0
175 377 0
176 377 0
177 377 0
178 377 0
179 377 0
180 377 0
1 378 -0
2 378 -0
3 378 -0
4 378 -0
5 378 -0
6 378 -0
7 378 -0
8 378 -0
9 378 -0
10 378 -0
11 378 -0
12 378 -0
13 378 -0
14 378 -0
15 378 -0
16 378 -0
17 378 -0
18 378 -0
19 378 -0
20 378 -0
21 378 -0
22 378 -0
23 378 -0
24 378 -0
25 378 -0
26 378 -0
27 378 -0
28 378 -0
29 378 -0
30 378 -0
31 378 -0
32 378 -0
33 378 -0
34 378 -0
35 378 -0
36 378 -0
37 378 -0
38 378 -0
39 378 -0
40 378 -0
41 378 -0
42 378 -0
43 378 -0
44 378 -0
45 378 -0
46 378 -0
47 378 -0
48 378 -0
49 378 -0
50 378 -0
51 378 -0
52 378 -0
53 378 -0
54 378 -0
55 378 -0
56 378 -0
57 378 -0
58 378 -0
59 378 -0
60 378 -0
121 378 0
122 378 0
123 378 0
124 378 0
125 378 0
126 378 0.99716157836265906
127 378 0
128 378 0
129 378 0
130 378 0
131 378 0
132 378 0
133 378 0
134 378 0
135 378 0
136 378 0
137 378 0
138 378 0
139 378 0
140 378 0
141 378 0
142 378 0
143 378 0
144 378 0
145 378 0
146 378 0
147 378 0
148 378 0
149 378 0
150 378 0
151 378 0
152 378 0
153 378 0
154 378 0
155 378 0
156 378 0
157 378 0
158 378 0
159 378 0
160 378 0
161 378 0
162 378 0
163 378 0
164 378 0
165 378 0
166 378 0
167 378 0
168 378 0
169 378 0
170 378 0
171 378 0
172 378 0
173 378 0
174 378 0
175 378 0
176 378 0
177 378 0
178 378 0
179 378 0
180 378 0
1 379 -0
2 379 -0
3 379 -0
4 379 -0
5 379 -0
6 379 -0
7 379 -0
8 379 -0
9 379 -0
10 379 -0
11 379 -0
12 379 -0
13 379 -0
14 379 -0
15 379 -0
16 379 -0
17 379 -0
18 379 -0
19 379 -0
20 379 -0
21 379 -0
22 379 -0
23 379 -0
24 379 -0
25 379 -0
26 379 -0
27 379 -0
28 379 -0
29 379 -0
30 379 -0
31 379 -0
32 379 -0
33 379 -0
34 379 -0
35 379 -0
36 379 -0
37 379 -0
38 379 -0
39 379 -0
40 379 -0
41 379 -0
42 379 -0
43 379 -0
44 379 -0
45 379 -0
46 379 -0
47 379 -0
48 379 -0
49 379 -0
50 379 -0
51 379 -0
52 379 -0
53 379 -0
54 379 -0
55 379 -0
56 379 -0
57 379 -0
58 379 -0
59 379 -0
60 379 -0
121 379 0
122 379 0
123 379 0
124 379 0
125 379 0
126 379 0
127 379 0.99716157836265906
128 379 0
129 379 0
130 379 0
131 379 0
132 379 0
133 379 0
134 379 0
135 379 0
136 379 0
137 379 0
138 379 0
139 379 0
140 379 0
141 379 0
142 379 0
143 379 0
144 379 0
145 379 0
146 379 0
147 379 0
148 379 0
149 379 0
150 379 0
151 379 0
152 379 0
153 379 0
154 379 0
155 379 0
156 379 0
157 379 0
158 379 0
159 379 0
160 379 0
161 379 0
162 379 0
163 379 0
164 379 0
165 379 0
166 379 0
167 379 0
168 379 0
169 379 0
170 379 0
171 379 0
172 379 0
173 379 0
174 379 0
175 379 0
176 379 0
177 379 0
178 379 0
179 379 0
180 379 0
1 380 -0
2 380 -0
3 380 -0
4 380 -0
5 380 -0
6 380 -0
7 380 -0
8 380 -0
9 380 -0
10 380 -0
11 380 -0
12 380 -0
13 380 -0
14 380 -0
15 380 -0
16 380 -0
17 380 -0
18 380 -0
19 380 -0
20 380 -0
21 380 -0
22 380 -0
23 380 -0
24 380 -0
25 380 -0
26 380 -0
27 380 -0
28 380 -0
29 380 -0
30 380 -0
31 380 -0
32 380 -0
33 380 -0
34 380 -0
35 380 -0
36 380 -0
37 380 -0
38 380 -0
39 380 -0
40 380 -0
41 380 -0
42 380 -0
43 380 -0
44 380 -0
45 380 -0
46 380 -0
47 380 -0
48 380 -0
49 380 -0
50 380 -0
51 380 -0
52 380 -0
53 380 -0
54 380 -0
55 380 -0
56 380 -0
57 380 -0
58 380 -0
59 380 -0
60 380 -0
121 380 0
122 380 0
123 380 0
124 380 0
125 380 0
126 380 0
127 380 0
128 380 0.99716157836265906
129 380 0
130 380 0
131 380 0
132 380 0
133 380 0
134 380 0
135 380 0
136 380 0
137 380 0
138 380 0
139 380 0
140 380 0
141 380 0
142 380 0
143 380 0
144 380 0
145 380 0
146 380 0
147 380 0
148 380 0
149 380 0
150 380 0
151 380 0
152 380 0
153 380 0
154 380 0
155 380 0
156 380 0
157 380 0
158 380 0
159 380 0
160 380 0
161 380 0
162 380 0
163 380 0
164 380 0
165 380 0
166 380 0
167 380 0
168 380 0
169 380 0
170 380 0
171 380 0
172 380 0
173 380 0
174 380 0
175 380 0
176 380 0
177 380 0
178 380 0
179 380 0
180 380 0
1 381 -0
2 381 -0
3 381 -0
4 381 -0
5 381 -0
6 381 -0
7 381 -0
8 381 -0
9 381 -0
10 381 -0
11 381 -0
12 381 -0
13 381 -0
14 381 -0
15 381 -0
16 381 -0
17 381 -0
18 381 -0
19 381 -0
20 381 -0
21 381 -0
22 381 -0
23 381 -0
24 381 -0
25 381 -0
26 381 -0
27 381 -0
28 381 -0
29 381 -0
30 381 -0
31 381 -0
32 381 -0
33 381 -0
34 381 -0
35 381 -0
36 381 -0
37 381 -0
38 381 -0
39 381 -0
40 381 -0
41 381 -0
42 381 -0
43 381 -0
44 381 -0
45 381 -0
46 381 -0
47 381 -0
48 381 -0
49 381 -0
50 381 -0
51 381 -0
52 381 -0
53 381 -0
54 381 -0
55 381 -0
56 381 -0
57 381 -0
58 381 -0
59 381 -0
60 381 -0
121 381 0
122 381 0
123 381 0
124 381 0
125 381 0
126 381 0
127 381 0
128 381 0
129 381 0.99716157836265906
130 381 0
131 381 0
132 381 0
133 381 0
134 381 0
135 381 0
136 381 0
137 381 0
138 381 0
139 381 0
140 381 0
141 381 0
142 381 0
143 381 0
144 381 0
145 381 0
146 381 0
147 381 0
148 381 0
149 381 0
150 381 0
151 381 0
152 381 0
153 381 0
154 381 0
155 381 0
156 381 0
157 381 0
158 381 0
159 381 0
160 381 0
161 381 0
162 381 0
163 381 0
164 381 0
165 381 0
166 381 0
167 381 0
168 381 0
169 381 0
170 381 0
171 381 0
172 381 0
173 381 0
174 381 0
175 381 0
176 381 0
177 381 0
178 381 0
179 381 0
180 381 0
1 382 -0
2 382 -0
3 382 -0
4 382 -0
5 382 -0
6 382 -0
7 382 -0
8 382 -0
9 382 -0
10 382 -0
11 382 -0
12 382 -0
13 382 -0
14 382 -0
15 382 -0
16 382 -0
17 382 -0
18 382 -0
19 382 -0
20 382 -0
21 382 -0
22 382 -0
23 382 -0
24 382 -0
25 382 -0
26 382 -0
27 382 -0
28 382 -0
29 382 -0
30 382 -0
31 382 -0
32 382 -0
33 382 -0
34 382 -0
35 382 -0
36 382 -0
37 382 -0
38 382 -0
39 382 -0
40 382 -0
41 382 -0
42 382 -0
43 382 -0
44 382 -0
45 382 -0
46 382 -0
47 382 -0
48 382 -0
49 382 -0
50 382 -0
51 382 -0
52 382 -0
53 382 -0
54 382 -0
55 382 -0
56 382 -0
57 382 -0
58 382 -0
59 382 -0
60 382 -0
121 382 0
122 382 0
123 382 0
124 382 0
125 382 0
126 382 0
127 382 0
128 382 0
129 382 0
130 382 0.99716157836265906
131 382 0
132 382 0
133 382 0
134 382 0
135 382 0
136 382 0
137 382 0
138 382 0
139 382 0
140 382 0
141 382 0
142 382 0
143 382 0
144 382 0
145 382 0
146 382 0
147 382 0
148 382 0
149 382 0
150 382 0
151 382 0
152 382 0
153 382 0
154 382 0
155 382 0
156 382 0
157 382 0
158 382 0
159 382 0
160 382 0
161 382 0
162 382 0
163 382 0
164 382 0
165 382 0
166 382 0
167 382 0
168 382 0
169 382 0
170 382 0
171 382 0
172 382 0
173 382 0
174 382 0
175 382 0
176 382 0
177 382 0
178 382 0
179 382 0
180 382 0
1 383 -0
2 383 -0
3 383 -0
4 383 -0
5 383 -0
6 383 -0
7 383 -0
8 383 -0
9 383 -0
10 383 -0
11 383 -0
12 383 -0
13 383 -0
14 383 -0
15 383 -0
16 383 -0
17 383 -0
18 383 -0
19 383 -0
20 383 -0
21 383 -0
22 383 -0
23 383 -0
24 383 -0
25 383 -0
26 383 -0
27 383 -0
28 383 -0
29 383 -0
30 383 -0
31 383 -0
32 383 -0
33 383 -0
34 383 -0
35 383 -0
36 383 -0
37 383 -0
38 383 -0
39 383 -0
40 383 -0
41 383 -0
42 383 -0
43 383 -0
44 383 -0
45 383 -0
46 383 -0
47 383 -0
48 383 -0
49 383 -0
50 383 -0
51 383 -0
52 383 -0
53 383 -0
54 383 -0
55 383 -0
56 383 -0
57 383 -0
58 383 -0
59 383 -0
60 383 -0
121 383 0
122 383 0
123 383 0
124 383 0
125 383 0
126 383 0
127 383 0
128 383 0
129 383 0
130 383 0
131 383 0.99716157836265906
132 383 0
133 383 0
134 383 0
135 383 0
136 383 0
137 383 0
138 383 0
139 383 0
140 383 0
141 383 0
142 383 0
143 383 0
144 383 0
145 383 0
146 383 0
147 383 0
148 383 0
149 383 0
150 383 0
151 383 0
152 383 0
153 383 0
154 383 0
155 383 0
156 383 0
157 383 0
158 383 0
159 383 0
160 383 0
161 383 0
162 383 0
163 383 0
164 383 0
165 383 0
166 383 0
167 383 0
168 383 0
169 383 0
170 383 0
171 383 0
172 383 0
173 383 0
174 383 0
175 383 0
176 383 0
177 383 0
178 383 0
179 383 0
180 383 0
1 384 -0
2 384 -0
3 384 -0
4 384 -0
5 384 -0
6 384 -0
7 384 -0
8 384 -0
9 384 -0
10 384 -0
11 384 -0
12 384 -0
13 384 -0
14 384 -0
15 384 -0
16 384 -0
17 384 -0
18 384 -0
19 384 -0
20 384 -0
21 384 -0
22 384 -0
23 384 -0
24 384 -0
25 384 -0
26 384 -0
27 384 -0
28 384 -0
29 384 -0
30 384 -0
31 384 -0
32 384 -0
33 384 -0
34 384 -0
35 384 -0
36 384 -0
37 384 -0
38 384 -0
39 384 -0
40 384 -0
41 384 -0
42 384 -0
43 384 -0
44 384 -0
45 384 -0
46 384 -0
47 384 -0
48 384 -0
49 384 -0
50 384 -0
51 384 -0
52 384 -0
53 384 -0
54 384 -0
55 384 -0
56 384 -0
57 384 -0
58 384 -0
59 384 -0
60 384 -0
121 384 0
122 384 0
123 384 0
124 384 0
125 384 0
126 384 0
127 384 0
128 384 0
129 384 0
130 384 0
131 384 0
132 384 0.99716157836265906
133 384 0
134 384 0
135 384 0
136 384 0
137 384 0
138 384 0
139 384 0
140 384 0
141 384 0
142 384 0
143 384 0
144 384 0
145 384 0
146 384 0
147 384 0
148 384 0
149 384 0
150 384 0
151 384 0
152 384 0
153 384 0
154 384 0
155 384 0
156 384 0
157 384 0
158 384 0
159 384 0
160 384 0
161 384 0
162 384 0
163 384 0
164 384 0
165 384 0
166 384 0
167 384 0
168 384 0
169 384 0
170 384 0
171 384 0
172 384 0
173 384 0
174 384 0
175 384 0
176 384 0
177 384 0
178 384 0
179 384 0
180 384 0
1 385 -0
2 385 -0
3 385 -0
4 385 -0
5 385 -0
6 385 -0
7 385 -0
8 385 -0
9 385 -0
10 385 -0
11 385 -0
12 385 -0
13 385 -0
14 385 -0
15 385 -0
16 385 -0
17 385 -0
18 385 -0
19 385 -0
20 385 -0
21 385 -0
22 385 -0
23 385 -0
24 385 -0
25 385 -0
26 385 -0
27 385 -0
28 385 -0
29 385 -0
30 385 -0
31 385 -0
32 385 -0
33 385 -0
34 385 -0
35 385 -0
36 385 -0
37 385 -0
38 385 -0
39 385 -0
40 385 -0
41 385 -0.9652674876885331
42 385 -0
43 385 -0
44 385 -0
45 385 -0
46 385 -0
47 385 -0
48 385 -0
49 385 -0
50 385 -0
51 385 -0
52 385 -0
53 385 -0
54 385 -0
55 385 -0
56 385 -0
57 385 -0
58 385 -0
59 385 -0
60 385 -0
121 385 0
122 385 0
123 385 0
124 385 0
125 385 0
126 385 0
127 385 0
128 385 0
129 385 0
130 385 0
131 385 0
132 385 0
133 385 0.99716157836265906
134 385 0
135 385 0
136 385 0
137 385 0
138 385 0
139 385 0
140 385 0
141 385 0
142 385 0
143 385 0
144 385 0
145 385 0
146 385 0
147 385 0
148 385 0
149 385 0
150 385 0
151 385 0
152 385 0
153 385 0
154 385 0
155 385 0
156 385 0
157 385 0
158 385 0
159 385 0
160 385 0
161 385 0
162 385 0
163 385 0
164 385 0
165 385 0
166 385 0
167 385 0
168 385 0
169 385 0
170 385 0
171 385 0
172 385 0
173 385 0
174 385 0
175 385 0
176 385 0
177 385 0
178 385 0
179 385 0
180 385 0
1 386 -0
2 386 -0
3 386 -0
4 386 -0
5 386 -0
6 386 -0
7 386 -0
8 386 -0
9 386 -0
10 386 -0
11 386 -0
12 386 -0
13 386 -0
14 386 -0
15 386 -0
16 386 -0
17 386 -0
18 386 -0
19 386 -0
20 386 -0
21 386 -0
22 386 -0
23 386 -0
24 386 -0
25 386 -0
26 386 -0
27 386 -0
28 386 -0
29 386 -0
30 386 -0
31 386 -0
32 386 -0
33 386 -0
34 386 -0
35 386 -0
36 386 -0
37 386 -0
38 386 -0
39 386 -0
40 386 -0
41 386 -0
42 386 -0.9652674876885331
43 386 -0
44 386 -0
45 386 -0
46 386 -0
47 386 -0
48 386 -0
49 386 -0
50 386 -0
51 386 -0
52 386 -0
53 386 -0
54 386 -0
55 386 -0
56 386 -0
57 386 -0
58 386 -0
59 386 -0
60 386 -0
121 386 0
122 386 0
123 386 0
124 386 0
125 386 0
126 386 0
127 386 0
128 386 0
129 386 0
130 386 0
131 386 0
132 386 0
133 386 0
134 386 0.99716157836265906
135 386 0
136 386 0
137 386 0
138 386 0
139 386 0
140 386 0
141 386 0
142 386 0
143 386 0
144 386 0
145 386 0
146 386 0
147 386 0
148 386 0
149 386 0
150 386 0
151 386 0
152 386 0
153 386 0
154 386 0
155 386 0
156 386 0
157 386 0
158 386 0
159 386 0
160 386 0
161 386 0
162 386 0
163 386 0
164 386 0
165 386 0
166 386 0
167 386 0
168 386 0
169 386 0
170 386 0
171 386 0
172 386 0
173 386 0
174 386 0
175 386 0
176 386 0
177 386 0
178 386 0
179 386 0
180 386 0
1 387 -0
2 387 -0
3 387 -0
4 387 -0
5 387 -0
6 387 -0
7 387 -0
8 387 -0
9 387 -0
10 387 -0
11 387 -0
12 387 -0
13 387 -0
14 387 -0
15 387 -0
16 387 -0
17 387 -0
18 387 -0
19 387 -0
20 387 -0
21 387 -0
22 387 -0
23 387 -0
24 387 -0
25 387 -0
26 387 -0
27 387 -0
28 387 -0
29 387 -0
30 387 -0
31 387 -0
32 387 -0
33 387 -0
34 387 -0
35 387 -0
36 387 -0
37 387 -0
38 387 -0
39 387 -0
40 387 -0
41 387 -0
42 387 -0
43 387 -0.9652674876885331
44 387 -0
45 387 -0
46 387 -0
47 387 -0
48 387 -0
49 387 -0
50 387 -0
51 387 -0
52 387 -0
53 387 -0
54 387 -0
55 387 -0
56 387 -0
57 387 -0
58 387 -0
59 387 -0
60 387 -0
121 387 0
122 387 0
123 387 0
124 387 0
125 387 0
126 387 0
127 387 0
128 387 0
129 387 0
130 387 0
131 387 0
132 387 0
133 387 0
134 387 0
135 387 0.99716157836265906
136 387 0
137 387 0
138 387 0
139 387 0
140 387 0
141 387 0
142 387 0
143 387 0
144 387 0
145 387 0
146 387 0
147 387 0
148 387 0
149 387 0
150 387 0
151 387 0
152 387 0
153 387 0
154 387 0
155 387 0
156 387 0
157 387 0
158 387 0
159 387 0
160 387 0
161 387 0
162 387 0
163 387 0
164 387 0
165 387 0
166 387 0
167 387 0
168 387 0
169 387 0
170 387 0
171 387 0
172 387 0
173 387 0
174 387 0
175 387 0
176 387 0
177 387 0
178 387 0
179 387 0
180 387 0
1 388 -0
2 388 -0
3 388 -0
4 388 -0
5 388 -0
6 388 -0
7 388 -0
8 388 -0
9 388 -0
10 388 -0
11 388 -0
12 388 -0
13 388 -0
14 388 -0
15 388 -0
16 388 -0
17 388 -0
18 388 -0
19 388 -0
20 388 -0
21 388 -0
22 388 -0
23 388 -0
24 388 -0
25 388 -0
26 388 -0
27 388 -0
28 388 -0
29 388 -0
30 388 -0
31 388 -0
32 388 -0
33 388 -0
34 388 -0
35 388 -0
36 388 -0
37 388 -0
38 388 -0
39 388 -0
40 388 -0
41 388 -0
42 388 -0
43 388 -0
44 388 -0.9652674876885331
45 388 -0
46 388 -0
47 388 -0
48 388 -0
49 388 -0
50 388 -0
51 388 -0
52 388 -0
53 388 -0
54 388 -0
55 388 -0
56 388 -0
57 388 -0
58 388 -0
59 388 -0
60 388 -0
121 388 0
122 388 0
123 388 0
124 388 0
125 388 0
126 388 0
127 388 0
128 388 0
129 388 0
130 388 0
131 388 0
132 388 0
133 388 0
134 388 0
135 388 0
136 388 0.99716157836265906
137 388 0
138 388 0
139 388 0
140 388 0
141 388 0
142 388 0
143 388 0
144 388 0
145 388 0
146 388 0
147 388 0
148 388 0
149 388 0
150 388 0
151 388 0
152 388 0
153 388 0
154 388 0
155 388 0
156 388 0
157 388 0
158 388 0
159 388 0
160 388 0
161 388 0
162 388 0
163 388 0
164 388 0
165 388 0
166 388 0
167 388 0
168 388 0
169 388 0
170 388 0
171 388 0
172 388 0
173 388 0
174 388 0
175 388 0
176 388 0
177 388 0
178 388 0
179 388 0
180 388 0
1 389 -0
2 389 -0
3 389 -0
4 389 -0
5 389 -0
6 389 -0
7 389 -0
8 389 -0
9 389 -0
10 389 -0
11 389 -0
12 389 -0
13 389 -0
14 389 -0
15 389 -0
16 389 -0
17 389 -0
18 389 -0
19 389 -0
20 389 -0
21 389 -0
22 389 -0
23 389 -0
24 389 -0
25 389 -0
26 389 -0
27 389 -0
28 389 -0
29 389 -0
30 389 -0
31 389 -0
32 389 -0
33 389 -0
34 389 -0
35 389 -0
36 389 -0
37 389 -0
38 389 -0
39 389 -0
40 389 -0
41 389 -0
42 389 -0
43 389 -0
44 389 -0
45 389 -0.9652674876885331
46 389 -0
47 389 -0
48 389 -0
49 389 -0
50 389 -0
51 389 -0
52 389 -0
53 389 -0
54 389 -0
55 389 -0
56 389 -0
57 389 -0
58 389 -0
59 389 -0
60 389 -0
121 389 0
122 389 0
123 389 0
124 389 0
125 389 0
126 389 0
127 389 0
128 389 0
129 389 0
130 389 0
131 389 0
132 389 0
133 389 0
134 389 0
135 389 0
136 389 0
137 389 0.99716157836265906
138 389 0
139 389 0
140 389 0
141 389 0
142 389 0
143 389 0
144 389 0
145 389 0
146 389 0
147 389 0
148 389 0
149 389 0
150 389 0
151 389 0
152 389 0
153 389 0
154 389 0
155 389 0
156 389 0
157 389 0
158 389 0
159 389 0
160 389 0
161 389 0
162 389 0
163 389 0
164 389 0
165 389 0
166 389 0
167 389 0
168 389 0
169 389 0
170 389 0
171 389 0
172 389 0
173 389 0
174 389 0
175 389 0
176 389 0
177 389 0
178 389 0
179 389 0
180 389 0
1 390 -0
2 390 -0
3 390 -0
4 390 -0
5 390 -0
6 390 -0
7 390 -0
8 390 -0
9 390 -0
10 390 -0
11 390 -0
12 390 -0
13 390 -0
14 390 -0
15 390 -0
16 390 -0
17 390 -0
18 390 -0
19 390 -0
20 390 -0
21 390 -0
22 390 -0
23 390 -0
24 390 -0
25 390 -0
26 390 -0
27 390 -0
28 390 -0
29 390 -0
30 390 -0
31 390 -0
32 390 -0
33 390 -0
34 390 -0
35 390 -0
36 390 -0
37 390 -0
38 390 -0
39 390 -0
40 390 -0
41 390 -0
42 390 -0
43 390 -0
44 390 -0
45 390 -0
46 390 -0
47 390 -0
48 390 -0
49 390 -0
50 390 -0
51 390 -0
52 390 -0
53 390 -0
54 390 -0
55 390 -0
56 390 -0
57 390 -0
58 390 -0
59 390 -0
60 390 -0
121 390 0
122 390 0
123 390 0
124 390 0
125 390 0
126 390 0
127 390 0
128 390 0
129 390 0
130 390 0
131 390 0
132 390 0
133 390 0
134 390 0
135 390 0
136 390 0
137 390 0
138 390 0.99716157836265906
139 390 0
140 390 0
141 390 0
142 390 0
143 390 0
144 390 0
145 390 0
146 390 0
147 390 0
148 390 0
149 390 0
150 390 0
151 390 0
152 390 0
153 390 0
154 390 0
155 390 0
156 390 0
157 390 0
158 390 0
159 390 0
160 390 0
161 390 0
162 390 0
163 390 0
164 390 0
165 390 0
166 390 0
167 390 0
168 390 0
169 390 0
170 390 0
171 390 0
172 390 0
173 390 0
174 390 0
175 390 0
176 390 0
177 390 0
178 390 0
179 390 0
180 390 0
1 391 -0
2 391 -0
3 391 -0
4 391 -0
5 391 -0
6 391 -0
7 391 -0
8 391 -0
9 391 -0
10 391 -0
11 391 -0
12 391 -0
13 391 -0
14 391 -0
15 391 -0
16 391 -0
17 391 -0
18 391 -0
19 391 -0
20 391 -0
21 391 -0
22 391 -0
23 391 -0
24 391 -0
25 391 -0
26 391 -0
27 391 -0
28 391 -0
29 391 -0
30 391 -0
31 391 -0
32 391 -0
33 391 -0
34 391 -0
35 391 -0
36 391 -0
37 391 -0
38 391 -0
39 391 -0
40 391 -0
41 391 -0
42 391 -0
43 391 -0
44 391 -0
45 391 -0
46 391 -0
47 391 -0
48 391 -0
49 391 -0
50 391 -0
51 391 -0
52 391 -0
53 391 -0
54 391 -0
55 391 -0
56 391 -0
57 391 -0
58 391 -0
59 391 -0
60 391 -0
121 391 0
122 391 0
123 391 0
124 391 0
125 391 0
126 391 0
127 391 0
128 391 0
129 391 0
130 391 0
131 391 0
132 391 0
133 391 0
134 391 0
135 391 0
136 391 0
137 391 0
138 391 0
139 391 0.99716157836265906
140 391 0
141 391 0
142 391 0
143 391 0
144 391 0
145 391 0
146 391 0
147 391 0
148 391 0
149 391 0
150 391 0
151 391 0
152 391 0
153 391 0
154 391 0
155 391 0
156 391 0
157 391 0
158 391 0
159 391 0
160 391 0
161 391 0
162 391 0
163 391 0
164 391 0
165 391 0
166 391 0
167 391 0
168 391 0
169 391 0
170 391 0
171 391 0
172 391 0
173 391 0
174 391 0
175 391 0
176 391 0
177 391 0
178 391 0
179 391 0
180 391 0
1 392 -0
2 392 -0
3 392 -0
4 392 -0
5 392 -0
6 392 -0
7 392 -0
8 392 -0
9 392 -0
10 392 -0
11 392 -0
12 392 -0
13 392 -0
14 392 -0
15 392 -0
16 392 -0
17 392 -0
18 392 -0
19 392 -0
20 392 -0
21 392 -0
22 392 -0
23 392 -0
24 392 -0
25 392 -0
26 392 -0
27 392 -0
28 392 -0
29 392 -0
30 392 -0
31 392 -0
32 392 -0
33 392 -0
34 392 -0
35 392 -0
36 392 -0
37 392 -0
38 392 -0
39 392 -0
40 392 -0
41 392 -0
42 392 -0
43 392 -0
44 392 -0
45 392 -0
46 392 -0
47 392 -0
48 392 -0
49 392 -0
50 392 -0
51 392 -0
52 392 -0
53 392 -0
54 392 -0
55 392 -0
56 392 -0
57 392 -0
58 392 -0
59 392 -0
60 392 -0
121 392 0
122 392 0
123 392 0
124 392 0
125 392 0
126 392 0
127 392 0
128 392 0
129 392 0
130 392 0
131 392 0
132 392 0
133 392 0
134 392 0
135 392 0
136 392 0
137 392 0
138 392 0
139 392 0
140 392 0.99716157836265906
141 392 0
142 392 0
143 392 0
144 392 0
145 392 0
146 392 0
147 392 0
148 392 0
149 392 0
150 392 0
151 392 0
152 392 0
153 392 0
154 392 0
155 392 0
156 392 0
157 392 0
158 392 0
159 392 0
160 392 0
161 392 0
162 392 0
163 392 0
164 392 0
165 392 0
166 392 0
167 392 0
168 392 0
169 392 0
170 392 0
171 392 0
172 392 0
173 392 0
174 392 0
175 392 0
176 392 0
177 392 0
178 392 0
179 392 0
180 392 0
1 393 -0
2 393 -0
3 393 -0
4 393 -0
5 393 -0
6 393 -0
7 393 -0
8 393 -0
9 393 -0
10 393 -0
11 393 -0
12 393 -0
13 393 -0
14 393 -0
15 393 -0
16 393 -0
17 393 -0
18 393 -0
19 393 -0
20 393 -0
21 393 -0
22 393 -0
23 393 -0
24 393 -0
25 393 -0
26 393 -0
27 393 -0
28 393 -0
29 393 -0
30 393 -0
31 393 -0
32 393 -0
33 393 -0
34 393 -0
35 393 -0
36 393 -0
37 393 -0
38 393 -0
39 393 -0
40 393 -0
41 393 -0
42 393 -0
43 393 -0
44 393 -0
45 393 -0
46 393 -0
47 393 -0
48 393 -0
49 393 -0
50 393 -0
51 393 -0
52 393 -0
53 393 -0
54 393 -0
55 393 -0
56 393 -0
57 393 -0
58 393 -0
59 393 -0
60 393 -0
121 393 0
122 393 0
123 393 0
124 393 0
125 393 0
126 393 0
127 393 0
128 393 0
129 393 0
130 393 0
131 393 0
132 393 0
133 393 0
134 393 0
135 393 0
136 393 0
137 393 0
138 393 0
139 393 0
140 393 0
141 393 0.99716157836265906
142 393 0
143 393 0
144 393 0
145 393 0
146 393 0
147 393 0
148 393 0
149 393 0
150 393 0
151 393 0
152 393 0
153 393 0
154 393 0
155 393 0
156 393 0
157 393 0
158 393 0
159 393 0
160 393 0
161 393 0
162 393 0
163 393 0
164 393 0
165 393 0
166 393 0
167 393 0
168 393 0
169 393 0
170 393 0
171 393 0
172 393 0
173 393 0
174 393 0
175 393 0
176 393 0
177 393 0
178 393 0
179 393 0
180 393 0
1 394 -0
2 394 -0
3 394 -0
4 394 -0
5 394 -0
6 394 -0
7 394 -0
8 394 -0
9 394 -0
10 394 -0
11 394 -0
12 394 -0
13 394 -0
14 394 -0
15 394 -0
16 394 -0
17 394 -0
18 394 -0
19 394 -0
20 394 -0
21 394 -0
22 394 -0
23 394 -0
24 394 -0
25 394 -0
26 394 -0
27 394 -0
28 394 -0
29 394 -0
30 394 -0
31 394 -0
32 394 -0
33 394 -0
34 394 -0
35 394 -0
36 394 -0
37 394 -0
38 394 -0
39 394 -0
40 394 -0
41 394 -0
42 394 -0
43 394 -0
44 394 -0
45 394 -0
46 394 -0
47 394 -0
48 394 -0
49 394 -0
50 394 -0
51 394 -0
52 394 -0
53 394 -0
54 394 -0
55 394 -0
56 394 -0
57 394 -0
58 394 -0
59 394 -0
60 394 -0
121 394 0
122 394 0
123 394 0
124 394 0
125 394 0
126 394 0
127 394 0
128 394 0
129 394 0
130 394 0
131 394 0
132 394 0
133 394 0
134 394 0
135 394 0
136 394 0
137 394 0
138 394 0
139 394 0
140 394 0
141 394 0
142 394 0.99716157836265906
143 394 0
144 394 0
145 394 0
146 394 0
147 394 0
148 394 0
149 394 0
150 394 0
151 394 0
152 394 0
153 394 0
154 394 0
155 394 0
156 394 0
157 394 0
158 394 0
159 394 0
160 394 0
161 394 0
162 394 0
163 394 0
164 394 0
165 394 0
166 394 0
167 394 0
168 394 0
169 394 0
170 394 0
171 394 0
172 394 0
173 394 0
174 394 0
175 394 0
176 394 0
177 394 0
178 394 0
179 394 0
180 394 0
1 395 -0
2 395 -0
3 395 -0
4 395 -0
5 395 -0
6 395 -0
7 395 -0
8 395 -0
9 395 -0
10 395 -0
11 395 -0
12 395 -0
13 395 -0
14 395 -0
15 395 -0
16 395 -0
17 395 -0
18 395 -0
19 395 -0
20 395 -0
21 395 -0
22 395 -0
23 395 -0
24 395 -0
25 395 -0
26 395 -0
27 395 -0
28 395 -0
29 395 -0
30 395 -0
31 395 -0
32 395 -0
33 395 -0
34 395 -0
35 395 -0
36 395 -0
37 395 -0
38 395 -0
39 395 -0
40 395 -0
41 395 -0
42 395 -0
43 395 -0
44 395 -0
45 395 -0
46 395 -0
47 395 -0
48 395 -0
49 395 -0
50 395 -0
51 395 -0
52 395 -0
53 395 -0
54 395 -0
55 395 -0
56 395 -0
57 395 -0
58 395 -0
59 395 -0
60 395 -0
121 395 0
122 395 0
123 395 0
124 395 0
125 395 0
126 395 0
127 395 0
128 395 0
129 395 0
130 395 0
131 395 0
132 395 0
133 395 0
134 395 0
135 395 0
136 395 0
137 395 0
138 395 0
139 395 0
140 395 0
141 395 0
142 395 0
143 395 0.99716157836265906
144 395 0
145 395 0
146 395 0
147 395 0
148 395 0
149 395 0
150 395 0
151 395 0
152 395 0
153 395 0
154 395 0
155 395 0
156 395 0
157 395 0
158 395 0
159 395 0
160 395 0
161 395 0
162 395 0
163 395 0
164 395 0
165 395 0
166 395 0
167 395 0
168 395 0
169 395 0
170 395 0
171 395 0
172 395 0
173 395 0
174 395 0
175 395 0
176 395 0
177 395 0
178 395 0
179 395 0
180 395 0
1 396 -0
2 396 -0
3 396 -0
4 396 -0
5 396 -0
6 396 -0
7 396 -0
8 396 -0
9 396 -0
10 396 -0
11 396 -0
12 396 -0
13 396 -0
14 396 -0
15 396 -0
16 396 -0
17 396 -0
18 396 -0
19 396 -0
20 396 -0
21 396 -0
22 396 -0
23 396 -0
24 396 -0
25 396 -0
26 396 -0
27 396 -0
28 396 -0
29 396 -0
30 396 -0
31 396 -0
32 396 -0
33 396 -0
34 396 -0
35 396 -0
36 396 -0
37 396 -0
38 396 -0
39 396 -0
40 396 -0
41 396 -0
42 396 -0
43 396 -0
44 396 -0
45 396 -0
46 396 -0
47 396 -0
48 396 -0
49 396 -0
50 396 -0
51 396 -0
52 396 -0
53 396 -0
54 396 -0
55 396 -0
56 396 -0
57 396 -0
58 396 -0
59 396 -0
60 396 -0
121 396 0
122 396 0
123 396 0
124 396 0
125 396 0
126 396 0
127 396 0
128 396 0
129 396 0
130 396 0
131 396 0
132 396 0
133 396 0
134 396 0
135 396 0
136 396 0
137 396 0
138 396 0
139 396 0
140 396 0
141 396 0
142 396 0
143 396 0
144 396 0.99716157836265906
145 396 0
146 396 0
147 396 0
148 396 0
149 396 0
150 396 0
151 396 0
152 396 0
153 396 0
154 396 0
155 396 0
156 396 0
157 396 0
158 396 0
159 396 0
160 396 0
161 396 0
162 396 0
163 396 0
164 396 0
165 396 0
166 396 0
167 396 0
168 396 0
169 396 0
170 396 0
171 396 0
172 396 0
173 396 0
174 396 0
175 396 0
176 396 0
177 396 0
178 396 0
179 396 0
180 396 0
1 397 -0
2 397 -0
3 397 -0
4 397 -0
5 397 -0
6 397 -0
7 397 -0
8 397 -0
9 397 -0
10 397 -0
11 397 -0
12 397 -0
13 397 -0
14 397 -0
15 397 -0
16 397 -0
17 397 -0
18 397 -0
19 397 -0
20 397 -0
21 397 -0
22 397 -0
23 397 -0
24 397 -0
25 397 -0
26 397 -0
27 397 -0
28 397 -0
29 397 -0
30 397 -0
31 397 -0
32 397 -0
33 397 -0
34 397 -0
35 397 -0
36 397 -0
37 397 -0
38 397 -0
39 397 -0
40 397 -0
41 397 -0
42 397 -0
43 397 -0
44 397 -0
45 397 -0
46 397 -0.9652674876885331
47 397 -0
48 397 -0
49 397 -0
50 397 -0
51 397 -0
52 397 -0
53 397 -0
54 397 -0
55 397 -0
56 397 -0
57 397 -0
58 397 -0
59 397 -0
60 397 -0
121 397 0
122 397 0
123 397 0
124 397 0
125 397 0
126 397 0
127 397 0
128 397 0
129 397 0
130 397 0
131 397 0
132 397 0
133 397 0
134 397 0
135 397 0
136 397 0
137 397 0
138 397 0
139 397 0
140 397 0
141 397 0
142 397 0
143 397 0
144 397 0
145 397 0.99716157836265906
146 397 0
147 397 0
148 397 0
149 397 0
150 397 0
151 397 0
152 397 0
153 397 0
154 397 0
155 397 0
156 397 0
157 397 0
158 397 0
159 397 0
160 397 0
161 397 0
162 397 0
163 397 0
164 397 0
165 397 0
166 397 0
167 397 0
168 397 0
169 397 0
170 397 0
171 397 0
172 397 0
173 397 0
174 397 0
175 397 0
176 397 0
177 397 0
178 397 0
179 397 0
180 397 0
1 398 -0
2 398 -0
3 398 -0
4 398 -0
5 398 -0
6 398 -0
7 398 -0
8 398 -0
9 398 -0
10 398 -0
11 398 -0
12 398 -0
13 398 -0
14 398 -0
15 398 -0
16 398 -0
17 398 -0
18 398 -0
19 398 -0
20 398 -0
21 398 -0
22 398 -0
23 398 -0
24 398 -0
25 398 -0
26 398 -0
27 398 -0
28 398 -0
29 398 -0
30 398 -0
31 398 -0
32 398 -0
33 398 -0
34 398 -0
35 398 -0
36 398 -0
37 398 -0
38 398 -0
39 398 -0
40 398 -0
41 398 -0
42 398 -0
43 398 -0
44 398 -0
45 398 -0
46 398 -0
47 398 -0.9652674876885331
48 398 -0
49 398 -0
50 398 -0
51 398 -0
52 398 -0
53 398 -0
54 398 -0
55 398 -0
56 398 -0
57 398 -0
58 398 -0
59 398 -0
60 398 -0
121 398 0
122 398 0
123 398 0
124 398 0
125 398 0
126 398 0
127 398 0
128 398 0
129 398 0
130 398 0
131 398 0
132 398 0
133 398 0
134 398 0
135 398 0
136 398 0
137 398 0
138 398 0
139 398 0
140 398 0
141 398 0
142 398 0
143 398 0
144 398 0
145 398 0
146 398 0.99716157836265906
147 398 0
148 398 0
149 398 0
150 398 0
151 398 0
152 398 0
153 398 0
154 398 0
155 398 0
156 398 0
157 398 0
158 398 0
159 398 0
160 398 0
161 398 0
162 398 0
163 398 0
164 398 0
165 398 0
166 398 0
167 398 0
168 398 0
169 398 0
170 398 0
171 398 0
172 398 0
173 398 0
174 398 0
175 398 0
176 398 0
177 398 0
178 398 0
179 398 0
180 398 0
1 399 -0
2 399 -0
3 399 -0
4 399 -0
5 399 -0
6 399 -0
7 399 -0
8 399 -0
9 399 -0
10 399 -0
11 399 -0
12 399 -0
13 399 -0
14 399 -0
15 399 -0
16 399 -0
17 399 -0
18 399 -0
19 399 -0
20 399 -0
21 399 -0
22 399 -0
23 399 -0
24 399 -0
25 399 -0
26 399 -0
27 399 -0
28 399 -0
29 399 -0
30 399 -0
31 399 -0
32 399 -0
33 399 -0
34 399 -0
35 399 -0
36 399 -0
37 399 -0
38 399 -0
39 399 -0
40 399 -0
41 399 -0
42 399 -0
43 399 -0
44 399 -0
45 399 -0
46 399 -0
47 399 -0
48 399 -0.9652674876885331
49 399 -0
50 399 -0
51 399 -0
52 399 -0
53 399 -0
54 399 -0
55 399 -0
56 399 -0
57 399 -0
58 399 -0
59 399 -0
60 399 -0
121 399 0
122 399 0
123 399 0
124 399 0
125 399 0
126 399 0
127 399 0
128 399 0
129 399 0
130 399 0
131 399 0
132 399 0
133 399 0
134 399 0
135 399 0
136 399 0
137 399 0
138 399 0
139 399 0
140 399 0
141 399 0
142 399 0
143 399 0
144 399 0
145 399 0
146 399 0
147 399 0.99716157836265906
148 399 0
149 399 0
150 399 0
151 399 0
152 399 0
153 399 0
154 399 0
155 399 0
156 399 0
157 399 0
158 399 0
159 399 0
160 399 0
161 399 0
162 399 0
163 399 0
164 399 0
165 399 0
166 399 0
167 399 0
168 399 0
169 399 0
170 399 0
171 399 0
172 399 0
173 399 0
174 399 0
175 399 0
176 399 0
177 399 0
178 399 0
179 399 0
180 399 0
1 400 -0
2 400 -0
3 400 -0
4 400 -0
5 400 -0
6 400 -0
7 400 -0
8 400 -0
9 400 -0
10 400 -0
11 400 -0
12 400 -0
13 400 -0
14 400 -0
15 400 -0
16 400 -0
17 400 -0
18 400 -0
19 400 -0
20 400 -0
21 400 -0
22 400 -0
23 400 -0
24 400 -0
25 400 -0
26 400 -0
27 400 -0
28 400 -0
29 400 -0
30 400 -0
31 400 -0
32 400 -0
33 400 -0
34 400 -0
35 400 -0
36 400 -0
37 400 -0
38 400 -0
39 400 -0
40 400 -0
41 400 -0
42 400 -0
43 400 -0
44 400 -0
45 400 -0
46 400 -0
47 400 -0
48 400 -0
49 400 -0.9652674876885331
50 400 -0
51 400 -0
52 400 -0
53 400 -0
54 400 -0
55 400 -0
56 400 -0
57 400 -0
58 400 -0
59 400 -0
60 400 -0
121 400 0
122 400 0
123 400 0
124 400 0
125 400 0
126 400 0
127 400 0
128 400 0
129 400 0
130 400 0
131 400 0
132 400 0
133 400 0
134 400 0
135 400 0
136 400 0
137 400 0
138 400 0
139 400 0
140 400 0
141 400 0
142 400 0
143 400 0
144 400 0
145 400 0
146 400 0
147 400 0
148 400 0.99716157836265906
149 400 0
150 400 0
151 400 0
152 400 0
153 400 0
154 400 0
155 400 0
156 400 0
157 400 0
158 400 0
159 400 0
160 400 0
161 400 0
162 400 0
163 400 0
164 400 0
165 400 0
166 400 0
167 400 0
168 400 0
169 400 0
170 400 0
171 400 0
172 400 0
173 400 0
174 400 0
175 400 0
176 400 0
177 400 0
178 400 0
179 400 0
180 400 0
1 401 -0
2 401 -0
3 401 -0
4 401 -0
5 401 -0
6 401 -0
7 401 -0
8 401 -0
9 401 -0
10 401 -0
11 401 -0
12 401 -0
13 401 -0
14 401 -0
15 401 -0
16 401 -0
17 401 -0
18 401 -0
19 401 -0
20 401 -0
21 401 -0
22 401 -0
23 401 -0
24 401 -0
25 401 -0
26 401 -0
27 401 -0
28 401 -0
29 401 -0
30 401 -0
31 401 -0
32 401 -0
33 401 -0
34 401 -0
35 401 -0
36 401 -0
37 401 -0
38 401 -0
39 401 -0
40 401 -0
41 401 -0
42 401 -0
43 401 -0
44 401 -0
45 401 -0
46 401 -0
47 401 -0
48 401 -0
49 401 -0
50 401 -0.9652674876885331
51 401 -0
52 401 -0
53 401 -0
54 401 -0
55 401 -0
56 401 -0
57 401 -0
58 401 -0
59 401 -0
60 401 -0
121 401 0
122 401 0
123 401 0
124 401 0
125 401 0
126 401 0
127 401 0
128 401 0
129 401 0
130 401 0
131 401 0
132 401 0
133 401 0
134 401 0
135 401 0
136 401 0
137 401 0
138 401 0
139 401 0
140 401 0
141 401 0
142 401 0
143 401 0
144 401 0
145 401 0
146 401 0
147 401 0
148 401 0
149 401 0.99716157836265906
150 401 0
151 401 0
152 401 0
153 401 0
154 401 0
155 401 0
156 401 0
157 401 0
158 401 0
159 401 0
160 401 0
161 401 0
162 401 0
163 401 0
164 401 0
165 401 0
166 401 0
167 401 0
168 401 0
169 401 0
170 401 0
171 401 0
172 401 0
173 401 0
174 401 0
175 401 0
176 401 0
177 401 0
178 401 0
179 401 0
180 401 0
1 402 -0
2 402 -0
3 402 -0
4 402 -0
5 402 -0
6 402 -0
7 402 -0
8 402 -0
9 402 -0
10 402 -0
11 402 -0
12 402 -0
13 402 -0
14 402 -0
15 402 -0
16 402 -0
17 402 -0
18 402 -0
19 402 -0
20 402 -0
21 402 -0
22 402 -0
23 402 -0
24 402 -0
25 402 -0
26 402 -0
27 402 -0
28 402 -0
29 402 -0
30 402 -0
31 402 -0
32 402 -0
33 402 -0
34 402 -0
35 402 -0
36 402 -0
37 402 -0
38 402 -0
39 402 -0
40 402 -0
41 402 -0
42 402 -0
43 402 -0
44 402 -0
45 402 -0
46 402 -0
47 402 -0
48 402 -0
49 402 -0
50 402 -0
51 402 -0
52 402 -0
53 402 -0
54 402 -0
55 402 -0
56 402 -0
57 402 -0
58 402 -0
59 402 -0
60 402 -0
121 402 0
122 402 0
123 402 0
124 402 0
125 402 0
126 402 0
127 402 0
128 402 0
129 402 0
130 402 0
131 402 0
132 402 0
133 402 0
134 402 0
135 402 0
136 402 0
137 402 0
138 402 0
139 402 0
140 402 0
141 402 0
142 402 0
143 402 0
144 402 0
145 402 0
146 402 0
147 402 0
148 402 0
149 402 0
150 402 0.99716157836265906
151 402 0
152 402 0
153 402 0
154 402 0
155 402 0
156 402 0
157 402 0
158 402 0
159 402 0
160 402 0
161 402 0
162 402 0
163 402 0
164 402 0
165 402 0
166 402 0
167 402 0
168 402 0
169 402 0
170 402 0
171 402 0
172 402 0
173 402 0
174 402 0
175 402 0
176 402 0
177 402 0
178 402 0
179 402 0
180 402 0
1 403 -0
2 403 -0
3 403 -0
4 403 -0
5 403 -0
6 403 -0
7 403 -0
8 403 -0
9 403 -0
10 403 -0
11 403 -0
12 403 -0
13 403 -0
14 403 -0
15 403 -0
16 403 -0
17 403 -0
18 403 -0
19 403 -0
20 403 -0
21 403 -0
22 403 -0
23 403 -0
24 403 -0
25 403 -0
26 403 -0
27 403 -0
28 403 -0
29 403 -0
30 403 -0
31 403 -0
32 403 -0
33 403 -0
34 403 -0
35 403 -0
36 403 -0
37 403 -0
38 403 -0
39 403 -0
40 403 -0
41 403 -0
42 403 -0
43 403 -0
44 403 -0
45 403 -0
46 403 -0
47 403 -0
48 403 -0
49 403 -0
50 403 -0
51 403 -0
52 403 -0
53 403 -0
54 403 -0
55 403 -0
56 403 -0
57 403 -0
58 403 -0
59 403 -0
60 403 -0
121 403 0
122 403 0
123 403 0
124 403 0
125 403 0
126 403 0
127 403 0
128 403 0
129 403 0
130 403 0
131 403 0
132 403 0
133 403 0
134 403 0
135 403 0
136 403 0
137 403 0
138 403 0
139 403 0
140 403 0
141 403 0
142 403 0
143 403 0
144 403 0
145 403 0
146 403 0
147 403 0
148 403 0
149 403 0
150 403 0
151 403 0.99716157836265906
152 403 0
153 403 0
154 403 0
155 403 0
156 403 0
157 403 0
158 403 0
159 403 0
160 403 0
161 403 0
162 403 0
163 403 0
164 403 0
165 403 0
166 403 0
167 403 0
168 403 0
169 403 0
170 403 0
171 403 0
172 403 0
173 403 0
174 403 0
175 403 0
176 403 0
177 403 0
178 403 0
179 403 0
180 403 0
1 404 -0
2 404 -0
3 404 -0
4 404 -0
5 404 -0
6 404 -0
7 404 -0
8 404 -0
9 404 -0
10 404 -0
11 404 -0
12 404 -0
13 404 -0
14 404 -0
15 404 -0
16 404 -0
17 404 -0
18 404 -0
19 404 -0
20 404 -0
21 404 -0
22 404 -0
23 404 -0
24 404 -0
25 404 -0
26 404 -0
27 404 -0
28 404 -0
29 404 -0
30 404 -0
31 404 -0
32 404 -0
33 404 -0
34 404 -0
35 404 -0
36 404 -0
37 404 -0
38 404 -0
39 404 -0
40 404 -0
41 404 -0
42 404 -0
43 404 -0
44 404 -0
45 404 -0
46 404 -0
47 404 -0
48 404 -0
49 404 -0
50 404 -0
51 404 -0
52 404 -0
53 404 -0
54 404 -0
55 404 -0
56 404 -0
57 404 -0
58 404 -0
59 404 -0
60 404 -0
121 404 0
122 404 0
123 404 0
124 404 0
125 404 0
126 404 0
127 404 0
128 404 0
129 404 0
130 404 0
131 404 0
132 404 0
133 404 0
134 404 0
135 404 0
136 404 0
137 404 0
138 404 0
139 404 0
140 404 0
141 404 0
142 404 0
143 404 0
144 404 0
145 404 0
146 404 0
147 404 0
148 404 0
149 404 0
150 404 0
151 404 0
152 404 0.99716157836265906
153 404 0
154 404 0
155 404 0
156 404 0
157 404 0
158 404 0
159 404 0
160 404 0
161 404 0
162 404 0
163 404 0
164 404 0
165 404 0
166 404 0
167 404 0
168 404 0
169 404 0
170 404 0
171 404 0
172 404 0
173 404 0
174 404 0
175 404 0
176 404 0
177 404 0
178 404 0
179 404 0
180 404 0
1 405 -0
2 405 -0
3 405 -0
4 405 -0
5 405 -0
6 405 -0
7 405 -0
8 405 -0
9 405 -0
10 405 -0
11 405 -0
12 405 -0
13 405 -0
14 405 -0
15 405 -0
16 405 -0
17 405 -0
18 405 -0
19 405 -0
20 405 -0
21 405 -0
22 405 -0
23 405 -0
24 405 -0
25 405 -0
26 405 -0
27 405 -0
28 405 -0
29 405 -0
30 405 -0
31 405 -0
32 405 -0
33 405 -0
34 405 -0
35 405 -0
36 405 -0
37 405 -0
38 405 -0
39 405 -0
40 405 -0
41 405 -0
42 405 -0
43 405 -0
44 405 -0
45 405 -0
46 405 -0
47 405 -0
48 405 -0
49 405 -0
50 405 -0
51 405 -0
52 405 -0
53 405 -0
54 405 -0
55 405 -0
56 405 -0
57 405 -0
58 405 -0
59 405 -0
60 405 -0
121 405 0
122 405 0
123 405 0
124 405 0
125 405 0
126 405 0
127 405 0
128 405 0
129 405 0
130 405 0
131 405 0
132 405 0
133 405 0
134 405 0
135 405 0
136 405 0
137 405 0
138 405 0
139 405 0
140 405 0
141 405 0
142 405 0
143 405 0
144 405 0
145 405 0
146 405 0
147 405 0
148 405 0
149 405 0
150 405 0
151 405 0
152 405 0
153 405 0.99716157836265906
154 405 0
155 405 0
156 405 0
157 405 0
158 405 0
159 405 0
160 405 0
161 405 0
162 405 0
163 405 0
164 405 0
165 405 0
166 405 0
167 405 0
168 405 0
169 405 0
170 405 0
171 405 0
172 405 0
173 405 0
174 405 0
175 405 0
176 405 0
177 405 0
178 405 0
179 405 0
180 405 0
1 406 -0
2 406 -0
3 406 -0
4 406 -0
5 406 -0
6 406 -0
7 406 -0
8 406 -0
9 406 -0
10 406 -0
11 406 -0
12 406 -0
13 406 -0
14 406 -0
15 406 -0
16 406 -0
17 406 -0
18 406 -0
19 406 -0
20 406 -0
21 406 -0
22 406 -0
23 406 -0
24 406 -0
25 406 -0
26 406 -0
27 406 -0
28 406 -0
29 406 -0
30 406 -0
31 406 -0
32 406 -0
33 406 -0
34 406 -0
35 406 -0
36 406 -0
37 406 -0
38 406 -0
39 406 -0
40 406 -0
41 406 -0
42 406 -0
43 406 -0
44 406 -0
45 406 -0
46 406 -0
47 406 -0
48 406 -0
49 406 -0
50 406 -0
51 406 -0
52 406 -0
53 406 -0
54 406 -0
55 406 -0
56 406 -0
57 406 -0
58 406 -0
59 406 -0
60 406 -0
121 406 0
122 406 0
123 406 0
124 406 0
125 406 0
126 406 0
127 406 0
128 406 0
129 406 0
130 406 0
131 406 0
132 406 0
133 406 0
134 406 0
135 406 0
136 406 0
137 406 0
138 406 0
139 406 0
140 406 0
141 406 0
142 406 0
143 406 0
144 406 0
145 406 0
146 406 0
147 406 0
148 406 0
149 406 0
150 406 0
151 406 0
152 406 0
153 406 0
154 406 0.99716157836265906
155 406 0
156 406 0
157 406 0
158 406 0
159 406 0
160 406 0
161 406 0
162 406 0
163 406 0
164 406 0
165 406 0
166 406 0
167 406 0
168 406 0
169 406 0
170 406 0
171 406 0
172 406 0
173 406 0
174 406 0
175 406 0
176 406 0
177 406 0
178 406 0
179 406 0
180 406 0
1 407 -0
2 407 -0
3 407 -0
4 407 -0
5 407 -0
6 407 -0
7 407 -0
8 407 -0
9 407 -0
10 407 -0
11 407 -0
12 407 -0
13 407 -0
14 407 -0
15 407 -0
16 407 -0
17 407 -0
18 407 -0
19 407 -0
20 407 -0
21 407 -0
22 407 -0
23 407 -0
24 407 -0
25 407 -0
26 407 -0
27 407 -0
28 407 -0
29 407 -0
30 407 -0
31 407 -0
32 407 -0
33 407 -0
34 407 -0
35 407 -0
36 407 -0
37 407 -0
38 407 -0
39 407 -0
40 407 -0
41 407 -0
42 407 -0
43 407 -0
44 407 -0
45 407 -0
46 407 -0
47 407 -0
48 407 -0
49 407 -0
50 407 -0
51 407 -0
52 407 -0
53 407 -0
54 407 -0
55 407 -0
56 407 -0
57 407 -0
58 407 -0
59 407 -0
60 407 -0
121 407 0
122 407 0
123 407 0
124 407 0
125 407 0
126 407 0
127 407 0
128 407 0
129 407 0
130 407 0
131 407 0
132 407 0
133 407 0
134 407 0
135 407 0
136 407 0
137 407 0
138 407 0
139 407 0
140 407 0
141 407 0
142 407 0
143 407 0
144 407 0
145 407 0
146 407 0
147 407 0
148 407 0
149 407 0
150 407 0
151 407 0
152 407 0
153 407 0
154 407 0
155 407 0.99716157836265906
156 407 0
157 407 0
158 407 0
159 407 0
160 407 0
161 407 0
162 407 0
163 407 0
164 407 0
165 407 0
166 407 0
167 407 0
168 407 0
169 407 0
170 407 0
171 407 0
172 407 0
173 407 0
174 407 0
175 407 0
176 407 0
177 407 0
178 407 0
179 407 0
180 407 0
1 408 -0
2 408 -0
3 408 -0
4 408 -0
5 408 -0
6 408 -0
7 408 -0
8 408 -0
9 408 -0
10 408 -0
11 408 -0
12 408 -0
13 408 -0
14 408 -0
15 408 -0
16 408 -0
17 408 -0
18 408 -0
19 408 -0
20 408 -0
21 408 -0
22 408 -0
23 408 -0
24 408 -0
25 408 -0
26 408 -0
27 408 -0
28 408 -0
29 408 -0
30 408 -0
31 408 -0
32 408 -0
33 408 -0
34 408 -0
35 408 -0
36 408 -0
37 408 -0
38 408 -0
39 408 -0
40 408 -0
41 408 -0
42 408 -0
43 408 -0
44 408 -0
45 408 -0
46 408 -0
47 408 -0
48 408 -0
49 408 -0
50 408 -0
51 408 -0
52 408 -0
53 408 -0
54 408 -0
55 408 -0
56 408 -0
57 408 -0
58 408 -0
59 408 -0
60 408 -0
121 408 0
122 408 0
123 408 0
124 408 0
125 408 0
126 408 0
127 408 0
128 408 0
129 408 0
130 408 0
131 408 0
132 408 0
133 408 0
134 408 0
135 408 0
136 408 0
137 408 0
138 408 0
139 408 0
140 408 0
141 408 0
142 408 0
143 408 0
144 408 0
145 408 0
146 408 0
147 408 0
148 408 0
149 408 0
150 408 0
151 408 0
152 408 0
153 408 0
154 408 0
155 408 0
156 408 0.99716157836265906
157 408 0
158 408 0
159 408 0
160 408 0
161 408 0
162 408 0
163 408 0
164 408 0
165 408 0
166 408 0
167 408 0
168 408 0
169 408 0
170 408 0
171 408 0
172 408 0
173 408 0
174 408 0
175 408 0
176 408 0
177 408 0
178 408 0
179 408 0
180 408 0
1 409 -0
2 409 -0
3 409 -0
4 409 -0
5 409 -0
6 409 -0
7 409 -0
8 409 -0
9 409 -0
10 409 -0
11 409 -0
12 409 -0
13 409 -0
14 409 -0
15 409 -0
16 409 -0
17 409 -0
18 409 -0
19 409 -0
20 409 -0
21 409 -0
22 409 -0
23 409 -0
24 409 -0
25 409 -0
26 409 -0
27 409 -0
28 409 -0
29 409 -0
30 409 -0
31 409 -0
32 409 -0
33 409 -0
34 409 -0
35 409 -0
36 409 -0
37 409 -0
38 409 -0
39 409 -0
40 409 -0
41 409 -0
42 409 -0
43 409 -0
44 409 -0
45 409 -0
46 409 -0
47 409 -0
48 409 -0
49 409 -0
50 409 -0
51 409 -0.9652674876885331
52 409 -0
53 409 -0
54 409 -0
55 409 -0
56 409 -0
57 409 -0
58 409 -0
59 409 -0
60 409 -0
121 409 0
122 409 0
123 409 0
124 409 0
125 409 0
126 409 0
127 409 0
128 409 0
129 409 0
130 409 0
131 409 0
132 409 0
133 409 0
134 409 0
135 409 0
136 409 0
137 409 0
138 409 0
139 409 0
140 409 0
141 409 0
142 409 0
143 409 0
144 409 0
145 409 0
146 409 0
147 409 0
148 409 0
149 409 0
150 409 0
151 409 0
152 409 0
153 409 0
154 409 0
155 409 0
156 409 0
157 409 0.99716157836265906
158 409 0
159 409 0
160 409 0
161 409 0
162 409 0
163 409 0
164 409 0
165 409 0
166 409 0
167 409 0
168 409 0
169 409 0
170 409 0
171 409 0
172 409 0
173 409 0
174 409 0
175 409 0
176 409 0
177 409 0
178 409 0
179 409 0
180 409 0
1 410 -0
2 410 -0
3 410 -0
4 410 -0
5 410 -0
6 410 -0
7 410 -0
8 410 -0
9 410 -0
10 410 -0
11 410 -0
12 410 -0
13 410 -0
14 410 -0
15 410 -0
16 410 -0
17 410 -0
18 410 -0
19 410 -0
20 410 -0
21 410 -0
22 410 -0
23 410 -0
24 410 -0
25 410 -0
26 410 -0
27 410 -0
28 410 -0
29 410 -0
30 410 -0
31 410 -0
32 410 -0
33 410 -0
34 410 -0
35 410 -0
36 410 -0
37 410 -0
38 410 -0
39 410 -0
40 410 -0
41 410 -0
42 410 -0
43 410 -0
44 410 -0
45 410 -0
46 410 -0
47 410 -0
48 410 -0
49 410 -0
50 410 -0
51 410 -0
52 410 -0.9652674876885331
53 410 -0
54 410 -0
55 410 -0
56 410 -0
57 410 -0
58 410 -0
59 410 -0
60 410 -0
121 410 0
122 410 0
123 410 0
124 410 0
125 410 0
126 410 0
127 410 0
128 410 0
129 410 0
130 410 0
131 410 0
132 410 0
133 410 0
134 410 0
135 410 0
136 410 0
137 410 0
138 410 0
139 410 0
140 410 0
141 410 0
142 410 0
143 410 0
144 410 0
145 410 0
146 410 0
147 410 0
148 410 0
149 410 0
150 410 0
151 410 0
152 410 0
153 410 0
154 410 0
155 410 0
156 410 0
157 410 0
158 410 0.99716157836265906
159 410 0
160 410 0
161 410 0
162 410 0
163 410 0
164 410 0
165 410 0
166 410 0
167 410 0
168 410 0
169 410 0
170 410 0
171 410 0
172 410 0
173 410 0
174 410 0
175 410 0
176 410 0
177 410 0
178 410 0
179 410 0
180 410 0
1 411 -0
2 411 -0
3 411 -0
4 411 -0
5 411 -0
6 411 -0
7 411 -0
8 411 -0
9 411 -0
10 411 -0
11 411 -0
12 411 -0
13 411 -0
14 411 -0
15 411 -0
16 411 -0
17 411 -0
18 411 -0
19 411 -0
20 411 -0
21 411 -0
22 411 -0
23 411 -0
24 411 -0
25 411 -0
26 411 -0
27 411 -0
28 411 -0
29 411 -0
30 411 -0
31 411 -0
32 411 -0
33 411 -0
34 411 -0
35 411 -0
36 411 -0
37 411 -0
38 411 -0
39 411 -0
40 411 -0
41 411 -0
42 411 -0
43 411 -0
44 411 -0
45 411 -0
46 411 -0
47 411 -0
48 411 -0
49 411 -0
50 411 -0
51 411 -0
52 411 -0
53 411 -0.9652674876885331
54 411 -0
55 411 -0
56 411 -0
57 411 -0
58 411 -0
59 411 -0
60 411 -0
121 411 0
122 411 0
123 411 0
124 411 0
125 411 0
126 411 0
127 411 0
128 411 0
129 411 0
130 411 0
131 411 0
132 411 0
133 411 0
134 411 0
135 411 0
136 411 0
137 411 0
138 411 0
139 411 0
140 411 0
141 411 0
142 411 0
143 411 0
144 411 0
145 411 0
146 411 0
147 411 0
148 411 0
149 411 0
150 411 0
151 411 0
152 411 0
153 411 0
154 411 0
155 411 0
156 411 0
157 411 0
158 411 0
159 411 0.99716157836265906
160 411 0
161 411 0
162 411 0
163 411 0
164 411 0
165 411 0
166 411 0
167 411 0
168 411 0
169 411 0
170 411 0
171 411 0
172 411 0
173 411 0
174 411 0
175 411 0
176 411 0
177 411 0
178 411 0
179 411 0
180 411 0
1 412 -0
2 412 -0
3 412 -0
4 412 -0
5 412 -0
6 412 -0
7 412 -0
8 412 -0
9 412 -0
10 412 -0
11 412 -0
12 412 -0
13 412 -0
14 412 -0
15 412 -0
16 412 -0
17 412 -0
18 412 -0
19 412 -0
20 412 -0
21 412 -0
22 412 -0
23 412 -0
24 412 -0
25 412 -0
26 412 -0
27 412 -0
28 412 -0
29 412 -0
30 412 -0
31 412 -0
32 412 -0
33 412 -0
34 412 -0
35 412 -0
36 412 -0
37 412 -0
38 412 -0
39 412 -0
40 412 -0
41 412 -0
42 412 -0
43 412 -0
44 412 -0
45 412 -0
46 412 -0
47 412 -0
48 412 -0
49 412 -0
50 412 -0
51 412 -0
52 412 -0
53 412 -0
54 412 -0.9652674876885331
55 412 -0
56 412 -0
57 412 -0
58 412 -0
59 412 -0
60 412 -0
121 412 0
122 412 0
123 412 0
124 412 0
125 412 0
126 412 0
127 412 0
128 412 0
129 412 0
130 412 0
131 412 0
132 412 0
133 412 0
134 412 0
135 412 0
136 412 0
137 412 0
138 412 0
139 412 0
140 412 0
141 412 0
142 412 0
143 412 0
144 412 0
145 412 0
146 412 0
147 412 0
148 412 0
149 412 0
150 412 0
151 412 0
152 412 0
153 412 0
154 412 0
155 412 0
156 412 0
157 412 0
158 412 0
159 412 0
160 412 0.99716157836265906
161 412 0
162 412 0
163 412 0
164 412 0
165 412 0
166 412 0
167 412 0
168 412 0
169 412 0
170 412 0
171 412 0
172 412 0
173 412 0
174 412 0
175 412 0
176 412 0
177 412 0
178 412 0
179 412 0
180 412 0
1 413 -0
2 413 -0
3 413 -0
4 413 -0
5 413 -0
6 413 -0
7 413 -0
8 413 -0
9 413 -0
10 413 -0
11 413 -0
12 413 -0
13 413 -0
14 413 -0
15 413 -0
16 413 -0
17 413 -0
18 413 -0
19 413 -0
20 413 -0
21 413 -0
22 413 -0
23 413 -0
24 413 -0
25 413 -0
26 413 -0
27 413 -0
28 413 -0
29 413 -0
30 413 -0
31 413 -0
32 413 -0
33 413 -0
34 413 -0
35 413 -0
36 413 -0
37 413 -0
38 413 -0
39 413 -0
40 413 -0
41 413 -0
42 413 -0
43 413 -0
44 413 -0
45 413 -0
46 413 -0
47 413 -0
48 413 -0
49 413 -0
50 413 -0
51 413 -0
52 413 -0
53 413 -0
54 413 -0
55 413 -0.9652674876885331
56 413 -0
57 413 -0
58 413 -0
59 413 -0
60 413 -0
121 413 0
122 413 0
123 413 0
124 413 0
125 413 0
126 413 0
127 413 0
128 413 0
129 413 0
130 413 0
131 413 0
132 413 0
133 413 0
134 413 0
135 413 0
136 413 0
137 413 0
138 413 0
139 413 0
140 413 0
141 413 0
142 413 0
143 413 0
144 413 0
145 413 0
146 413 0
147 413 0
148 413 0
149 413 0
150 413 0
151 413 0
152 413 0
153 413 0
154 413 0
155 413 0
156 413 0
157 413 0
158 413 0
159 413 0
160 413 0
161 413 0.99716157836265906
162 413 0
163 413 0
164 413 0
165 413 0
166 413 0
167 413 0
168 413 0
169 413 0
170 413 0
171 413 0
172 413 0
173 413 0
174 413 0
175 413 0
176 413 0
177 413 0
178 413 0
179 413 0
180 413 0
1 414 -0
2 414 -0
3 414 -0
4 414 -0
5 414 -0
6 414 -0
7 414 -0
8 414 -0
9 414 -0
10 414 -0
11 414 -0
12 414 -0
13 414 -0
14 414 -0
15 414 -0
16 414 -0
17 414 -0
18 414 -0
19 414 -0
20 414 -0
21 414 -0
22 414 -0
23 414 -0
24 414 -0
25 414 -0
26 414 -0
27 414 -0
28 414 -0
29 414 -0
30 414 -0
31 414 -0
32 414 -0
33 414 -0
34 414 -0
35 414 -0
36 414 -0
37 414 -0
38 414 -0
39 414 -0
40 414 -0
41 414 -0
42 414 -0
43 414 -0
44 414 -0
45 414 -0
46 414 -0
47 414 -0
48 414 -0
49 414 -0
50 414 -0
51 414 -0
52 414 -0
53 414 -0
54 414 -0
55 414 -0
56 414 -0
57 414 -0
58 414 -0
59 414 -0
60 414 -0
121 414 0
122 414 0
123 414 0
124 414 0
125 414 0
126 414 0
127 414 0
128 414 0
129 414 0
130 414 0
131 414 0
132 414 0
133 414 0
134 414 0
135 414 0
136 414 0
137 414 0
138 414 0
139 414 0
140 414 0
141 414 0
142 414 0
143 414 0
144 414 0
145 414 0
146 414 0
147 414 0
148 414 0
149 414 0
150 414 0
151 414 0
152 414 0
153 414 0
154 414 0
155 414 0
156 414 0
157 414 0
158 414 0
159 414 0
160 414 0
161 414 0
162 414 0.99716157836265906
163 414 0
164 414 0
165 414 0
166 414 0
167 414 0
168 414 0
169 414 0
170 414 0
171 414 0
172 414 0
173 414 0
174 414 0
175 414 0
176 414 0
177 414 0
178 414 0
179 414 0
180 414 0
1 415 -0
2 415 -0
3 415 -0
4 415 -0
5 415 -0
6 415 -0
7 415 -0
8 415 -0
9 415 -0
10 415 -0
11 415 -0
12 415 -0
13 415 -0
14 415 -0
15 415 -0
16 415 -0
17 415 -0
18 415 -0
19 415 -0
20 415 -0
21 415 -0
22 415 -0
23 415 -0
24 415 -0
25 415 -0
26 415 -0
27 415 -0
28 415 -0
29 415 -0
30 415 -0
31 415 -0
32 415 -0
33 415 -0
34 415 -0
35 415 -0
36 415 -0
37 415 -0
38 415 -0
39 415 -0
40 415 -0
41 415 -0
42 415 -0
43 415 -0
44 415 -0
45 415 -0
46 415 -0
47 415 -0
48 415 -0
49 415 -0
50 415 -0
51 415 -0
52 415 -0
53 415 -0
54 415 -0
55 415 -0
56 415 -0
57 415 -0
58 415 -0
59 415 -0
60 415 -0
121 415 0
122 415 0
123 415 0
124 415 0
125 415 0
126 415 0
127 415 0
128 415 0
129 415 0
130 415 0
131 415 0
132 415 0
133 415 0
134 415 0
135 415 0
136 415 0
137 415 0
138 415 0
139 415 0
140 415 0
141 415 0
142 415 0
143 415 0
144 415 0
145 415 0
146 415 0
147 415 0
148 415 0
149 415 0
150 415 0
151 415 0
152 415 0
153 415 0
154 415 0
155 415 0
156 415 0
157 415 0
158 415 0
159 415 0
160 415 0
161 415 0
162 415 0
163 415 0.99716157836265906
164 415 0
165 415 0
166 415 0
167 415 0
168 415 0
169 415 0
170 415 0
171 415 0
172 415 0
173 415 0
174 415 0
175 415 0
176 415 0
177 415 0
178 415 0
179 415 0
180 415 0
1 416 -0
2 416 -0
3 416 -0
4 416 -0
5 416 -0
6 416 -0
7 416 -0
8 416 -0
9 416 -0
10 416 -0
11 416 -0
12 416 -0
13 416 -0
14 416 -0
15 416 -0
16 416 -0
17 416 -0
18 416 -0
19 416 -0
20 416 -0
21 416 -0
22 416 -0
23 416 -0
24 416 -0
25 416 -0
26 416 -0
27 416 -0
28 416 -0
29 416 -0
30 416 -0
31 416 -0
32 416 -0
33 416 -0
34 416 -0
35 416 -0
36 416 -0
37 416 -0
38 416 -0
39 416 -0
40 416 -0
41 416 -0
42 416 -0
43 416 -0
44 416 -0
45 416 -0
46 416 -0
47 416 -0
48 416 -0
49 416 -0
50 416 -0
51 416 -0
52 416 -0
53 416 -0
54 416 -0
55 416 -0
56 416 -0
57 416 -0
58 416 -0
59 416 -0
60 416 -0
121 416 0
122 416 0
123 416 0
124 416 0
125 416 0
126 416 0
127 416 0
128 416 0
129 416 0
130 416 0
131 416 0
132 416 0
133 416 0
134 416 0
135 416 0
136 416 0
137 416 0
138 416 0
139 416 0
140 416 0
141 416 0
142 416 0
143 416 0
144 416 0
145 416 0
146 416 0
147 416 0
148 416 0
149 416 0
150 416 0
151 416 0
152 416 0
153 416 0
154 416 0
155 416 0
156 416 0
157 416 0
158 416 0
159 416 0
160 416 0
161 416 0
162 416 0
163 416 0
164 416 0.99716157836265906
165 416 0
166 416 0
167 416 0
168 416 0
169 416 0
170 416 0
171 416 0
172 416 0
173 416 0
174 416 0
175 416 0
176 416 0
177 416 0
178 416 0
179 416 0
180 416 0
1 417 -0
2 417 -0
3 417 -0
4 417 -0
5 417 -0
6 417 -0
7 417 -0
8 417 -0
9 417 -0
10 417 -0
11 417 -0
12 417 -0
13 417 -0
14 417 -0
15 417 -0
16 417 -0
17 417 -0
18 417 -0
19 417 -0
20 417 -0
21 417 -0
22 417 -0
23 417 -0
24 417 -0
25 417 -0
26 417 -0
27 417 -0
28 417 -0
29 417 -0
30 417 -0
31 417 -0
32 417 -0
33 417 -0
34 417 -0
35 417 -0
36 417 -0
37 417 -0
38 417 -0
39 417 -0
40 417 -0
41 417 -0
42 417 -0
43 417 -0
44 417 -0
45 417 -0
46 417 -0
47 417 -0
48 417 -0
49 417 -0
50 417 -0
51 417 -0
52 417 -0
53 417 -0
54 417 -0
55 417 -0
56 417 -0
57 417 -0
58 417 -0
59 417 -0
60 417 -0
121 417 0
122 417 0
123 417 0
124 417 0
125 417 0
126 417 0
127 417 0
128 417 0
129 417 0
130 417 0
131 417 0
132 417 0
133 417 0
134 417 0
135 417 0
136 417 0
137 417 0
138 417 0
139 417 0
140 417 0
141 417 0
142 417 0
143 417 0
144 417 0
145 417 0
146 417 0
147 417 0
148 417 0
149 417 0
150 417 0
151 417 0
152 417 0
153 417 0
154 417 0
155 417 0
156 417 0
157 417 0
158 417 0
159 417 0
160 417 0
161 417 0
162 417 0
163 417 0
164 417 0
165 417 0.99716157836265906
166 417 0
167 417 0
168 417 0
169 417 0
170 417 0
171 417 0
172 417 0
173 417 0
174 417 0
175 417 0
176 417 0
177 417 0
178 417 0
179 417 0
180 417 0
1 418 -0
2 418 -0
3 418 -0
4 418 -0
5 418 -0
6 418 -0
7 418 -0
8 418 -0
9 418 -0
10 418 -0
11 418 -0
12 418 -0
13 418 -0
14 418 -0
15 418 -0
16 418 -0
17 418 -0
18 418 -0
19 418 -0
20 418 -0
21 418 -0
22 418 -0
23 418 -0
24 418 -0
25 418 -0
26 418 -0
27 418 -0
28 418 -0
29 418 -0
30 418 -0
31 418 -0
32 418 -0
33 418 -0
34 418 -0
35 418 -0
36 418 -0
37 418 -0
38 418 -0
39 418 -0
40 418 -0
41 418 -0
42 418 -0
43 418 -0
44 418 -0
45 418 -0
46 418 -0
47 418 -0
48 418 -0
49 418 -0
50 418 -0
51 418 -0
52 418 -0
53 418 -0
54 418 -0
55 418 -0
56 418 -0
57 418 -0
58 418 -0
59 418 -0
60 418 -0
121 418 0
122 418 0
123 418 0
124 418 0
125 418 0
126 418 0
127 418 0
128 418 0
129 418 0
130 418 0
131 418 0
132 418 0
133 418 0
134 418 0
135 418 0
136 418 0
137 418 0
138 418 0
139 418 0
140 418 0
141 418 0
142 418 0
143 418 0
144 418 0
145 418 0
146 418 0
147 418 0
148 418 0
149 418 0
150 418 0
151 418 0
152 418 0
153 418 0
154 418 0
155 418 0
156 418 0
157 418 0
158 418 0
159 418 0
160 418 0
161 418 0
162 418 0
163 418 0
164 418 0
165 418 0
166 418 0.99716157836265906
167 418 0
168 418 0
169 418 0
170 418 0
171 418 0
172 418 0
173 418 0
174 418 0
175 418 0
176 418 0
177 418 0
178 418 0
179 418 0
180 418 0
1 419 -0
2 419 -0
3 419 -0
4 419 -0
5 419 -0
6 419 -0
7 419 -0
8 419 -0
9 419 -0
10 419 -0
11 419 -0
12 419 -0
13 419 -0
14 419 -0
15 419 -0
16 419 -0
17 419 -0
18 419 -0
19 419 -0
20 419 -0
21 419 -0
22 419 -0
23 419 -0
24 419 -0
25 419 -0
26 419 -0
27 419 -0
28 419 -0
29 419 -0
30 419 -0
31 419 -0
32 419 -0
33 419 -0
34 419 -0
35 419 -0
36 419 -0
37 419 -0
38 419 -0
39 419 -0
40 419 -0
41 419 -0
42 419 -0
43 419 -0
44 419 -0
45 419 -0
46 419 -0
47 419 -0
48 419 -0
49 419 -0
50 419 -0
51 419 -0
52 419 -0
53 419 -0
54 419 -0
55 419 -0
56 419 -0
57 419 -0
58 419 -0
59 419 -0
60 419 -0
121 419 0
122 419 0
123 419 0
124 419 0
125 419 0
126 419 0
127 419 0
128 419 0
129 419 0
130 419 0
131 419 0
132 419 0
133 419 0
134 419 0
135 419 0
136 419 0
137 419 0
138 419 0
139 419 0
140 419 0
141 419 0
142 419 0
143 419 0
144 419 0
145 419 0
146 419 0
147 419 0
148 419 0
149 419 0
150 419 0
151 419 0
152 419 0
153 419 0
154 419 0
155 419 0
156 419 0
157 419 0
158 419 0
159 419 0
160 419 0
161 419 0
162 419 0
163 419 0
164 419 0
165 419 0
166 419 0
167 419 0.99716157836265906
168 419 0
169 419 0
170 419 0
171 419 0
172 419 0
173 419 0
174 419 0
175 419 0
176 419 0
177 419 0
178 419 0
179 419 0
180 419 0
1 420 -0
2 420 -0
3 420 -0
4 420 -0
5 420 -0
6 420 -0
7 420 -0
8 420 -0
9 420 -0
10 420 -0
11 420 -0
12 420 -0
13 420 -0
14 420 -0
15 420 -0
16 420 -0
17 420 -0
18 420 -0
19 420 -0
20 420 -0
21 420 -0
22 420 -0
23 420 -0
24 420 -0
25 420 -0
26 420 -0
27 420 -0
28 420 -0
29 420 -0
30 420 -0
31 420 -0
32 420 -0
33 420 -0
34 420 -0
35 420 -0
36 420 -0
37 420 -0
38 420 -0
39 420 -0
40 420 -0
41 420 -0
42 420 -0
43 420 -0
44 420 -0
45 420 -0
46 420 -0
47 420 -0
48 420 -0
49 420 -0
50 420 -0
51 420 -0
52 420 -0
53 420 -0
54 420 -0
55 420 -0
56 420 -0
57 420 -0
58 420 -0
59 420 -0
60 420 -0
121 420 0
122 420 0
123 420 0
124 420 0
125 420 0
126 420 0
127 420 0
128 420 0
129 420 0
130 420 0
131 420 0
132 420 0
133 420 0
134 420 0
135 420 0
136 420 0
137 420 0
138 420 0
139 420 0
140 420 0
141 420 0
142 420 0
143 420 0
144 420 0
145 420 0
146 420 0
147 420 0
148 420 0
149 420 0
150 420 0
151 420 0
152 420 0
153 420 0
154 420 0
155 420 0
156 420 0
157 420 0
158 420 0
159 420 0
160 420 0
161 420 0
162 420 0
163 420 0
164 420 0
165 420 0
166 420 0
167 420 0
168 420 0.99716157836265906
169 420 0
170 420 0
171 420 0
172 420 0
173 420 0
174 420 0
175 420 0
176 420 0
177 420 0
178 420 0
179 420 0
180 420 0
1 421 -0
2 421 -0
3 421 -0
4 421 -0
5 421 -0
6 421 -0
7 421 -0
8 421 -0
9 421 -0
10 421 -0
11 421 -0
12 421 -0
13 421 -0
14 421 -0
15 421 -0
16 421 -0
17 421 -0
18 421 -0
19 421 -0
20 421 -0
21 421 -0
22 421 -0
23 421 -0
24 421 -0
25 421 -0
26 421 -0
27 421 -0
28 421 -0
29 421 -0
30 421 -0
31 421 -0
32 421 -0
33 421 -0
34 421 -0
35 421 -0
36 421 -0
37 421 -0
38 421 -0
39 421 -0
40 421 -0
41 421 -0
42 421 -0
43 421 -0
44 421 -0
45 421 -0
46 421 -0
47 421 -0
48 421 -0
49 421 -0
50 421 -0
51 421 -0
52 421 -0
53 421 -0
54 421 -0
55 421 -0
56 421 -0.9652674876885331
57 421 -0
58 421 -0
59 421 -0
60 421 -0
121 421 0
122 421 0
123 421 0
124 421 0
125 421 0
126 421 0
127 421 0
128 421 0
129 421 0
130 421 0
131 421 0
132 421 0
133 421 0
134 421 0
135 421 0
136 421 0
137 421 0
138 421 0
139 421 0
140 421 0
141 421 0
142 421 0
143 421 0
144 421 0
145 421 0
146 421 0
147 421 0
148 421 0
149 421 0
150 421 0
151 421 0
152 421 0
153 421 0
154 421 0
155 421 0
156 421 0
157 421 0
158 421 0
159 421 0
160 421 0
161 421 0
162 421 0
163 421 0
164 421 0
165 421 0
166 421 0
167 421 0
168 421 0
169 421 0.99716157836265906
170 421 0
171 421 0
172 421 0
173 421 0
174 421 0
175 421 0
176 421 0
177 421 0
178 421 0
179 421 0
180 421 0
1 422 -0
2 422 -0
3 422 -0
4 422 -0
5 422 -0
6 422 -0
7 422 -0
8 422 -0
9 422 -0
10 422 -0
11 422 -0
12 422 -0
13 422 -0
14 422 -0
15 422 -0
16 422 -0
17 422 -0
18 422 -0
19 422 -0
20 422 -0
21 422 -0
22 422 -0
23 422 -0
24 422 -0
25 422 -0
26 422 -0
27 422 -0
28 422 -0
29 422 -0
30 422 -0
31 422 -0
32 422 -0
33 422 -0
34 422 -0
35 422 -0
36 422 -0
37 422 -0
38 422 -0
39 422 -0
40 422 -0
41 422 -0
42 422 -0
43 422 -0
44 422 -0
45 422 -0
46 422 -0
47 422 -0
48 422 -0
49 422 -0
50 422 -0
51 422 -0
52 422 -0
53 422 -0
54 422 -0
55 422 -0
56 422 -0
57 422 -0.9652674876885331
58 422 -0
59 422 -0
60 422 -0
121 422 0
122 422 0
123 422 0
124 422 0
125 422 0
126 422 0
127 422 0
128 422 0
129 422 0
130 422 0
131 422 0
132 422 0
133 422 0
134 422 0
135 422 0
136 422 0
137 422 0
138 422 0
139 422 0
140 422 0
141 422 0
142 422 0
143 422 0
144 422 0
145 422 0
146 422 0
147 422 0
148 422 0
149 422 0
150 422 0
151 422 0
152 422 0
153 422 0
154 422 0
155 422 0
156 422 0
157 422 0
158 422 0
159 422 0
160 422 0
161 422 0
162 422 0
163 422 0
164 422 0
165 422 0
166 422 0
167 422 0
168 422 0
169 422 0
170 422 0.99716157836265906
171 422 0
172 422 0
173 422 0
174 422 0
175 422 0
176 422 0
177 422 0
178 422 0
179 422 0
180 422 0
1 423 -0
2 423 -0
3 423 -0
4 423 -0
5 423 -0
6 423 -0
7 423 -0
8 423 -0
9 423 -0
10 423 -0
11 423 -0
12 423 -0
13 423 -0
14 423 -0
15 423 -0
16 423 -0
17 423 -0
18 423 -0
19 423 -0
20 423 -0
21 423 -0
22 423 -0
23 423 -0
24 423 -0
25 423 -0
26 423 -0
27 423 -0
28 423 -0
29 423 -0
30 423 -0
31 423 -0
32 423 -0
33 423 -0
34 423 -0
35 423 -0
36 423 -0
37 423 -0
38 423 -0
39 423 -0
40 423 -0
41 423 -0
42 423 -0
43 423 -0
44 423 -0
45 423 -0
46 423 -0
47 423 -0
48 423 -0
49 423 -0
50 423 -0
51 423 -0
52 423 -0
53 423 -0
54 423 -0
55 423 -0
56 423 -0
57 423 -0
58 423 -0.9652674876885331
59 423 -0
60 423 -0
121 423 0
122 423 0
123 423 0
124 423 0
125 423 0
126 423 0
127 423 0
128 423 0
129 423 0
130 423 0
131 423 0
132 423 0
133 423 0
134 423 0
135 423 0
136 423 0
137 423 0
138 423 0
139 423 0
140 423 0
141 423 0
142 423 0
143 423 0
144 423 0
145 423 0
146 423 0
147 423 0
148 423 0
149 423 0
150 423 0
151 423 0
152 423 0
153 423 0
154 423 0
155 423 0
156 423 0
157 423 0
158 423 0
159 423 0
160 423 0
161 423 0
162 423 0
163 423 0
164 423 0
165 423 0
166 423 0
167 423 0
168 423 0
169 423 0
170 423 0
171 423 0.99716157836265906
172 423 0
173 423 0
174 423 0
175 423 0
176 423 0
177 423 0
178 423 0
179 423 0
180 423 0
1 424 -0
2 424 -0
3 424 -0
4 424 -0
5 424 -0
6 424 -0
7 424 -0
8 424 -0
9 424 -0
10 424 -0
11 424 -0
12 424 -0
13 424 -0
14 424 -0
15 424 -0
16 424 -0
17 424 -0
18 424 -0
19 424 -0
20 424 -0
21 424 -0
22 424 -0
23 424 -0
24 424 -0
25 424 -0
26 424 -0
27 424 -0
28 424 -0
29 424 -0
30 424 -0
31 424 -0
32 424 -0
33 424 -0
34 424 -0
35 424 -0
36 424 -0
37 424 -0
38 424 -0
39 424 -0
40 424 -0
41 424 -0
42 424 -0
43 424 -0
44 424 -0
45 424 -0
46 424 -0
47 424 -0
48 424 -0
49 424 -0
50 424 -0
51 424 -0
52 424 -0
53 424 -0
54 424 -0
55 424 -0
56 424 -0
57 424 -0
58 424 -0
59 424 -0.9652674876885331
60 424 -0
121 424 0
122 424 0
123 424 0
124 424 0
125 424 0
126 424 0
127 424 0
128 424 0
129 424 0
130 424 0
131 424 0
132 424 0
133 424 0
134 424 0
135 424 0
136 424 0
137 424 0
138 424 0
139 424 0
140 424 0
141 424 0
142 424 0
143 424 0
144 424 0
145 424 0
146 424 0
147 424 0
148 424 0
149 424 0
150 424 0
151 424 0
152 424 0
153 424 0
154 424 0
155 424 0
156 424 0
157 424 0
158 424 0
159 424 0
160 424 0
161 424 0
162 424 0
163 424 0
164 424 0
165 424 0
166 424 0
167 424 0
168 424 0
169 424 0
170 424 0
171 424 0
172 424 0.99716157836265906
173 424 0
174 424 0
175 424 0
176 424 0
177 424 0
178 424 0
179 424 0
180 424 0
1 425 -0
2 425 -0
3 425 -0
4 425 -0
5 425 -0
6 425 -0
7 425 -0
8 425 -0
9 425 -0
10 425 -0
11 425 -0
12 425 -0
13 425 -0
14 425 -0
15 425 -0
16 425 -0
17 425 -0
18 425 -0
19 425 -0
20 425 -0
21 425 -0
22 425 -0
23 425 -0
24 425 -0
25 425 -0
26 425 -0
27 425 -0
28 425 -0
29 425 -0
30 425 -0
31 425 -0
32 425 -0
33 425 -0
34 425 -0
35 425 -0
36 425 -0
37 425 -0
38 425 -0
39 425 -0
40 425 -0
41 425 -0
42 425 -0
43 425 -0
44 425 -0
45 425 -0
46 425 -0
47 425 -0
48 425 -0
49 425 -0
50 425 -0
51 425 -0
52 425 -0
53 425 -0
54 425 -0
55 425 -0
56 425 -0
57 425 -0
58 425 -0
59 425 -0
60 425 -0.9652674876885331
121 425 0
122 425 0
123 425 0
124 425 0
125 425 0
126 425 0
127 425 0
128 425 0
129 425 0
130 425 0
131 425 0
132 425 0
133 425 0
134 425 0
135 425 0
136 425 0
137 425 0
138 425 0
139 425 0
140 425 0
141 425 0
142 425 0
143 425 0
144 425 0
145 425 0
146 425 0
147 425 0
148 425 0
149 425 0
150 425 0
151 425 0
152 425 0
153 425 0
154 425 0
155 425 0
156 425 0
157 425 0
158 425 0
159 425 0
160 425 0
161 425 0
162 425 0
163 425 0
164 425 0
165 425 0
166 425 0
167 425 0
168 425 0
169 425 0
170 425 0
171 425 0
172 425 0
173 425 0.99716157836265906
174 425 0
175 425 0
176 425 0
177 425 0
178 425 0
179 425 0
180 425 0
1 426 -0
2 426 -0
3 426 -0
4 426 -0
5 426 -0
6 426 -0
7 426 -0
8 426 -0
9 426 -0
10 426 -0
11 426 -0
12 426 -0
13 426 -0
14 426 -0
15 426 -0
16 426 -0
17 426 -0
18 426 -0
19 426 -0
20 426 -0
21 426 -0
22 426 -0
23 426 -0
24 426 -0
25 426 -0
26 426 -0
27 426 -0
28 426 -0
29 426 -0
30 426 -0
31 426 -0
32 426 -0
33 426 -0
34 426 -0
35 426 -0
36 426 -0
37 426 -0
38 426 -0
39 426 -0
40 426 -0
41 426 -0
42 426 -0
43 426 -0
44 426 -0
45 426 -0
46 426 -0
47 426 -0
48 426 -0
49 426 -0
50 426 -0
51 426 -0
52 426 -0
53 426 -0
54 426 -0
55 426 -0
56 426 -0
57 426 -0
58 426 -0
59 426 -0
60 426 -0
121 426 0
122 426 0
123 426 0
124 426 0
125 426 0
126 426 0
127 426 0
128 426 0
129 426 0
130 426 0
131 426 0
132 426 0
133 426 0
134 426 0
135 426 0
136 426 0
137 426 0
138 426 0
139 426 0
140 426 0
141 426 0
142 426 0
143 426 0
144 426 0
145 426 0
146 426 0
147 426 0
148 426 0
149 426 0
150 426 0
151 426 0
152 426 0
153 426 0
154 426 0
155 426 0
156 426 0
157 426 0
158 426 0
159 426 0
160 426 0
161 426 0
162 426 0
163 426 0
164 426 0
165 426 0
166 426 0
167 426 0
168 426 0
169 426 0
170 426 0
171 426 0
172 426 0
173 426 0
174 426 0.99716157836265906
175 426 0
176 426 0
177 426 0
178 426 0
179 426 0
180 426 0
1 427 -0
2 427 -0
3 427 -0
4 427 -0
5 427 -0
6 427 -0
7 427 -0
8 427 -0
9 427 -0
10 427 -0
11 427 -0
12 427 -0
13 427 -0
14 427 -0
15 427 -0
16 427 -0
17 427 -0
18 427 -0
19 427 -0
20 427 -0
21 427 -0
22 427 -0
23 427 -0
24 427 -0
25 427 -0
26 427 -0
27 427 -0
28 427 -0
29 427 -0
30 427 -0
31 427 -0
32 427 -0
33 427 -0
34 427 -0
35 427 -0
36 427 -0
37 427 -0
38 427 -0
39 427 -0
40 427 -0
41 427 -0
42 427 -0
43 427 -0
44 427 -0
45 427 -0
46 427 -0
47 427 -0
48 427 -0
49 427 -0
50 427 -0
51 427 -0
52 427 -0
53 427 -0
54 427 -0
55 427 -0
56 427 -0
57 427 -0
58 427 -0
59 427 -0
60 427 -0
121 427 0
122 427 0
123 427 0
124 427 0
125 427 0
126 427 0
127 427 0
128 427 0
129 427 0
130 427 0
131 427 0
132 427 0
133 427 0
134 427 0
135 427 0
136 427 0
137 427 0
138 427 0
139 427 0
140 427 0
141 427 0
142 427 0
143 427 0
144 427 0
145 427 0
146 427 0
147 427 0
148 427 0
149 427 0
150 427 0
151 427 0
152 427 0
153 427 0
154 427 0
155 427 0
156 427 0
157 427 0
158 427 0
159 427 0
160 427 0
161 427 0
162 427 0
163 427 0
164 427 0
165 427 0
166 427 0
167 427 0
168 427 0
169 427 0
170 427 0
171 427 0
172 427 0
173 427 0
174 427 0
175 427 0.99716157836265906
176 427 0
177 427 0
178 427 0
179 427 0
180 427 0
1 428 -0
2 428 -0
3 428 -0
4 428 -0
5 428 -0
6 428 -0
7 428 -0
8 428 -0
9 428 -0
10 428 -0
11 428 -0
12 428 -0
13 428 -0
14 428 -0
15 428 -0
16 428 -0
17 428 -0
18 428 -0
19 428 -0
20 428 -0
21 428 -0
22 428 -0
23 428 -0
24 428 -0
25 428 -0
26 428 -0
27 428 -0
28 428 -0
29 428 -0
30 428 -0
31 428 -0
32 428 -0
33 428 -0
34 428 -0
35 428 -0
36 428 -0
37 428 -0
38 428 -0
39 428 -0
40 428 -0
41 428 -0
42 428 -0
43 428 -0
44 428 -0
45 428 -0
46 428 -0
47 428 -0
48 428 -0
49 428 -0
50 428 -0
51 428 -0
52 428 -0
53 428 -0
54 428 -0
55 428 -0
56 428 -0
57 428 -0
58 428 -0
59 428 -0
60 428 -0
121 428 0
122 428 0
123 428 0
124 428 0
125 428 0
126 428 0
127 428 0
128 428 0
129 428 0
130 428 0
131 428 0
132 428 0
133 428 0
134 428 0
135 428 0
136 428 0
137 428 0
138 428 0
139 428 0
140 428 0
141 428 0
142 428 0
143 428 0
144 428 0
145 428 0
146 428 0
147 428 0
148 428 0
149 428 0
150 428 0
151 428 0
152 428 0
153 428 0
154 428 0
155 428 0
156 428 0
157 428 0
158 428 0
159 428 0
160 428 0
161 428 0
162 428 0
163 428 0
164 428 0
165 428 0
166 428 0
167 428 0
168 428 0
169 428 0
170 428 0
171 428 0
172 428 0
173 428 0
174 428 0
175 428 0
176 428 0.99716157836265906
177 428 0
178 428 0
179 428 0
180 428 0
1 429 -0
2 429 -0
3 429 -0
4 429 -0
5 429 -0
6 429 -0
7 429 -0
8 429 -0
9 429 -0
10 429 -0
11 429 -0
12 429 -0
13 429 -0
14 429 -0
15 429 -0
16 429 -0
17 429 -0
18 429 -0
19 429 -0
20 429 -0
21 429 -0
22 429 -0
23 429 -0
24 429 -0
25 429 -0
26 429 -0
27 429 -0
28 429 -0
29 429 -0
30 429 -0
31 429 -0
32 429 -0
33 429 -0
34 429 -0
35 429 -0
36 429 -0
37 429 -0
38 429 -0
39 429 -0
40 429 -0
41 429 -0
42 429 -0
43 429 -0
44 429 -0
45 429 -0
46 429 -0
47 429 -0
48 429 -0
49 429 -0
50 429 -0
51 429 -0
52 429 -0
53 429 -0
54 429 -0
55 429 -0
56 429 -0
57 429 -0
58 429 -0
59 429 -0
60 429 -0
121 429 0
122 429 0
123 429 0
124 429 0
125 429 0
126 429 0
127 429 0
128 429 0
129 429 0
130 429 0
131 429 0
132 429 0
133 429 0
134 429 0
135 429 0
136 429 0
137 429 0
138 429 0
139 429 0
140 429 0
141 429 0
142 429 0
143 429 0
144 429 0
145 429 0
146 429 0
147 429 0
148 429 0
149 429 0
150 429 0
151 429 0
152 429 0
153 429 0
154 429 0
155 429 0
156 429 0
157 429 0
158 429 0
159 429 0
160 429 0
161 429 0
162 429 0
163 429 0
164 429 0
165 429 0
166 429 0
167 429 0
168 429 0
169 429 0
170 429 0
171 429 0
172 429 0
173 429 0
174 429 0
175 429 0
176 429 0
177 429 0.99716157836265906
178 429 0
179 429 0
180 429 0
1 430 -0
2 430 -0
3 430 -0
4 430 -0
5 430 -0
6 430 -0
7 430 -0
8 430 -0
9 430 -0
10 430 -0
11 430 -0
12 430 -0
13 430 -0
14 430 -0
15 430 -0
16 430 -0
17 430 -0
18 430 -0
19 430 -0
20 430 -0
21 430 -0
22 430 -0
23 430 -0
24 430 -0
25 430 -0
26 430 -0
27 430 -0
28 430 -0
29 430 -0
30 430 -0
31 430 -0
32 430 -0
33 430 -0
34 430 -0
35 430 -0
36 430 -0
37 430 -0
38 430 -0
39 430 -0
40 430 -0
41 430 -0
42 430 -0
43 430 -0
44 430 -0
45 430 -0
46 430 -0
47 430 -0
48 430 -0
49 430 -0
50 430 -0
51 430 -0
52 430 -0
53 430 -0
54 430 -0
55 430 -0
56 430 -0
57 430 -0
58 430 -0
59 430 -0
60 430 -0
121 430 0
122 430 0
123 430 0
124 430 0
125 430 0
126 430 0
127 430 0
128 430 0
129 430 0
130 430 0
131 430 0
132 430 0
133 430 0
134 430 0
135 430 0
136 430 0
137 430 0
138 430 0
139 430 0
140 430 0
141 430 0
142 430 0
143 430 0
144 430 0
145 430 0
146 430 0
147 430 0
148 430 0
149 430 0
150 430 0
151 430 0
152 430 0
153 430 0
154 430 0
155 430 0
156 430 0
157 430 0
158 430 0
159 430 0
160 430 0
161 430 0
162 430 0
163 430 0
164 430 0
165 430 0
166 430 0
167 430 0
168 430 0
169 430 0
170 430 0
171 430 0
172 430 0
173 430 0
174 430 0
175 430 0
176 430 0
177 430 0
178 430 0.99716157836265906
179 430 0
180 430 0
1 431 -0
2 431 -0
3 431 -0
4 431 -0
5 431 -0
6 431 -0
7 431 -0
8 431 -0
9 431 -0
10 431 -0
11 431 -0
12 431 -0
13 431 -0
14 431 -0
15 431 -0
16 431 -0
17 431 -0
18 431 -0
19 431 -0
20 431 -0
21 431 -0
22 431 -0
23 431 -0
24 431 -0
25 431 -0
26 431 -0
27 431 -0
28 431 -0
29 431 -0
30 431 -0
31 431 -0
32 431 -0
33 431 -0
34 431 -0
35 431 -0
36 431 -0
37 431 -0
38 431 -0
39 431 -0
40 431 -0
41 431 -0
42 431 -0
43 431 -0
44 431 -0
45 431 -0
46 431 -0
47 431 -0
48 431 -0
49 431 -0
50 431 -0
51 431 -0
52 431 -0
53 431 -0
54 431 -0
55 431 -0
56 431 -0
57 431 -0
58 431 -0
59 431 -0
60 431 -0
121 431 0
122 431 0
123 431 0
124 431 0
125 431 0
126 431 0
127 431 0
128 431 0
129 431 0
130 431 0
131 431 0
132 431 0
133 431 0
134 431 0
135 431 0
136 431 0
137 431 0
138 431 0
139 431 0
140 431 0
141 431 0
142 431 0
143 431 0
144 431 0
145 431 0
146 431 0
147 431 0
148 431 0
149 431 0
150 431 0
151 431 0
152 431 0
153 431 0
154 431 0
155 431 0
156 431 0
157 431 0
158 431 0
159 431 0
160 431 0
161 431 0
162 431 0
163 431 0
164 431 0
165 431 0
166 431 0
167 431 0
168 431 0
169 431 0
170 431 0
171 431 0
172 431 0
173 431 0
174 431 0
175 431 0
176 431 0
177 431 0
178 431 0
179 431 0.99716157836265906
180 431 0
1 432 -0
2 432 -0
3 432 -0
4 432 -0
5 432 -0
6 432 -0
7 432 -0
8 432 -0
9 432 -0
10 432 -0
11 432 -0
12 432 -0
13 432 -0
14 432 -0
15 432 -0
16 432 -0
17 432 -0
18 432 -0
19 432 -0
20 432 -0
21 432 -0
22 432 -0
23 432 -0
24 432 -0
25 432 -0
26 432 -0
27 432 -0
28 432 -0
29 432 -0
30 432 -0
31 432 -0
32 432 -0
33 432 -0
34 432 -0
35 432 -0
36 432 -0
37 432 -0
38 432 -0
39 432 -0
40 432 -0
41 432 -0
42 432 -0
43 432 -0
44 432 -0
45 432 -0
46 432 -0
47 432 -0
48 432 -0
49 432 -0
50 432 -0
51 432 -0
52 432 -0
53 432 -0
54 432 -0
55 432 -0
56 432 -0
57 432 -0
58 432 -0
59 432 -0
60 432 -0
121 432 0
122 432 0
123 432 0
124 432 0
125 432 0
126 432 0
127 432 0
128 432 0
129 432 0
130 432 0
131 432 0
132 432 0
133 432 0
134 432 0
135 432 0
136 432 0
137 432 0
138 432 0
139 432 0
140 432 0
141 432 0
142 432 0
143 432 0
144 432 0
145 432 0
146 432 0
147 432 0
148 432 0
149 432 0
150 432 0
151 432 0
152 432 0
153 432 0
154 432 0
155 432 0
156 432 0
157 432 0
158 432 0
159 432 0
160 432 0
161 432 0
162 432 0
163 432 0
164 432 0
165 432 0
166 432 0
167 432 0
168 432 0
169 432 0
170 432 0
171 432 0
172 432 0
173 432 0
174 432 0
175 432 0
176 432 0
177 432 0
178 432 0
179 432 0
180 432 0.99716157836265906
61 433 -0.33315053122735733
62 433 -0
63 433 -0
64 433 -0
65 433 -0
66 433 -0
67 433 -0
68 433 -0
69 433 -0
70 433 -0
71 433 -0
72 433 -0
73 433 -0
74 433 -0
75 433 -0
76 433 -0
77 433 -0
78 433 -0
79 433 -0
80 433 -0
81 433 -0
82 433 -0
83 433 -0
84 433 -0
85 433 -0
86 433 -0
87 433 -0
88 433 -0
89 433 -0
90 433 -0
91 433 -0
92 433 -0
93 433 -0
94 433 -0
95 433 -0
96 433 -0
97 433 -0
98 433 -0
99 433 -0
100 433 -0
101 433 -0
102 433 -0
103 433 -0
104 433 -0
105 433 -0
106 433 -0
107 433 -0
108 433 -0
109 433 -0
110 433 -0
111 433 -0
112 433 -0
113 433 -0
114 433 -0
115 433 -0
116 433 -0
117 433 -0
118 433 -0
119 433 -0
120 433 -0
181 433 0
182 433 0
183 433 0
184 433 0
185 433 0
186 433 0
187 433 0
188 433 0
189 433 0
190 433 0
191 433 0
192 433 0
193 433 0
194 433 0
195 433 0
196 433 0
197 433 0
198 433 0
199 433 0
200 433 0
201 433 0
202 433 0
203 433 0
204 433 0
205 433 0
206 433 0
207 433 0
208 433 0
209 433 0
210 433 0
211 433 0
212 433 0
213 433 0
214 433 0
215 433 0
216 433 0
217 433 0
218 433 0
219 433 0
220 433 0
221 433 0
222 433 0
223 433 0
224 433 0
225 433 0
226 433 0
227 433 0
228 433 0
229 433 0
230 433 0
231 433 0
232 433 0
233 433 0
234 433 0
235 433 0
236 433 0
237 433 0
238 433 0
239 433 0
240 433 0
61 434 -0
62 434 -0.33315053122735733
63 434 -0
64 434 -0
65 434 -0
66 434 -0
67 434 -0
68 434 -0
69 434 -0
70 434 -0
71 434 -0
72 434 -0
73 434 -0
74 434 -0
75 434 -0
76 434 -0
77 434 -0
78 434 -0
79 434 -0
80 434 -0
81 434 -0
82 434 -0
83 434 -0
84 434 -0
85 434 -0
86 434 -0
87 434 -0
88 434 -0
89 434 -0
90 434 -0
91 434 -0
92 434 -0
93 434 -0
94 434 -0
95 434 -0
96 434 -0
97 434 -0
98 434 -0
99 434 -0
100 434 -0
101 434 -0
102 434 -0
103 434 -0
104 434 -0
105 434 -0
106 434 -0
107 434 -0
108 434 -0
109 434 -0
110 434 -0
111 434 -0
112 434 -0
113 434 -0
114 434 -0
115 434 -0
116 434 -0
117 434 -0
118 434 -0
119 434 -0
120 434 -0
181 434 0
182 434 0
183 434 0
184 434 0
185 434 0
186 434 0
187 434 0
188 434 0
189 434 0
190 434 0
191 434 0
192 434 0
193 434 0
194 434 0
195 434 0
196 434 0
197 434 0
198 434 0
199 434 0
200 434 0
201 434 0
202 434 0
203 434 0
204 434 0
205 434 0
206 434 0
207 434 0
208 434 0
209 434 0
210 434 0
211 434 0
212 434 0
213 434 0
214 434 0
215 434 0
216 434 0
217 434 0
218 434 0
219 434 0
220 434 0
221 434 0
222 434 0
223 434 0
224 434 0
225 434 0
226 434 0
227 434 0
228 434 0
229 434 0
230 434 0
231 434 0
232 434 0
233 434 0
234 434 0
235 434 0
236 434 0
237 434 0
238 434 0
239 434 0
240 434 0
61 435 -0
62 435 -0
63 435 -0.33315053122735733
64 435 -0
65 435 -0
66 435 -0
67 435 -0
68 435 -0
69 435 -0
70 435 -0
71 435 -0
72 435 -0
73 435 -0
74 435 -0
75 435 -0
76 435 -0
77 435 -0
78 435 -0
79 435 -0
80 435 -0
81 435 -0
82 435 -0
83 435 -0
84 435 -0
85 435 -0
86 435 -0
87 435 -0
88 435 -0
89 435 -0
90 435 -0
91 435 -0
92 435 -0
93 435 -0
94 435 -0
95 435 -0
96 435 -0
97 435 -0
98 435 -0
99 435 -0
100 435 -0
101 435 -0
102 435 -0
103 435 -0
104 435 -0
105 435 -0
106 435 -0
107 435 -0
108 435 -0
109 435 -0
110 435 -0
111 435 -0
112 435 -0
113 435 -0
114 435 -0
115 435 -0
116 435 -0
117 435 -0
118 435 -0
119 435 -0
120 435 -0
181 435 0
182 435 0
183 435 0
184 435 0
185 435 0
186 435 0
187 435 0
188 435 0
189 435 0
190 435 0
191 435 0
192 435 0
193 435 0
194 435 0
195 435 0
196 435 0
197 435 0
198 435 0
199 435 0
200 435 0
201 435 0
202 435 0
203 435 0
204 435 0
205 435 0
206 435 0
207 435 0
208 435 0
209 435 0
210 435 0
211 435 0
212 435 0
213 435 0
214 435 0
215 435 0
216 435 0
217 435 0
218 435 0
219 435 0
220 435 0
221 435 0
222 435 0
223 435 0
224 435 0
225 435 0
226 435 0
227 435 0
228 435 0
229 435 0
230 435 0
231 435 0
232 435 0
233 435 0
234 435 0
235 435 0
236 435 0
237 435 0
238 435 0
239 435 0
240 435 0
61 436 -0
62 436 -0
63 436 -0
64 436 -0.33315053122735733
65 436 -0
66 436 -0
67 436 -0
68 436 -0
69 436 -0
70 436 -0
71 436 -0
72 436 -0
73 436 -0
74 436 -0
75 436 -0
76 436 -0
77 436 -0
78 436 -0
79 436 -0
80 436 -0
81 436 -0
82 436 -0
83 436 -0
84 436 -0
85 436 -0
86 436 -0
87 436 -0
88 436 -0
89 436 -0
90 436 -0
91 436 -0
92 436 -0
93 436 -0
94 436 -0
95 436 -0
96 436 -0
97 436 -0
98 436 -0
99 436 -0
100 436 -0
101 436 -0
102 436 -0
103 436 -0
104 436 -0
105 436 -0
106 436 -0
107 436 -0
108 436 -0
109 436 -0
110 436 -0
111 436 -0
112 436 -0
113 436 -0
114 436 -0
115 436 -0
116 436 -0
117 436 -0
118 436 -0
119 436 -0
120 436 -0
181 436 0
182 436 0
183 436 0
184 436 0
185 436 0
186 436 0
187 436 0
188 436 0
189 436 0
190 436 0
191 436 0
192 436 0
193 436 0
194 436 0
195 436 0
196 436 0
197 436 0
198 436 0
199 436 0
200 436 0
201 436 0
202 436 0
203 436 0
204 436 0
205 436 0
206 436 0
207 436 0
208 436 0
209 436 0
210 436 0
211 436 0
212 436 0
213 436 0
214 436 0
215 436 0
216 436 0
217 436 0
218 436 0
219 436 0
220 436 0
221 436 0
222 436 0
223 436 0
224 436 0
225 436 0
226 436 0
227 436 0
228 436 0
229 436 0
230 436 0
231 436 0
232 436 0
233 436 0
234 436 0
235 436 0
236 436 0
237 436 0
238 436 0
239 436 0
240 436 0
61 437 -0
62 437 -0
63 437 -0
64 437 -0
65 437 -0.33315053122735733
66 437 -0
67 437 -0
68 437 -0
69 437 -0
70 437 -0
71 437 -0
72 437 -0
73 437 -0
74 437 -0
75 437 -0
76 437 -0
77 437 -0
78 437 -0
79 437 -0
80 437 -0
81 437 -0
82 437 -0
83 437 -0
84 437 -0
85 437 -0
86 437 -0
87 437 -0
88 437 -0
89 437 -0
90 437 -0
91 437 -0
92 437 -0
93 437 -0
94 437 -0
95 437 -0
96 437 -0
97 437 -0
98 437 -0
99 437 -0
100 437 -0
101 437 -0
102 437 -0
103 437 -0
104 437 -0
105 437 -0
106 437 -0
107 437 -0
108 437 -0
109 437 -0
110 437 -0
111 437 -0
112 437 -0
113 437 -0
114 437 -0
115 437 -0
116 437 -0
117 437 -0
118 437 -0
119 437 -0
120 437 -0
181 437 0
182 437 0
183 437 0
184 437 0
185 437 0
186 437 0
187 437 0
188 437 0
189 437 0
190 437 0
191 437 0
192 437 0
193 437 0
194 437 0
195 437 0
196 437 0
197 437 0
198 437 0
199 437 0
200 437 0
201 437 0
202 437 0
203 437 0
204 437 0
205 437 0
206 437 0
207 437 0
208 437 0
209 437 0
210 437 0
211 437 0
212 437 0
213 437 0
214 437 0
215 437 0
216 437 0
217 437 0
218 437 0
219 437 0
220 437 0
221 437 0
222 437 0
223 437 0
224 437 0
225 437 0
226 437 0
227 437 0
228 437 0
229 437 0
230 437 0
231 437 0
232 437 0
233 437 0
234 437 0
235 437 0
236 437 0
237 437 0
238 437 0
239 437 0
240 437 0
61 438 -0
62 438 -0
63 438 -0
64 438 -0
65 438 -0
66 438 -0.33315053122735733
67 438 -0
68 438 -0
69 438 -0
70 438 -0
71 438 -0
72 438 -0
73 438 -0
74 438 -0
75 438 -0
76 438 -0
77 438 -0
78 438 -0
79 438 -0
80 438 -0
81 438 -0
82 438 -0
83 438 -0
84 438 -0
85 438 -0
86 438 -0
87 438 -0
88 438 -0
89 438 -0
90 438 -0
91 438 -0
92 438 -0
93 438 -0
94 438 -0
95 438 -0
96 438 -0
97 438 -0
98 438 -0
99 438 -0
100 438 -0
101 438 -0
102 438 -0
103 438 -0
104 438 -0
105 438 -0
106 438 -0
107 438 -0
108 438 -0
109 438 -0
110 438 -0
111 438 -0
112 438 -0
113 438 -0
114 438 -0
115 438 -0
116 438 -0
117 438 -0
118 438 -0
119 438 -0
120 438 -0
181 438 0
182 438 0
183 438 0
184 438 0
185 438 0
186 438 0
187 438 0
188 438 0
189 438 0
190 438 0
191 438 0
192 438 0
193 438 0
194 438 0
195 438 0
196 438 0
197 438 0
198 438 0
199 438 0
200 438 0
201 438 0
202 438 0
203 438 0
204 438 0
205 438 0
206 438 0
207 438 0
208 438 0
209 438 0
210 438 0
211 438 0
212 438 0
213 438 0
214 438 0
215 438 0
216 438 0
217 438 0
218 438 0
219 438 0
220 438 0
221 438 0
222 438 0
223 438 0
224 438 0
225 438 0
226 438 0
227 438 0
228 438 0
229 438 0
230 438 0
231 438 0
232 438 0
233 438 0
234 438 0
235 438 0
236 438 0
237 438 0
238 438 0
239 438 0
240 438 0
61 439 -0
62 439 -0
63 439 -0
64 439 -0
65 439 -0
66 439 -0
67 439 -0.33315053122735733
68 439 -0
69 439 -0
70 439 -0
71 439 -0
72 439 -0
73 439 -0
74 439 -0
75 439 -0
76 439 -0
77 439 -0
78 439 -0
79 439 -0
80 439 -0
81 439 -0
82 439 -0
83 439 -0
84 439 -0
85 439 -0
86 439 -0
87 439 -0
88 439 -0
89 439 -0
90 439 -0
91 439 -0
92 439 -0
93 439 -0
94 439 -0
95 439 -0
96 439 -0
97 439 -0
98 439 -0
99 439 -0
100 439 -0
101 439 -0
102 439 -0
103 439 -0
104 439 -0
105 439 -0
106 439 -0
107 439 -0
108 439 -0
109 439 -0
110 439 -0
111 439 -0
112 439 -0
113 439 -0
114 439 -0
115 439 -0
116 439 -0
117 439 -0
118 439 -0
119 439 -0
120 439 -0
181 439 0
182 439 0
183 439 0
184 439 0
185 439 0
186 439 0
187 439 0
188 439 0
189 439 0
190 439 0
191 439 0
192 439 0
193 439 0
194 439 0
195 439 0
196 439 0
197 439 0
198 439 0
199 439 0
200 439 0
201 439 0
202 439 0
203 439 0
204 439 0
205 439 0
206 439 0
207 439 0
208 439 0
209 439 0
210 439 0
211 439 0
212 439 0
213 439 0
214 439 0
215 439 0
216 439 0
217 439 0
218 439 0
219 439 0
220 439 0
221 439 0
222 439 0
223 439 0
224 439 0
225 439 0
226 439 0
227 439 0
228 439 0
229 439 0
230 439 0
231 439 0
232 439 0
233 439 0
234 439 0
235 439 0
236 439 0
237 439 0
238 439 0
239 439 0
240 439 0
61 440 -0
62 440 -0
63 440 -0
64 440 -0
65 440 -0
66 440 -0
67 440 -0
68 440 -0.33315053122735733
69 440 -0
70 440 -0
71 440 -0
72 440 -0
73 440 -0
74 440 -0
75 440 -0
76 440 -0
77 440 -0
78 440 -0
79 440 -0
80 440 -0
81 440 -0
82 440 -0
83 440 -0
84 440 -0
85 440 -0
86 440 -0
87 440 -0
88 440 -0
89 440 -0
90 440 -0
91 440 -0
92 440 -0
93 440 -0
94 440 -0
95 440 -0
96 440 -0
97 440 -0
98 440 -0
99 440 -0
100 440 -0
101 440 -0
102 440 -0
103 440 -0
104 440 -0
105 440 -0
106 440 -0
107 440 -0
108 440 -0
109 440 -0
110 440 -0
111 440 -0
112 440 -0
113 440 -0
114 440 -0
115 440 -0
116 440 -0
117 440 -0
118 440 -0
119 440 -0
120 440 -0
181 440 0.99509187132080212
182 440 0
183 440 0
184 440 0
185 440 0
186 440 0
187 440 0
188 440 0
189 440 0
190 440 0
191 440 0
192 440 0
193 440 0
194 440 0
195 440 0
196 440 0
197 440 0
198 440 0
199 440 0
200 440 0
201 440 0
202 440 0
203 440 0
204 440 0
205 440 0
206 440 0
207 440 0
208 440 0
209 440 0
210 440 0
211 440 0
212 440 0
213 440 0
214 440 0
215 440 0
216 440 0
217 440 0
218 440 0
219 440 0
220 440 0
221 440 0
222 440 0
223 440 0
224 440 0
225 440 0
226 440 0
227 440 0
228 440 0
229 440 0
230 440 0
231 440 0
232 440 0
233 440 0
234 440 0
235 440 0
236 440 0
237 440 0
238 440 0
239 440 0
240 440 0
61 441 -0
62 441 -0
63 441 -0
64 441 -0
65 441 -0
66 441 -0
67 441 -0
68 441 -0
69 441 -0.33315053122735733
70 441 -0
71 441 -0
72 441 -0
73 441 -0
74 441 -0
75 441 -0
76 441 -0
77 441 -0
78 441 -0
79 441 -0
80 441 -0
81 441 -0
82 441 -0
83 441 -0
84 441 -0
85 441 -0
86 441 -0
87 441 -0
88 441 -0
89 441 -0
90 441 -0
91 441 -0
92 441 -0
93 441 -0
94 441 -0
95 441 -0
96 441 -0
97 441 -0
98 441 -0
99 441 -0
100 441 -0
101 441 -0
102 441 -0
103 441 -0
104 441 -0
105 441 -0
106 441 -0
107 441 -0
108 441 -0
109 441 -0
110 441 -0
111 441 -0
112 441 -0
113 441 -0
114 441 -0
115 441 -0
116 441 -0
117 441 -0
118 441 -0
119 441 -0
120 441 -0
181 441 0
182 441 0.99509187132080212
183 441 0
184 441 0
185 441 0
186 441 0
187 441 0
188 441 0
189 441 0
190 441 0
191 441 0
192 441 0
193 441 0
194 441 0
195 441 0
196 441 0
197 441 0
198 441 0
199 441 0
200 441 0
201 441 0
202 441 0
203 441 0
204 441 0
205 441 0
206 441 0
207 441 0
208 441 0
209 441 0
210 441 0
211 441 0
212 441 0
213 441 0
214 441 0
215 441 0
216 441 0
217 441 0
218 441 0
219 441 0
220 441 0
221 441 0
222 441 0
223 441 0
224 441 0
225 441 0
226 441 0
227 441 0
228 441 0
229 441 0
230 441 0
231 441 0
232 441 0
233 441 0
234 441 0
235 441 0
236 441 0
237 441 0
238 441 0
239 441 0
240 441 0
61 442 -0
62 442 -0
63 442 -0
64 442 -0
65 442 -0
66 442 -0
67 442 -0
68 442 -0
69 442 -0
70 442 -0.33315053122735733
71 442 -0
72 442 -0
73 442 -0
74 442 -0
75 442 -0
76 442 -0
77 442 -0
78 442 -0
79 442 -0
80 442 -0
81 442 -0
82 442 -0
83 442 -0
84 442 -0
85 442 -0
86 442 -0
87 442 -0
88 442 -0
89 442 -0
90 442 -0
91 442 -0
92 442 -0
93 442 -0
94 442 -0
95 442 -0
96 442 -0
97 442 -0
98 442 -0
99 442 -0
100 442 -0
101 442 -0
102 442 -0
103 442 -0
104 442 -0
105 442 -0
106 442 -0
107 442 -0
108 442 -0
109 442 -0
110 442 -0
111 442 -0
112 442 -0
113 442 -0
114 442 -0
115 442 -0
116 442 -0
117 442 -0
118 442 -0
119 442 -0
120 442 -0
181 442 0
182 442 0
183 442 0.99509187132080212
184 442 0
185 442 0
186 442 0
187 442 0
188 442 0
189 442 0
190 442 0
191 442 0
192 442 0
193 442 0
194 442 0
195 442 0
196 442 0
197 442 0
198 442 0
199 442 0
200 442 0
201 442 0
202 442 0
203 442 0
204 442 0
205 442 0
206 442 0
207 442 0
208 442 0
209 442 0
210 442 0
211 442 0
212 442 0
213 442 0
214 442 0
215 442 0
216 442 0
217 442 0
218 442 0
219 442 0
220 442 0
221 442 0
222 442 0
223 442 0
224 442 0
225 442 0
226 442 0
227 442 0
228 442 0
229 442 0
230 442 0
231 442 0
232 442 0
233 442 0
234 442 0
235 442 0
236 442 0
237 442 0
238 442 0
239 442 0
240 442 0
61 443 -0
62 443 -0
63 443 -0
64 443 -0
65 443 -0
66 443 -0
67 443 -0
68 443 -0
69 443 -0
70 443 -0
71 443 -0.33315053122735733
72 443 -0
73 443 -0
74 443 -0
75 443 -0
76 443 -0
77 443 -0
78 443 -0
79 443 -0
80 443 -0
81 443 -0
82 443 -0
83 443 -0
84 443 -0
85 443 -0
86 443 -0
87 443 -0
88 443 -0
89 443 -0
90 443 -0
91 443 -0
92 443 -0
93 443 -0
94 443 -0
95 443 -0
96 443 -0
97 443 -0
98 443 -0
99 443 -0
100 443 -0
101 443 -0
102 443 -0
103 443 -0
104 443 -0
105 443 -0
106 443 -0
107 443 -0
108 443 -0
109 443 -0
110 443 -0
111 443 -0
112 443 -0
113 443 -0
114 443 -0
115 443 -0
116 443 -0
117 443 -0
118 443 -0
119 443 -0
120 443 -0
181 443 0
182 443 0
183 443 0
184 443 0.99509187132080212
185 443 0
186 443 0
187 443 0
188 443 0
189 443 0
190 443 0
191 443 0
192 443 0
193 443 0
194 443 0
195 443 0
196 443 0
197 443 0
198 443 0
199 443 0
200 443 0
201 443 0
202 443 0
203 443 0
204 443 0
205 443 0
206 443 0
207 443 0
208 443 0
209 443 0
210 443 0
211 443 0
212 443 0
213 443 0
214 443 0
215 443 0
216 443 0
217 443 0
218 443 0
219 443 0
220 443 0
221 443 0
222 443 0
223 443 0
224 443 0
225 443 0
226 443 0
227 443 0
228 443 0
229 443 0
230 443 0
231 443 0
232 443 0
233 443 0
234 443 0
235 443 0
236 443 0
237 443 0
238 443 0
239 443 0
240 443 0
61 444 -0
62 444 -0
63 444 -0
64 444 -0
65 444 -0
66 444 -0
67 444 -0
68 444 -0
69 444 -0
70 444 -0
71 444 -0
72 444 -0.33315053122735733
73 444 -0
74 444 -0
75 444 -0
76 444 -0
77 444 -0
78 444 -0
79 444 -0
80 444 -0
81 444 -0
82 444 -0
83 444 -0
84 444 -0
85 444 -0
86 444 -0
87 444 -0
88 444 -0
89 444 -0
90 444 -0
91 444 -0
92 444 -0
93 444 -0
94 444 -0
95 444 -0
96 444 -0
97 444 -0
98 444 -0
99 444 -0
100 444 -0
101 444 -0
102 444 -0
103 444 -0
104 444 -0
105 444 -0
106 444 -0
107 444 -0
108 444 -0
109 444 -0
110 444 -0
111 444 -0
112 444 -0
113 444 -0
114 444 -0
115 444 -0
116 444 -0
117 444 -0
118 444 -0
119 444 -0
120 444 -0
181 444 0
182 444 0
183 444 0
184 444 0
185 444 0.99509187132080212
186 444 0
187 444 0
188 444 0
189 444 0
190 444 0
191 444 0
192 444 0
193 444 0
194 444 0
195 444 0
196 444 0
197 444 0
198 444 0
199 444 0
200 444 0
201 444 0
202 444 0
203 444 0
204 444 0
205 444 0
206 444 0
207 444 0
208 444 0
209 444 0
210 444 0
211 444 0
212 444 0
213 444 0
214 444 0
215 444 0
216 444 0
217 444 0
218 444 0
219 444 0
220 444 0
221 444 0
222 444 0
223 444 0
224 444 0
225 444 0
226 444 0
227 444 0
228 444 0
229 444 0
230 444 0
231 444 0
232 444 0
233 444 0
234 444 0
235 444 0
236 444 0
237 444 0
238 444 0
239 444 0
240 444 0
61 445 -0
62 445 -0
63 445 -0
64 445 -0
65 445 -0
66 445 -0
67 445 -0
68 445 -0
69 445 -0
70 445 -0
71 445 -0
72 445 -0
73 445 -0.33315053122735733
74 445 -0
75 445 -0
76 445 -0
77 445 -0
78 445 -0
79 445 -0
80 445 -0
81 445 -0
82 445 -0
83 445 -0
84 445 -0
85 445 -0
86 445 -0
87 445 -0
88 445 -0
89 445 -0
90 445 -0
91 445 -0
92 445 -0
93 445 -0
94 445 -0
95 445 -0
96 445 -0
97 445 -0
98 445 -0
99 445 -0
100 445 -0
101 445 -0
102 445 -0
103 445 -0
104 445 -0
105 445 -0
106 445 -0
107 445 -0
108 445 -0
109 445 -0
110 445 -0
111 445 -0
112 445 -0
113 445 -0
114 445 -0
115 445 -0
116 445 -0
117 445 -0
118 445 -0
119 445 -0
120 445 -0
181 445 0
182 445 0
183 445 0
184 445 0
185 445 0
186 445 0
187 445 0
188 445 0
189 445 0
190 445 0
191 445 0
192 445 0
193 445 0
194 445 0
195 445 0
196 445 0
197 445 0
198 445 0
199 445 0
200 445 0
201 445 0
202 445 0
203 445 0
204 445 0
205 445 0
206 445 0
207 445 0
208 445 0
209 445 0
210 445 0
211 445 0
212 445 0
213 445 0
214 445 0
215 445 0
216 445 0
217 445 0
218 445 0
219 445 0
220 445 0
221 445 0
222 445 0
223 445 0
224 445 0
225 445 0
226 445 0
227 445 0
228 445 0
229 445 0
230 445 0
231 445 0
232 445 0
233 445 0
234 445 0
235 445 0
236 445 0
237 445 0
238 445 0
239 445 0
240 445 0
61 446 -0
62 446 -0
63 446 -0
64 446 -0
65 446 -0
66 446 -0
67 446 -0
68 446 -0
69 446 -0
70 446 -0
71 446 -0
72 446 -0
73 446 -0
74 446 -0.33315053122735733
75 446 -0
76 446 -0
77 446 -0
78 446 -0
79 446 -0
80 446 -0
81 446 -0
82 446 -0
83 446 -0
84 446 -0
85 446 -0
86 446 -0
87 446 -0
88 446 -0
89 446 -0
90 446 -0
91 446 -0
92 446 -0
93 446 -0
94 446 -0
95 446 -0
96 446 -0
97 446 -0
98 446 -0
99 446 -0
100 446 -0
101 446 -0
102 446 -0
103 446 -0
104 446 -0
105 446 -0
106 446 -0
107 446 -0
108 446 -0
109 446 -0
110 446 -0
111 446 -0
112 446 -0
113 446 -0
114 446 -0
115 446 -0
116 446 -0
117 446 -0
118 446 -0
119 446 -0
120 446 -0
181 446 0
182 446 0
183 446 0
184 446 0
185 446 0
186 446 0
187 446 0
188 446 0
189 446 0
190 446 0
191 446 0
192 446 0
193 446 0
194 446 0
195 446 0
196 446 0
197 446 0
198 446 0
199 446 0
200 446 0
201 446 0
202 446 0
203 446 0
204 446 0
205 446 0
206 446 0
207 446 0
208 446 0
209 446 0
210 446 0
211 446 0
212 446 0
213 446 0
214 446 0
215 446 0
216 446 0
217 446 0
218 446 0
219 446 0
220 446 0
221 446 0
222 446 0
223 446 0
224 446 0
225 446 0
226 446 0
227 446 0
228 446 0
229 446 0
230 446 0
231 446 0
232 446 0
233 446 0
234 446 0
235 446 0
236 446 0
237 446 0
238 446 0
239 446 0
240 446 0
61 447 -0
62 447 -0
63 447 -0
64 447 -0
65 447 -0
66 447 -0
67 447 -0
68 447 -0
69 447 -0
70 447 -0
71 447 -0
72 447 -0
73 447 -0
74 447 -0
75 447 -0.33315053122735733
76 447 -0
77 447 -0
78 447 -0
79 447 -0
80 447 -0
81 447 -0
82 447 -0
83 447 -0
84 447 -0
85 447 -0
86 447 -0
87 447 -0
88 447 -0
89 447 -0
90 447 -0
91 447 -0
92 447 -0
93 447 -0
94 447 -0
95 447 -0
96 447 -0
97 447 -0
98 447 -0
99 447 -0
100 447 -0
101 447 -0
102 447 -0
103 447 -0
104 447 -0
105 447 -0
106 447 -0
107 447 -0
108 447 -0
109 447 -0
110 447 -0
111 447 -0
112 447 -0
113 447 -0
114 447 -0
115 447 -0
116 447 -0
117 447 -0
118 447 -0
119 447 -0
120 447 -0
181 447 0
182 447 0
183 447 0
184 447 0
185 447 0
186 447 0
187 447 0
188 447 0
189 447 0
190 447 0
191 447 0
192 447 0
193 447 0
194 447 0
195 447 0
196 447 0
197 447 0
198 447 0
199 447 0
200 447 0
201 447 0
202 447 0
203 447 0
204 447 0
205 447 0
206 447 0
207 447 0
208 447 0
209 447 0
210 447 0
211 447 0
212 447 0
213 447 0
214 447 0
215 447 0
216 447 0
217 447 0
218 447 0
219 447 0
220 447 0
221 447 0
222 447 0
223 447 0
224 447 0
225 447 0
226 447 0
227 447 0
228 447 0
229 447 0
230 447 0
231 447 0
232 447 0
233 447 0
234 447 0
235 447 0
236 447 0
237 447 0
238 447 0
239 447 0
240 447 0
61 448 -0
62 448 -0
63 448 -0
64 448 -0
65 448 -0
66 448 -0
67 448 -0
68 448 -0
69 448 -0
70 448 -0
71 448 -0
72 448 -0
73 448 -0
74 448 -0
75 448 -0
76 448 -0.33315053122735733
77 448 -0
78 448 -0
79 448 -0
80 448 -0
81 448 -0
82 448 -0
83 448 -0
84 448 -0
85 448 -0
86 448 -0
87 448 -0
88 448 -0
89 448 -0
90 448 -0
91 448 -0
92 448 -0
93 448 -0
94 448 -0
95 448 -0
96 448 -0
97 448 -0
98 448 -0
99 448 -0
100 448 -0
101 448 -0
102 448 -0
103 448 -0
104 448 -0
105 448 -0
106 448 -0
107 448 -0
108 448 -0
109 448 -0
110 448 -0
111 448 -0
112 448 -0
113 448 -0
114 448 -0
115 448 -0
116 448 -0
117 448 -0
118 448 -0
119 448 -0
120 448 -0
181 448 0
182 448 0
183 448 0
184 448 0
185 448 0
186 448 0
187 448 0
188 448 0
189 448 0
190 448 0
191 448 0
192 448 0
193 448 0
194 448 0
195 448 0
196 448 0
197 448 0
198 448 0
199 448 0
200 448 0
201 448 0
202 448 0
203 448 0
204 448 0
205 448 0
206 448 0
207 448 0
208 448 0
209 448 0
210 448 0
211 448 0
212 448 0
213 448 0
214 448 0
215 448 0
216 448 0
217 448 0
218 448 0
219 448 0
220 448 0
221 448 0
222 448 0
223 448 0
224 448 0
225 448 0
226 448 0
227 448 0
228 448 0
229 448 0
230 448 0
231 448 0
232 448 0
233 448 0
234 448 0
235 448 0
236 448 0
237 448 0
238 448 0
239 448 0
240 448 0
61 449 -0
62 449 -0
63 449 -0
64 449 -0
65 449 -0
66 449 -0
67 449 -0
68 449 -0
69 449 -0
70 449 -0
71 449 -0
72 449 -0
73 449 -0
74 449 -0
75 449 -0
76 449 -0
77 449 -0.33315053122735733
78 449 -0
79 449 -0
80 449 -0
81 449 -0
82 449 -0
83 449 -0
84 449 -0
85 449 -0
86 449 -0
87 449 -0
88 449 -0
89 449 -0
90 449 -0
91 449 -0
92 449 -0
93 449 -0
94 449 -0
95 449 -0
96 449 -0
97 449 -0
98 449 -0
99 449 -0
100 449 -0
101 449 -0
102 449 -0
103 449 -0
104 449 -0
105 449 -0
106 449 -0
107 449 -0
108 449 -0
109 449 -0
110 449 -0
111 449 -0
112 449 -0
113 449 -0
114 449 -0
115 449 -0
116 449 -0
117 449 -0
118 449 -0
119 449 -0
120 449 -0
181 449 0
182 449 0
183 449 0
184 449 0
185 449 0
186 449 0
187 449 0
188 449 0
189 449 0
190 449 0
191 449 0
192 449 0
193 449 0
194 449 0
195 449 0
196 449 0
197 449 0
198 449 0
199 449 0
200 449 0
201 449 0
202 449 0
203 449 0
204 449 0
205 449 0
206 449 0
207 449 0
208 449 0
209 449 0
210 449 0
211 449 0
212 449 0
213 449 0
214 449 0
215 449 0
216 449 0
217 449 0
218 449 0
219 449 0
220 449 0
221 449 0
222 449 0
223 449 0
224 449 0
225 449 0
226 449 0
227 449 0
228 449 0
229 449 0
230 449 0
231 449 0
232 449 0
233 449 0
234 449 0
235 449 0
236 449 0
237 449 0
238 449 0
239 449 0
240 449 0
61 450 -0
62 450 -0
63 450 -0
64 450 -0
65 450 -0
66 450 -0
67 450 -0
68 450 -0
69 450 -0
70 450 -0
71 450 -0
72 450 -0
73 450 -0
74 450 -0
75 450 -0
76 450 -0
77 450 -0
78 450 -0.33315053122735733
79 450 -0
80 450 -0
81 450 -0
82 450 -0
83 450 -0
84 450 -0
85 450 -0
86 450 -0
87 450 -0
88 450 -0
89 450 -0
90 450 -0
91 450 -0
92 450 -0
93 450 -0
94 450 -0
95 450 -0
96 450 -0
97 450 -0
98 450 -0
99 450 -0
100 450 -0
101 450 -0
102 450 -0
103 450 -0
104 450 -0
105 450 -0
106 450 -0
107 450 -0
108 450 -0
109 450 -0
110 450 -0
111 450 -0
112 450 -0
113 450 -0
114 450 -0
115 450 -0
116 450 -0
117 450 -0
118 450 -0
119 450 -0
120 450 -0
181 450 0
182 450 0
183 450 0
184 450 0
185 450 0
186 450 0
187 450 0
188 450 0
189 450 0
190 450 0
191 450 0
192 450 0
193 450 0
194 450 0
195 450 0
196 450 0
197 450 0
198 450 0
199 450 0
200 450 0
201 450 0
202 450 0
203 450 0
204 450 0
205 450 0
206 450 0
207 450 0
208 450 0
209 450 0
210 450 0
211 450 0
212 450 0
213 450 0
214 450 0
215 450 0
216 450 0
217 450 0
218 450 0
219 450 0
220 450 0
221 450 0
222 450 0
223 450 0
224 450 0
225 450 0
226 450 0
227 450 0
228 450 0
229 450 0
230 450 0
231 450 0
232 450 0
233 450 0
234 450 0
235 450 0
236 450 0
237 450 0
238 450 0
239 450 0
240 450 0
61 451 -0
62 451 -0
63 451 -0
64 451 -0
65 451 -0
66 451 -0
67 451 -0
68 451 -0
69 451 -0
70 451 -0
71 451 -0
72 451 -0
73 451 -0
74 451 -0
75 451 -0
76 451 -0
77 451 -0
78 451 -0
79 451 -0.33315053122735733
80 451 -0
81 451 -0
82 451 -0
83 451 -0
84 451 -0
85 451 -0
86 451 -0
87 451 -0
88 451 -0
89 451 -0
90 451 -0
91 451 -0
92 451 -0
93 451 -0
94 451 -0
95 451 -0
96 451 -0
97 451 -0
98 451 -0
99 451 -0
100 451 -0
101 451 -0
102 451 -0
103 451 -0
104 451 -0
105 451 -0
106 451 -0
107 451 -0
108 451 -0
109 451 -0
110 451 -0
111 451 -0
112 451 -0
113 451 -0
114 451 -0
115 451 -0
116 451 -0
117 451 -0
118 451 -0
119 451 -0
120 451 -0
181 451 0
182 451 0
183 451 0
184 451 0
185 451 0
186 451 0
187 451 0
188 451 0
189 451 0
190 451 0
191 451 0
192 451 0
193 451 0
194 451 0
195 451 0
196 451 0
197 451 0
198 451 0
199 451 0
200 451 0
201 451 0
202 451 0
203 451 0
204 451 0
205 451 0
206 451 0
207 451 0
208 451 0
209 451 0
210 451 0
211 451 0
212 451 0
213 451 0
214 451 0
215 451 0
216 451 0
217 451 0
218 451 0
219 451 0
220 451 0
221 451 0
222 451 0
223 451 0
224 451 0
225 451 0
226 451 0
227 451 0
228 451 0
229 451 0
230 451 0
231 451 0
232 451 0
233 451 0
234 451 0
235 451 0
236 451 0
237 451 0
238 451 0
239 451 0
240 451 0
61 452 -0
62 452 -0
63 452 -0
64 452 -0
65 452 -0
66 452 -0
67 452 -0
68 452 -0
69 452 -0
70 452 -0
71 452 -0
72 452 -0
73 452 -0
74 452 -0
75 452 -0
76 452 -0
77 452 -0
78 452 -0
79 452 -0
80 452 -0.33315053122735733
81 452 -0
82 452 -0
83 452 -0
84 452 -0
85 452 -0
86 452 -0
87 452 -0
88 452 -0
89 452 -0
90 452 -0
91 452 -0
92 452 -0
93 452 -0
94 452 -0
95 452 -0
96 452 -0
97 452 -0
98 452 -0
99 452 -0
100 452 -0
101 452 -0
102 452 -0
103 452 -0
104 452 -0
105 452 -0
106 452 -0
107 452 -0
108 452 -0
109 452 -0
110 452 -0
111 452 -0
112 452 -0
113 452 -0
114 452 -0
115 452 -0
116 452 -0
117 452 -0
118 452 -0
119 452 -0
120 452 -0
181 452 0
182 452 0
183 452 0
184 452 0
185 452 0
186 452 0.99509187132080212
187 452 0
188 452 0
189 452 0
190 452 0
191 452 0
192 452 0
193 452 0
194 452 0
195 452 0
196 452 0
197 452 0
198 452 0
199 452 0
200 452 0
201 452 0
202 452 0
203 452 0
204 452 0
205 452 0
206 452 0
207 452 0
208 452 0
209 452 0
210 452 0
211 452 0
212 452 0
213 452 0
214 452 0
215 452 0
216 452 0
217 452 0
218 452 0
219 452 0
220 452 0
221 452 0
222 452 0
223 452 0
224 452 0
225 452 0
226 452 0
227 452 0
228 452 0
229 452 0
230 452 0
231 452 0
232 452 0
233 452 0
234 452 0
235 452 0
236 452 0
237 452 0
238 452 0
239 452 0
240 452 0
61 453 -0
62 453 -0
63 453 -0
64 453 -0
65 453 -0
66 453 -0
67 453 -0
68 453 -0
69 453 -0
70 453 -0
71 453 -0
72 453 -0
73 453 -0
74 453 -0
75 453 -0
76 453 -0
77 453 -0
78 453 -0
79 453 -0
80 453 -0
81 453 -0.33315053122735733
82 453 -0
83 453 -0
84 453 -0
85 453 -0
86 453 -0
87 453 -0
88 453 -0
89 453 -0
90 453 -0
91 453 -0
92 453 -0
93 453 -0
94 453 -0
95 453 -0
96 453 -0
97 453 -0
98 453 -0
99 453 -0
100 453 -0
101 453 -0
102 453 -0
103 453 -0
104 453 -0
105 453 -0
106 453 -0
107 453 -0
108 453 -0
109 453 -0
110 453 -0
111 453 -0
112 453 -0
113 453 -0
114 453 -0
115 453 -0
116 453 -0
117 453 -0
118 453 -0
119 453 -0
120 453 -0
181 453 0
182 453 0
183 453 0
184 453 0
185 453 0
186 453 0
187 453 0.99509187132080212
188 453 0
189 453 0
190 453 0
191 453 0
192 453 0
193 453 0
194 453 0
195 453 0
196 453 0
197 453 0
198 453 0
199 453 0
200 453 0
201 453 0
202 453 0
203 453 0
204 453 0
205 453 0
206 453 0
207 453 0
208 453 0
209 453 0
210 453 0
211 453 0
212 453 0
213 453 0
214 453 0
215 453 0
216 453 0
217 453 0
218 453 0
219 453 0
220 453 0
221 453 0
222 453 0
223 453 0
224 453 0
225 453 0
226 453 0
227 453 0
228 453 0
229 453 0
230 453 0
231 453 0
232 453 0
233 453 0
234 453 0
235 453 0
236 453 0
237 453 0
238 453 0
239 453 0
240 453 0
61 454 -0
62 454 -0
63 454 -0
64 454 -0
65 454 -0
66 454 -0
67 454 -0
68 454 -0
69 454 -0
70 454 -0
71 454 -0
72 454 -0
73 454 -0
74 454 -0
75 454 -0
76 454 -0
77 454 -0
78 454 -0
79 454 -0
80 454 -0
81 454 -0
82 454 -0.33315053122735733
83 454 -0
84 454 -0
85 454 -0
86 454 -0
87 454 -0
88 454 -0
89 454 -0
90 454 -0
91 454 -0
92 454 -0
93 454 -0
94 454 -0
95 454 -0
96 454 -0
97 454 -0
98 454 -0
99 454 -0
100 454 -0
101 454 -0
102 454 -0
103 454 -0
104 454 -0
105 454 -0
106 454 -0
107 454 -0
108 454 -0
109 454 -0
110 454 -0
111 454 -0
112 454 -0
113 454 -0
114 454 -0
115 454 -0
116 454 -0
117 454 -0
118 454 -0
119 454 -0
120 454 -0
181 454 0
182 454 0
183 454 0
184 454 0
185 454 0
186 454 0
187 454 0
188 454 0.99509187132080212
189 454 0
190 454 0
191 454 0
192 454 0
193 454 0
194 454 0
195 454 0
196 454 0
197 454 0
198 454 0
199 454 0
200 454 0
201 454 0
202 454 0
203 454 0
204 454 0
205 454 0
206 454 0
207 454 0
208 454 0
209 454 0
210 454 0
211 454 0
212 454 0
213 454 0
214 454 0
215 454 0
216 454 0
217 454 0
218 454 0
219 454 0
220 454 0
221 454 0
222 454 0
223 454 0
224 454 0
225 454 0
226 454 0
227 454 0
228 454 0
229 454 0
230 454 0
231 454 0
232 454 0
233 454 0
234 454 0
235 454 0
236 454 0
237 454 0
238 454 0
239 454 0
240 454 0
61 455 -0
62 455 -0
63 455 -0
64 455 -0
65 455 -0
66 455 -0
67 455 -0
68 455 -0
69 455 -0
70 455 -0
71 455 -0
72 455 -0
73 455 -0
74 455 -0
75 455 -0
76 455 -0
77 455 -0
78 455 -0
79 455 -0
80 455 -0
81 455 -0
82 455 -0
83 455 -0.33315053122735733
84 455 -0
85 455 -0
86 455 -0
87 455 -0
88 455 -0
89 455 -0
90 455 -0
91 455 -0
92 455 -0
93 455 -0
94 455 -0
95 455 -0
96 455 -0
97 455 -0
98 455 -0
99 455 -0
100 455 -0
101 455 -0
102 455 -0
103 455 -0
104 455 -0
105 455 -0
106 455 -0
107 455 -0
108 455 -0
109 455 -0
110 455 -0
111 455 -0
112 455 -0
113 455 -0
114 455 -0
115 455 -0
116 455 -0
117 455 -0
118 455 -0
119 455 -0
120 455 -0
181 455 0
182 455 0
183 455 0
184 455 0
185 455 0
186 455 0
187 455 0
188 455 0
189 455 0.99509187132080212
190 455 0
191 455 0
192 455 0
193 455 0
194 455 0
195 455 0
196 455 0
197 455 0
198 455 0
199 455 0
200 455 0
201 455 0
202 455 0
203 455 0
204 455 0
205 455 0
206 455 0
207 455 0
208 455 0
209 455 0
210 455 0
211 455 0
212 455 0
213 455 0
214 455 0
215 455 0
216 455 0
217 455 0
218 455 0
219 455 0
220 455 0
221 455 0
222 455 0
223 455 0
224 455 0
225 455 0
226 455 0
227 455 0
228 455 0
229 455 0
230 455 0
231 455 0
232 455 0
233 455 0
234 455 0
235 455 0
236 455 0
237 455 0
238 455 0
239 455 0
240 455 0
61 456 -0
62 456 -0
63 456 -0
64 456 -0
65 456 -0
66 456 -0
67 456 -0
68 456 -0
69 456 -0
70 456 -0
71 456 -0
72 456 -0
73 456 -0
74 456 -0
75 456 -0
76 456 -0
77 456 -0
78 456 -0
79 456 -0
80 456 -0
81 456 -0
82 456 -0
83 456 -0
84 456 -0.33315053122735733
85 456 -0
86 456 -0
87 456 -0
88 456 -0
89 456 -0
90 456 -0
91 456 -0
92 456 -0
93 456 -0
94 456 -0
95 456 -0
96 456 -0
97 456 -0
98 456 -0
99 456 -0
100 456 -0
101 456 -0
102 456 -0
103 456 -0
104 456 -0
105 456 -0
106 456 -0
107 456 -0
108 456 -0
109 456 -0
110 456 -0
111 456 -0
112 456 -0
113 456 -0
114 456 -0
115 456 -0
116 456 -0
117 456 -0
118 456 -0
119 456 -0
120 456 -0
181 456 0
182 456 0
183 456 0
184 456 0
185 456 0
186 456 0
187 456 0
188 456 0
189 456 0
190 456 0.99509187132080212
191 456 0
192 456 0
193 456 0
194 456 0
195 456 0
196 456 0
197 456 0
198 456 0
199 456 0
200 456 0
201 456 0
202 456 0
203 456 0
204 456 0
205 456 0
206 456 0
207 456 0
208 456 0
209 456 0
210 456 0
211 456 0
212 456 0
213 456 0
214 456 0
215 456 0
216 456 0
217 456 0
218 456 0
219 456 0
220 456 0
221 456 0
222 456 0
223 456 0
224 456 0
225 456 0
226 456 0
227 456 0
228 456 0
229 456 0
230 456 0
231 456 0
232 456 0
233 456 0
234 456 0
235 456 0
236 456 0
237 456 0
238 456 0
239 456 0
240 456 0
61 457 -0
62 457 -0
63 457 -0
64 457 -0
65 457 -0
66 457 -0
67 457 -0
68 457 -0
69 457 -0
70 457 -0
71 457 -0
72 457 -0
73 457 -0
74 457 -0
75 457 -0
76 457 -0
77 457 -0
78 457 -0
79 457 -0
80 457 -0
81 457 -0
82 457 -0
83 457 -0
84 457 -0
85 457 -0.33315053122735733
86 457 -0
87 457 -0
88 457 -0
89 457 -0
90 457 -0
91 457 -0
92 457 -0
93 457 -0
94 457 -0
95 457 -0
96 457 -0
97 457 -0
98 457 -0
99 457 -0
100 457 -0
101 457 -0
102 457 -0
103 457 -0
104 457 -0
105 457 -0
106 457 -0
107 457 -0
108 457 -0
109 457 -0
110 457 -0
111 457 -0
112 457 -0
113 457 -0
114 457 -0
115 457 -0
116 457 -0
117 457 -0
118 457 -0
119 457 -0
120 457 -0
181 457 0
182 457 0
183 457 0
184 457 0
185 457 0
186 457 0
187 457 0
188 457 0
189 457 0
190 457 0
191 457 0
192 457 0
193 457 0
194 457 0
195 457 0
196 457 0
197 457 0
198 457 0
199 457 0
200 457 0
201 457 0
202 457 0
203 457 0
204 457 0
205 457 0
206 457 0
207 457 0
208 457 0
209 457 0
210 457 0
211 457 0
212 457 0
213 457 0
214 457 0
215 457 0
216 457 0
217 457 0
218 457 0
219 457 0
220 457 0
221 457 0
222 457 0
223 457 0
224 457 0
225 457 0
226 457 0
227 457 0
228 457 0
229 457 0
230 457 0
231 457 0
232 457 0
233 457 0
234 457 0
235 457 0
236 457 0
237 457 0
238 457 0
239 457 0
240 457 0
61 458 -0
62 458 -0
63 458 -0
64 458 -0
65 458 -0
66 458 -0
67 458 -0
68 458 -0
69 458 -0
70 458 -0
71 458 -0
72 458 -0
73 458 -0
74 458 -0
75 458 -0
76 458 -0
77 458 -0
78 458 -0
79 458 -0
80 458 -0
81 458 -0
82 458 -0
83 458 -0
84 458 -0
85 458 -0
86 458 -0.33315053122735733
87 458 -0
88 458 -0
89 458 -0
90 458 -0
91 458 -0
92 458 -0
93 458 -0
94 458 -0
95 458 -0
96 458 -0
97 458 -0
98 458 -0
99 458 -0
100 458 -0
101 458 -0
102 458 -0
103 458 -0
104 458 -0
105 458 -0
106 458 -0
107 458 -0
108 458 -0
109 458 -0
110 458 -0
111 458 -0
112 458 -0
113 458 -0
114 458 -0
115 458 -0
116 458 -0
117 458 -0
118 458 -0
119 458 -0
120 458 -0
181 458 0
182 458 0
183 458 0
184 458 0
185 458 0
186 458 0
187 458 0
188 458 0
189 458 0
190 458 0
191 458 0
192 458 0
193 458 0
194 458 0
195 458 0
196 458 0
197 458 0
198 458 0
199 458 0
200 458 0
201 458 0
202 458 0
203 458 0
204 458 0
205 458 0
206 458 0
207 458 0
208 458 0
209 458 0
210 458 0
211 458 0
212 458 0
213 458 0
214 458 0
215 458 0
216 458 0
217 458 0
218 458 0
219 458 0
220 458 0
221 458 0
222 458 0
223 458 0
224 458 0
225 458 0
226 458 0
227 458 0
228 458 0
229 458 0
230 458 0
231 458 0
232 458 0
233 458 0
234 458 0
235 458 0
236 458 0
237 458 0
238 458 0
239 458 0
240 458 0
61 459 -0
62 459 -0
63 459 -0
64 459 -0
65 459 -0
66 459 -0
67 459 -0
68 459 -0
69 459 -0
70 459 -0
71 459 -0
72 459 -0
73 459 -0
74 459 -0
75 459 -0
76 459 -0
77 459 -0
78 459 -0
79 459 -0
80 459 -0
81 459 -0
82 459 -0
83 459 -0
84 459 -0
85 459 -0
86 459 -0
87 459 -0.33315053122735733
88 459 -0
89 459 -0
90 459 -0
91 459 -0
92 459 -0
93 459 -0
94 459 -0
95 459 -0
96 459 -0
97 459 -0
98 459 -0
99 459 -0
100 459 -0
101 459 -0
102 459 -0
103 459 -0
104 459 -0
105 459 -0
106 459 -0
107 459 -0
108 459 -0
109 459 -0
110 459 -0
111 459 -0
112 459 -0
113 459 -0
114 459 -0
115 459 -0
116 459 -0
117 459 -0
118 459 -0
119 459 -0
120 459 -0
181 459 0
182 459 0
183 459 0
184 459 0
185 459 0
186 459 0
187 459 0
188 459 0
189 459 0
190 459 0
191 459 0
192 459 0
193 459 0
194 459 0
195 459 0
196 459 0
197 459 0
198 459 0
199 459 0
200 459 0
201 459 0
202 459 0
203 459 0
204 459 0
205 459 0
206 459 0
207 459 0
208 459 0
209 459 0
210 459 0
211 459 0
212 459 0
213 459 0
214 459 0
215 459 0
216 459 0
217 459 0
218 459 0
219 459 0
220 459 0
221 459 0
222 459 0
223 459 0
224 459 0
225 459 0
226 459 0
227 459 0
228 459 0
229 459 0
230 459 0
231 459 0
232 459 0
233 459 0
234 459 0
235 459 0
236 459 0
237 459 0
238 459 0
239 459 0
240 459 0
61 460 -0
62 460 -0
63 460 -0
64 460 -0
65 460 -0
66 460 -0
67 460 -0
68 460 -0
69 460 -0
70 460 -0
71 460 -0
72 460 -0
73 460 -0
74 460 -0
75 460 -0
76 460 -0
77 460 -0
78 460 -0
79 460 -0
80 460 -0
81 460 -0
82 460 -0
83 460 -0
84 460 -0
85 460 -0
86 460 -0
87 460 -0
88 460 -0.33315053122735733
89 460 -0
90 460 -0
91 460 -0
92 460 -0
93 460 -0
94 460 -0
95 460 -0
96 460 -0
97 460 -0
98 460 -0
99 460 -0
100 460 -0
101 460 -0
102 460 -0
103 460 -0
104 460 -0
105 460 -0
106 460 -0
107 460 -0
108 460 -0
109 460 -0
110 460 -0
111 460 -0
112 460 -0
113 460 -0
114 460 -0
115 460 -0
116 460 -0
117 460 -0
118 460 -0
119 460 -0
120 460 -0
181 460 0
182 460 0
183 460 0
184 460 0
185 460 0
186 460 0
187 460 0
188 460 0
189 460 0
190 460 0
191 460 0
192 460 0
193 460 0
194 460 0
195 460 0
196 460 0
197 460 0
198 460 0
199 460 0
200 460 0
201 460 0
202 460 0
203 460 0
204 460 0
205 460 0
206 460 0
207 460 0
208 460 0
209 460 0
210 460 0
211 460 0
212 460 0
213 460 0
214 460 0
215 460 0
216 460 0
217 460 0
218 460 0
219 460 0
220 460 0
221 460 0
222 460 0
223 460 0
224 460 0
225 460 0
226 460 0
227 460 0
228 460 0
229 460 0
230 460 0
231 460 0
232 460 0
233 460 0
234 460 0
235 460 0
236 460 0
237 460 0
238 460 0
239 460 0
240 460 0
61 461 -0
62 461 -0
63 461 -0
64 461 -0
65 461 -0
66 461 -0
67 461 -0
68 461 -0
69 461 -0
70 461 -0
71 461 -0
72 461 -0
73 461 -0
74 461 -0
75 461 -0
76 461 -0
77 461 -0
78 461 -0
79 461 -0
80 461 -0
81 461 -0
82 461 -0
83 461 -0
84 461 -0
85 461 -0
86 461 -0
87 461 -0
88 461 -0
89 461 -0.33315053122735733
90 461 -0
91 461 -0
92 461 -0
93 461 -0
94 461 -0
95 461 -0
96 461 -0
97 461 -0
98 461 -0
99 461 -0
100 461 -0
101 461 -0
102 461 -0
103 461 -0
104 461 -0
105 461 -0
106 461 -0
107 461 -0
108 461 -0
109 461 -0
110 461 -0
111 461 -0
112 461 -0
113 461 -0
114 461 -0
115 461 -0
116 461 -0
117 461 -0
118 461 -0
119 461 -0
120 461 -0
181 461 0
182 461 0
183 461 0
184 461 0
185 461 0
186 461 0
187 461 0
188 461 0
189 461 0
190 461 0
191 461 0
192 461 0
193 461 0
194 461 0
195 461 0
196 461 0
197 461 0
198 461 0
199 461 0
200 461 0
201 461 0
202 461 0
203 461 0
204 461 0
205 461 0
206 461 0
207 461 0
208 461 0
209 461 0
210 461 0
211 461 0
212 461 0
213 461 0
214 461 0
215 461 0
216 461 0
217 461 0
218 461 0
219 461 0
220 461 0
221 461 0
222 461 0
223 461 0
224 461 0
225 461 0
226 461 0
227 461 0
228 461 0
229 461 0
230 461 0
231 461 0
232 461 0
233 461 0
234 461 0
235 461 0
236 461 0
237 461 0
238 461 0
239 461 0
240 461 0
61 462 -0
62 462 -0
63 462 -0
64 462 -0
65 462 -0
66 462 -0
67 462 -0
68 462 -0
69 462 -0
70 462 -0
71 462 -0
72 462 -0
73 462 -0
74 462 -0
75 462 -0
76 462 -0
77 462 -0
78 462 -0
79 462 -0
80 462 -0
81 462 -0
82 462 -0
83 462 -0
84 462 -0
85 462 -0
86 462 -0
87 462 -0
88 462 -0
89 462 -0
90 462 -0.33315053122735733
91 462 -0
92 462 -0
93 462 -0
94 462 -0
95 462 -0
96 462 -0
97 462 -0
98 462 -0
99 462 -0
100 462 -0
101 462 -0
102 462 -0
103 462 -0
104 462 -0
105 462 -0
106 462 -0
107 462 -0
108 462 -0
109 462 -0
110 462 -0
111 462 -0
112 462 -0
113 462 -0
114 462 -0
115 462 -0
116 462 -0
117 462 -0
118 462 -0
119 462 -0
120 462 -0
181 462 0
182 462 0
183 462 0
184 462 0
185 462 0
186 462 0
187 462 0
188 462 0
189 462 0
190 462 0
191 462 0
192 462 0
193 462 0
194 462 0
195 462 0
196 462 0
197 462 0
198 462 0
199 462 0
200 462 0
201 462 0
202 462 0
203 462 0
204 462 0
205 462 0
206 462 0
207 462 0
208 462 0
209 462 0
210 462 0
211 462 0
212 462 0
213 462 0
214 462 0
215 462 0
216 462 0
217 462 0
218 462 0
219 462 0
220 462 0
221 462 0
222 462 0
223 462 0
224 462 0
225 462 0
226 462 0
227 462 0
228 462 0
229 462 0
230 462 0
231 462 0
232 462 0
233 462 0
234 462 0
235 462 0
236 462 0
237 462 0
238 462 0
239 462 0
240 462 0
61 463 -0
62 463 -0
63 463 -0
64 463 -0
65 463 -0
66 463 -0
67 463 -0
68 463 -0
69 463 -0
70 463 -0
71 463 -0
72 463 -0
73 463 -0
74 463 -0
75 463 -0
76 463 -0
77 463 -0
78 463 -0
79 463 -0
80 463 -0
81 463 -0
82 463 -0
83 463 -0
84 463 -0
85 463 -0
86 463 -0
87 463 -0
88 463 -0
89 463 -0
90 463 -0
91 463 -0.33315053122735733
92 463 -0
93 463 -0
94 463 -0
95 463 -0
96 463 -0
97 463 -0
98 463 -0
99 463 -0
100 463 -0
101 463 -0
102 463 -0
103 463 -0
104 463 -0
105 463 -0
106 463 -0
107 463 -0
108 463 -0
109 463 -0
110 463 -0
111 463 -0
112 463 -0
113 463 -0
114 463 -0
115 463 -0
116 463 -0
117 463 -0
118 463 -0
119 463 -0
120 463 -0
181 463 0
182 463 0
183 463 0
184 463 0
185 463 0
186 463 0
187 463 0
188 463 0
189 463 0
190 463 0
191 463 0
192 463 0
193 463 0
194 463 0
195 463 0
196 463 0
197 463 0
198 463 0
199 463 0
200 463 0
201 463 0
202 463 0
203 463 0
204 463 0
205 463 0
206 463 0
207 463 0
208 463 0
209 463 0
210 463 0
211 463 0
212 463 0
213 463 0
214 463 0
215 463 0
216 463 0
217 463 0
218 463 0
219 463 0
220 463 0
221 463 0
222 463 0
223 463 0
224 463 0
225 463 0
226 463 0
227 463 0
228 463 0
229 463 0
230 463 0
231 463 0
232 463 0
233 463 0
234 463 0
235 463 0
236 463 0
237 463 0
238 463 0
239 463 0
240 463 0
61 464 -0
62 464 -0
63 464 -0
64 464 -0
65 464 -0
66 464 -0
67 464 -0
68 464 -0
69 464 -0
70 464 -0
71 464 -0
72 464 -0
73 464 -0
74 464 -0
75 464 -0
76 464 -0
77 464 -0
78 464 -0
79 464 -0
80 464 -0
81 464 -0
82 464 -0
83 464 -0
84 464 -0
85 464 -0
86 464 -0
87 464 -0
88 464 -0
89 464 -0
90 464 -0
91 464 -0
92 464 -0.33315053122735733
93 464 -0
94 464 -0
95 464 -0
96 464 -0
97 464 -0
98 464 -0
99 464 -0
100 464 -0
101 464 -0
102 464 -0
103 464 -0
104 464 -0
105 464 -0
106 464 -0
107 464 -0
108 464 -0
109 464 -0
110 464 -0
111 464 -0
112 464 -0
113 464 -0
114 464 -0
115 464 -0
116 464 -0
117 464 -0
118 464 -0
119 464 -0
120 464 -0
181 464 0
182 464 0
183 464 0
184 464 0
185 464 0
186 464 0
187 464 0
188 464 0
189 464 0
190 464 0
191 464 0.99509187132080212
192 464 0
193 464 0
194 464 0
195 464 0
196 464 0
197 464 0
198 464 0
199 464 0
200 464 0
201 464 0
202 464 0
203 464 0
204 464 0
205 464 0
206 464 0
207 464 0
208 464 0
209 464 0
210 464 0
211 464 0
212 464 0
213 464 0
214 464 0
215 464 0
216 464 0
217 464 0
218 464 0
219 464 0
220 464 0
221 464 0
222 464 0
223 464 0
224 464 0
225 464 0
226 464 0
227 464 0
228 464 0
229 464 0
230 464 0
231 464 0
232 464 0
233 464 0
234 464 0
235 464 0
236 464 0
237 464 0
238 464 0
239 464 0
240 464 0
61 465 -0
62 465 -0
63 465 -0
64 465 -0
65 465 -0
66 465 -0
67 465 -0
68 465 -0
69 465 -0
70 465 -0
71 465 -0
72 465 -0
73 465 -0
74 465 -0
75 465 -0
76 465 -0
77 465 -0
78 465 -0
79 465 -0
80 465 -0
81 465 -0
82 465 -0
83 465 -0
84 465 -0
85 465 -0
86 465 -0
87 465 -0
88 465 -0
89 465 -0
90 465 -0
91 465 -0
92 465 -0
93 465 -0.33315053122735733
94 465 -0
95 465 -0
96 465 -0
97 465 -0
98 465 -0
99 465 -0
100 465 -0
101 465 -0
102 465 -0
103 465 -0
104 465 -0
105 465 -0
106 465 -0
107 465 -0
108 465 -0
109 465 -0
110 465 -0
111 465 -0
112 465 -0
113 465 -0
114 465 -0
115 465 -0
116 465 -0
117 465 -0
118 465 -0
119 465 -0
120 465 -0
181 465 0
182 465 0
183 465 0
184 465 0
185 465 0
186 465 0
187 465 0
188 465 0
189 465 0
190 465 0
191 465 0
192 465 0.99509187132080212
193 465 0
194 465 0
195 465 0
196 465 0
197 465 0
198 465 0
199 465 0
200 465 0
201 465 0
202 465 0
203 465 0
204 465 0
205 465 0
206 465 0
207 465 0
208 465 0
209 465 0
210 465 0
211 465 0
212 465 0
213 465 0
214 465 0
215 465 0
216 465 0
217 465 0
218 465 0
219 465 0
220 465 0
221 465 0
222 465 0
223 465 0
224 465 0
225 465 0
226 465 0
227 465 0
228 465 0
229 465 0
230 465 0
231 465 0
232 465 0
233 465 0
234 465 0
235 465 0
236 465 0
237 465 0
238 465 0
239 465 0
240 465 0
61 466 -0
62 466 -0
63 466 -0
64 466 -0
65 466 -0
66 466 -0
67 466 -0
68 466 -0
69 466 -0
70 466 -0
71 466 -0
72 466 -0
73 466 -0
74 466 -0
75 466 -0
76 466 -0
77 466 -0
78 466 -0
79 466 -0
80 466 -0
81 466 -0
82 466 -0
83 466 -0
84 466 -0
85 466 -0
86 466 -0
87 466 -0
88 466 -0
89 466 -0
90 466 -0
91 466 -0
92 466 -0
93 466 -0
94 466 -0.33315053122735733
95 466 -0
96 466 -0
97 466 -0
98 466 -0
99 466 -0
100 466 -0
101 466 -0
102 466 -0
103 466 -0
104 466 -0
105 466 -0
106 466 -0
107 466 -0
108 466 -0
109 466 -0
110 466 -0
111 466 -0
112 466 -0
113 466 -0
114 466 -0
115 466 -0
116 466 -0
117 466 -0
118 466 -0
119 466 -0
120 466 -0
181 466 0
182 466 0
183 466 0
184 466 0
185 466 0
186 466 0
187 466 0
188 466 0
189 466 0
190 466 0
191 466 0
192 466 0
193 466 0.99509187132080212
194 466 0
195 466 0
196 466 0
197 466 0
198 466 0
199 466 0
200 466 0
201 466 0
202 466 0
203 466 0
204 466 0
205 466 0
206 466 0
207 466 0
208 466 0
209 466 0
210 466 0
211 466 0
212 466 0
213 466 0
214 466 0
215 466 0
216 466 0
217 466 0
218 466 0
219 466 0
220 466 0
221 466 0
222 466 0
223 466 0
224 466 0
225 466 0
226 466 0
227 466 0
228 466 0
229 466 0
230 466 0
231 466 0
232 466 0
233 466 0
234 466 0
235 466 0
236 466 0
237 466 0
238 466 0
239 466 0
240 466 0
61 467 -0
62 467 -0
63 467 -0
64 467 -0
65 467 -0
66 467 -0
67 467 -0
68 467 -0
69 467 -0
70 467 -0
71 467 -0
72 467 -0
73 467 -0
74 467 -0
75 467 -0
76 467 -0
77 467 -0
78 467 -0
79 467 -0
80 467 -0
81 467 -0
82 467 -0
83 467 -0
84 467 -0
85 467 -0
86 467 -0
87 467 -0
88 467 -0
89 467 -0
90 467 -0
91 467 -0
92 467 -0
93 467 -0
94 467 -0
95 467 -0.33315053122735733
96 467 -0
97 467 -0
98 467 -0
99 467 -0
100 467 -0
101 467 -0
102 467 -0
103 467 -0
104 467 -0
105 467 -0
106 467 -0
107 467 -0
108 467 -0
109 467 -0
110 467 -0
111 467 -0
112 467 -0
113 467 -0
114 467 -0
115 467 -0
116 467 -0
117 467 -0
118 467 -0
119 467 -0
120 467 -0
181 467 0
182 467 0
183 467 0
184 467 0
185 467 0
186 467 0
187 467 0
188 467 0
189 467 0
190 467 0
191 467 0
192 467 0
193 467 0
194 467 0.99509187132080212
195 467 0
196 467 0
197 467 0
198 467 0
199 467 0
200 467 0
201 467 0
202 467 0
203 467 0
204 467 0
205 467 0
206 467 0
207 467 0
208 467 0
209 467 0
210 467 0
211 467 0
212 467 0
213 467 0
214 467 0
215 467 0
216 467 0
217 467 0
218 467 0
219 467 0
220 467 0
221 467 0
222 467 0
223 467 0
224 467 0
225 467 0
226 467 0
227 467 0
228 467 0
229 467 0
230 467 0
231 467 0
232 467 0
233 467 0
234 467 0
235 467 0
236 467 0
237 467 0
238 467 0
239 467 0
240 467 0
61 468 -0
62 468 -0
63 468 -0
64 468 -0
65 468 -0
66 468 -0
67 468 -0
68 468 -0
69 468 -0
70 468 -0
71 468 -0
72 468 -0
73 468 -0
74 468 -0
75 468 -0
76 468 -0
77 468 -0
78 468 -0
79 468 -0
80 468 -0
81 468 -0
82 468 -0
83 468 -0
84 468 -0
85 468 -0
86 468 -0
87 468 -0
88 468 -0
89 468 -0
90 468 -0
91 468 -0
92 468 -0
93 468 -0
94 468 -0
95 468 -0
96 468 -0.33315053122735733
97 468 -0
98 468 -0
99 468 -0
100 468 -0
101 468 -0
102 468 -0
103 468 -0
104 468 -0
105 468 -0
106 468 -0
107 468 -0
108 468 -0
109 468 -0
110 468 -0
111 468 -0
112 468 -0
113 468 -0
114 468 -0
115 468 -0
116 468 -0
117 468 -0
118 468 -0
119 468 -0
120 468 -0
181 468 0
182 468 0
183 468 0
184 468 0
185 468 0
186 468 0
187 468 0
188 468 0
189 468 0
190 468 0
191 468 0
192 468 0
193 468 0
194 468 0
195 468 0.99509187132080212
196 468 0
197 468 0
198 468 0
199 468 0
200 468 0
201 468 0
202 468 0
203 468 0
204 468 0
205 468 0
206 468 0
207 468 0
208 468 0
209 468 0
210 468 0
211 468 0
212 468 0
213 468 0
214 468 0
215 468 0
216 468 0
217 468 0
218 468 0
219 468 0
220 468 0
221 468 0
222 468 0
223 468 0
224 468 0
225 468 0
226 468 0
227 468 0
228 468 0
229 468 0
230 468 0
231 468 0
232 468 0
233 468 0
234 468 0
235 468 0
236 468 0
237 468 0
238 468 0
239 468 0
240 468 0
61 469 -0
62 469 -0
63 469 -0
64 469 -0
65 469 -0
66 469 -0
67 469 -0
68 469 -0
69 469 -0
70 469 -0
71 469 -0
72 469 -0
73 469 -0
74 469 -0
75 469 -0
76 469 -0
77 469 -0
78 469 -0
79 469 -0
80 469 -0
81 469 -0
82 469 -0
83 469 -0
84 469 -0
85 469 -0
86 469 -0
87 469 -0
88 469 -0
89 469 -0
90 469 -0
91 469 -0
92 469 -0
93 469 -0
94 469 -0
95 469 -0
96 469 -0
97 469 -0.33315053122735733
98 469 -0
99 469 -0
100 469 -0
101 469 -0
102 469 -0
103 469 -0
104 469 -0
105 469 -0
106 469 -0
107 469 -0
108 469 -0
109 469 -0
110 469 -0
111 469 -0
112 469 -0
113 469 -0
114 469 -0
115 469 -0
116 469 -0
117 469 -0
118 469 -0
119 469 -0
120 469 -0
181 469 0
182 469 0
183 469 0
184 469 0
185 469 0
186 469 0
187 469 0
188 469 0
189 469 0
190 469 0
191 469 0
192 469 0
193 469 0
194 469 0
195 469 0
196 469 0
197 469 0
198 469 0
199 469 0
200 469 0
201 469 0
202 469 0
203 469 0
204 469 0
205 469 0
206 469 0
207 469 0
208 469 0
209 469 0
210 469 0
211 469 0
212 469 0
213 469 0
214 469 0
215 469 0
216 469 0
217 469 0
218 469 0
219 469 0
220 469 0
221 469 0
222 469 0
223 469 0
224 469 0
225 469 0
226 469 0
227 469 0
228 469 0
229 469 0
230 469 0
231 469 0
232 469 0
233 469 0
234 469 0
235 469 0
236 469 0
237 469 0
238 469 0
239 469 0
240 469 0
61 470 -0
62 470 -0
63 470 -0
64 470 -0
65 470 -0
66 470 -0
67 470 -0
68 470 -0
69 470 -0
70 470 -0
71 470 -0
72 470 -0
73 470 -0
74 470 -0
75 470 -0
76 470 -0
77 470 -0
78 470 -0
79 470 -0
80 470 -0
81 470 -0
82 470 -0
83 470 -0
84 470 -0
85 470 -0
86 470 -0
87 470 -0
88 470 -0
89 470 -0
90 470 -0
91 470 -0
92 470 -0
93 470 -0
94 470 -0
95 470 -0
96 470 -0
97 470 -0
98 470 -0.33315053122735733
99 470 -0
100 470 -0
101 470 -0
102 470 -0
103 470 -0
104 470 -0
105 470 -0
106 470 -0
107 470 -0
108 470 -0
109 470 -0
110 470 -0
111 470 -0
112 470 -0
113 470 -0
114 470 -0
115 470 -0
116 470 -0
117 470 -0
118 470 -0
119 470 -0
120 470 -0
181 470 0
182 470 0
183 470 0
184 470 0
185 470 0
186 470 0
187 470 0
188 470 0
189 470 0
190 470 0
191 470 0
192 470 0
193 470 0
194 470 0
195 470 0
196 470 0
197 470 0
198 470 0
199 470 0
200 470 0
201 470 0
202 470 0
203 470 0
204 470 0
205 470 0
206 470 0
207 470 0
208 470 0
209 470 0
210 470 0
211 470 0
212 470 0
213 470 0
214 470 0
215 470 0
216 470 0
217 470 0
218 470 0
219 470 0
220 470 0
221 470 0
222 470 0
223 470 0
224 470 0
225 470 0
226 470 0
227 470 0
228 470 0
229 470 0
230 470 0
231 470 0
232 470 0
233 470 0
234 470 0
235 470 0
236 470 0
237 470 0
238 470 0
239 470 0
240 470 0
61 471 -0
62 471 -0
63 471 -0
64 471 -0
65 471 -0
66 471 -0
67 471 -0
68 471 -0
69 471 -0
70 471 -0
71 471 -0
72 471 -0
73 471 -0
74 471 -0
75 471 -0
76 471 -0
77 471 -0
78 471 -0
79 471 -0
80 471 -0
81 471 -0
82 471 -0
83 471 -0
84 471 -0
85 471 -0
86 471 -0
87 471 -0
88 471 -0
89 471 -0
90 471 -0
91 471 -0
92 471 -0
93 471 -0
94 471 -0
95 471 -0
96 471 -0
97 471 -0
98 471 -0
99 471 -0.33315053122735733
100 471 -0
101 471 -0
102 471 -0
103 471 -0
104 471 -0
105 471 -0
106 471 -0
107 471 -0
108 471 -0
109 471 -0
110 471 -0
111 471 -0
112 471 -0
113 471 -0
114 471 -0
115 471 -0
116 471 -0
117 471 -0
118 471 -0
119 471 -0
120 471 -0
181 471 0
182 471 0
183 471 0
184 471 0
185 471 0
186 471 0
187 471 0
188 471 0
189 471 0
190 471 0
191 471 0
192 471 0
193 471 0
194 471 0
195 471 0
196 471 0
197 471 0
198 471 0
199 471 0
200 471 0
201 471 0
202 471 0
203 471 0
204 471 0
205 471 0
206 471 0
207 471 0
208 471 0
209 471 0
210 471 0
211 471 0
212 471 0
213 471 0
214 471 0
215 471 0
216 471 0
217 471 0
218 471 0
219 471 0
220 471 0
221 471 0
222 471 0
223 471 0
224 471 0
225 471 0
226 471 0
227 471 0
228 471 0
229 471 0
230 471 0
231 471 0
232 471 0
233 471 0
234 471 0
235 471 0
236 471 0
237 471 0
238 471 0
239 471 0
240 471 0
61 472 -0
62 472 -0
63 472 -0
64 472 -0
65 472 -0
66 472 -0
67 472 -0
68 472 -0
69 472 -0
70 472 -0
71 472 -0
72 472 -0
73 472 -0
74 472 -0
75 472 -0
76 472 -0
77 472 -0
78 472 -0
79 472 -0
80 472 -0
81 472 -0
82 472 -0
83 472 -0
84 472 -0
85 472 -0
86 472 -0
87 472 -0
88 472 -0
89 472 -0
90 472 -0
91 472 -0
92 472 -0
93 472 -0
94 472 -0
95 472 -0
96 472 -0
97 472 -0
98 472 -0
99 472 -0
100 472 -0.33315053122735733
101 472 -0
102 472 -0
103 472 -0
104 472 -0
105 472 -0
106 472 -0
107 472 -0
108 472 -0
109 472 -0
110 472 -0
111 472 -0
112 472 -0
113 472 -0
114 472 -0
115 472 -0
116 472 -0
117 472 -0
118 472 -0
119 472 -0
120 472 -0
181 472 0
182 472 0
183 472 0
184 472 0
185 472 0
186 472 0
187 472 0
188 472 0
189 472 0
190 472 0
191 472 0
192 472 0
193 472 0
194 472 0
195 472 0
196 472 0
197 472 0
198 472 0
199 472 0
200 472 0
201 472 0
202 472 0
203 472 0
204 472 0
205 472 0
206 472 0
207 472 0
208 472 0
209 472 0
210 472 0
211 472 0
212 472 0
213 472 0
214 472 0
215 472 0
216 472 0
217 472 0
218 472 0
219 472 0
220 472 0
221 472 0
222 472 0
223 472 0
224 472 0
225 472 0
226 472 0
227 472 0
228 472 0
229 472 0
230 472 0
231 472 0
232 472 0
233 472 0
234 472 0
235 472 0
236 472 0
237 472 0
238 472 0
239 472 0
240 472 0
61 473 -0
62 473 -0
63 473 -0
64 473 -0
65 473 -0
66 473 -0
67 473 -0
68 473 -0
69 473 -0
70 473 -0
71 473 -0
72 473 -0
73 473 -0
74 473 -0
75 473 -0
76 473 -0
77 473 -0
78 473 -0
79 473 -0
80 473 -0
81 473 -0
82 473 -0
83 473 -0
84 473 -0
85 473 -0
86 473 -0
87 473 -0
88 473 -0
89 473 -0
90 473 -0
91 473 -0
92 473 -0
93 473 -0
94 473 -0
95 473 -0
96 473 -0
97 473 -0
98 473 -0
99 473 -0
100 473 -0
101 473 -0.33315053122735733
102 473 -0
103 473 -0
104 473 -0
105 473 -0
106 473 -0
107 473 -0
108 473 -0
109 473 -0
110 473 -0
111 473 -0
112 473 -0
113 473 -0
114 473 -0
115 473 -0
116 473 -0
117 473 -0
118 473 -0
119 473 -0
120 473 -0
181 473 0
182 473 0
183 473 0
184 473 0
185 473 0
186 473 0
187 473 0
188 473 0
189 473 0
190 473 0
191 473 0
192 473 0
193 473 0
194 473 0
195 473 0
196 473 0
197 473 0
198 473 0
199 473 0
200 473 0
201 473 0
202 473 0
203 473 0
204 473 0
205 473 0
206 473 0
207 473 0
208 473 0
209 473 0
210 473 0
211 473 0
212 473 0
213 473 0
214 473 0
215 473 0
216 473 0
217 473 0
218 473 0
219 473 0
220 473 0
221 473 0
222 473 0
223 473 0
224 473 0
225 473 0
226 473 0
227 473 0
228 473 0
229 473 0
230 473 0
231 473 0
232 473 0
233 473 0
234 473 0
235 473 0
236 473 0
237 473 0
238 473 0
239 473 0
240 473 0
61 474 -0
62 474 -0
63 474 -0
64 474 -0
65 474 -0
66 474 -0
67 474 -0
68 474 -0
69 474 -0
70 474 -0
71 474 -0
72 474 -0
73 474 -0
74 474 -0
75 474 -0
76 474 -0
77 474 -0
78 474 -0
79 474 -0
80 474 -0
81 474 -0
82 474 -0
83 474 -0
84 474 -0
85 474 -0
86 474 -0
87 474 -0
88 474 -0
89 474 -0
90 474 -0
91 474 -0
92 474 -0
93 474 -0
94 474 -0
95 474 -0
96 474 -0
97 474 -0
98 474 -0
99 474 -0
100 474 -0
101 474 -0
102 474 -0.33315053122735733
103 474 -0
104 474 -0
105 474 -0
106 474 -0
107 474 -0
108 474 -0
109 474 -0
110 474 -0
111 474 -0
112 474 -0
113 474 -0
114 474 -0
115 474 -0
116 474 -0
117 474 -0
118 474 -0
119 474 -0
120 474 -0
181 474 0
182 474 0
183 474 0
184 474 0
185 474 0
186 474 0
187 474 0
188 474 0
189 474 0
190 474 0
191 474 0
192 474 0
193 474 0
194 474 0
195 474 0
196 474 0
197 474 0
198 474 0
199 474 0
200 474 0
201 474 0
202 474 0
203 474 0
204 474 0
205 474 0
206 474 0
207 474 0
208 474 0
209 474 0
210 474 0
211 474 0
212 474 0
213 474 0
214 474 0
215 474 0
216 474 0
217 474 0
218 474 0
219 474 0
220 474 0
221 474 0
222 474 0
223 474 0
224 474 0
225 474 0
226 474 0
227 474 0
228 474 0
229 474 0
230 474 0
231 474 0
232 474 0
233 474 0
234 474 0
235 474 0
236 474 0
237 474 0
238 474 0
239 474 0
240 474 0
61 475 -0
62 475 -0
63 475 -0
64 475 -0
65 475 -0
66 475 -0
67 475 -0
68 475 -0
69 475 -0
70 475 -0
71 475 -0
72 475 -0
73 475 -0
74 475 -0
75 475 -0
76 475 -0
77 475 -0
78 475 -0
79 475 -0
80 475 -0
81 475 -0
82 475 -0
83 475 -0
84 475 -0
85 475 -0
86 475 -0
87 475 -0
88 475 -0
89 475 -0
90 475 -0
91 475 -0
92 475 -0
93 475 -0
94 475 -0
95 475 -0
96 475 -0
97 475 -0
98 475 -0
99 475 -0
100 475 -0
101 475 -0
102 475 -0
103 475 -0.33315053122735733
104 475 -0
105 475 -0
106 475 -0
107 475 -0
108 475 -0
109 475 -0
110 475 -0
111 475 -0
112 475 -0
113 475 -0
114 475 -0
115 475 -0
116 475 -0
117 475 -0
118 475 -0
119 475 -0
120 475 -0
181 475 0
182 475 0
183 475 0
184 475 0
185 475 0
186 475 0
187 475 0
188 475 0
189 475 0
190 475 0
191 475 0
192 475 0
193 475 0
194 475 0
195 475 0
196 475 0
197 475 0
198 475 0
199 475 0
200 475 0
201 475 0
202 475 0
203 475 0
204 475 0
205 475 0
206 475 0
207 475 0
208 475 0
209 475 0
210 475 0
211 475 0
212 475 0
213 475 0
214 475 0
215 475 0
216 475 0
217 475 0
218 475 0
219 475 0
220 475 0
221 475 0
222 475 0
223 475 0
224 475 0
225 475 0
226 475 0
227 475 0
228 475 0
229 475 0
230 475 0
231 475 0
232 475 0
233 475 0
234 475 0
235 475 0
236 475 0
237 475 0
238 475 0
239 475 0
240 475 0
61 476 -0
62 476 -0
63 476 -0
64 476 -0
65 476 -0
66 476 -0
67 476 -0
68 476 -0
69 476 -0
70 476 -0
71 476 -0
72 476 -0
73 476 -0
74 476 -0
75 476 -0
76 476 -0
77 476 -0
78 476 -0
79 476 -0
80 476 -0
81 476 -0
82 476 -0
83 476 -0
84 476 -0
85 476 -0
86 476 -0
87 476 -0
88 476 -0
89 476 -0
90 476 -0
91 476 -0
92 476 -0
93 476 -0
94 476 -0
95 476 -0
96 476 -0
97 476 -0
98 476 -0
99 476 -0
100 476 -0
101 476 -0
102 476 -0
103 476 -0
104 476 -0.33315053122735733
105 476 -0
106 476 -0
107 476 -0
108 476 -0
109 476 -0
110 476 -0
111 476 -0
112 476 -0
113 476 -0
114 476 -0
115 476 -0
116 476 -0
117 476 -0
118 476 -0
119 476 -0
120 476 -0
181 476 0
182 476 0
183 476 0
184 476 0
185 476 0
186 476 0
187 476 0
188 476 0
189 476 0
190 476 0
191 476 0
192 476 0
193 476 0
194 476 0
195 476 0
196 476 0.99509187132080212
197 476 0
198 476 0
199 476 0
200 476 0
201 476 0
202 476 0
203 476 0
204 476 0
205 476 0
206 476 0
207 476 0
208 476 0
209 476 0
210 476 0
211 476 0
212 476 0
213 476 0
214 476 0
215 476 0
216 476 0
217 476 0
218 476 0
219 476 0
220 476 0
221 476 0
222 476 0
223 476 0
224 476 0
225 476 0
226 476 0
227 476 0
228 476 0
229 476 0
230 476 0
231 476 0
232 476 0
233 476 0
234 476 0
235 476 0
236 476 0
237 476 0
238 476 0
239 476 0
240 476 0
61 477 -0
62 477 -0
63 477 -0
64 477 -0
65 477 -0
66 477 -0
67 477 -0
68 477 -0
69 477 -0
70 477 -0
71 477 -0
72 477 -0
73 477 -0
74 477 -0
75 477 -0
76 477 -0
77 477 -0
78 477 -0
79 477 -0
80 477 -0
81 477 -0
82 477 -0
83 477 -0
84 477 -0
85 477 -0
86 477 -0
87 477 -0
88 477 -0
89 477 -0
90 477 -0
91 477 -0
92 477 -0
93 477 -0
94 477 -0
95 477 -0
96 477 -0
97 477 -0
98 477 -0
99 477 -0
100 477 -0
101 477 -0
102 477 -0
103 477 -0
104 477 -0
105 477 -0.33315053122735733
106 477 -0
107 477 -0
108 477 -0
109 477 -0
110 477 -0
111 477 -0
112 477 -0
113 477 -0
114 477 -0
115 477 -0
116 477 -0
117 477 -0
118 477 -0
119 477 -0
120 477 -0
181 477 0
182 477 0
183 477 0
184 477 0
185 477 0
186 477 0
187 477 0
188 477 0
189 477 0
190 477 0
191 477 0
192 477 0
193 477 0
194 477 0
195 477 0
196 477 0
197 477 0.99509187132080212
198 477 0
199 477 0
200 477 0
201 477 0
202 477 0
203 477 0
204 477 0
205 477 0
206 477 0
207 477 0
208 477 0
209 477 0
210 477 0
211 477 0
212 477 0
213 477 0
214 477 0
215 477 0
216 477 0
217 477 0
218 477 0
219 477 0
220 477 0
221 477 0
222 477 0
223 477 0
224 477 0
225 477 0
226 477 0
227 477 0
228 477 0
229 477 0
230 477 0
231 477 0
232 477 0
233 477 0
234 477 0
235 477 0
236 477 0
237 477 0
238 477 0
239 477 0
240 477 0
61 478 -0
62 478 -0
63 478 -0
64 478 -0
65 478 -0
66 478 -0
67 478 -0
68 478 -0
69 478 -0
70 478 -0
71 478 -0
72 478 -0
73 478 -0
74 478 -0
75 478 -0
76 478 -0
77 478 -0
78 478 -0
79 478 -0
80 478 -0
81 478 -0
82 478 -0
83 478 -0
84 478 -0
85 478 -0
86 478 -0
87 478 -0
88 478 -0
89 478 -0
90 478 -0
91 478 -0
92 478 -0
93 478 -0
94 478 -0
95 478 -0
96 478 -0
97 478 -0
98 478 -0
99 478 -0
100 478 -0
101 478 -0
102 478 -0
103 478 -0
104 478 -0
105 478 -0
106 478 -0.33315053122735733
107 478 -0
108 478 -0
109 478 -0
110 478 -0
111 478 -0
112 478 -0
113 478 -0
114 478 -0
115 478 -0
116 478 -0
117 478 -0
118 478 -0
119 478 -0
120 478 -0
181 478 0
182 478 0
183 478 0
184 478 0
185 478 0
186 478 0
187 478 0
188 478 0
189 478 0
190 478 0
191 478 0
192 478 0
193 478 0
194 478 0
195 478 0
196 478 0
197 478 0
198 478 0.99509187132080212
199 478 0
200 478 0
201 478 0
202 478 0
203 478 0
204 478 0
205 478 0
206 478 0
207 478 0
208 478 0
209 478 0
210 478 0
211 478 0
212 478 0
213 478 0
214 478 0
215 478 0
216 478 0
217 478 0
218 478 0
219 478 0
220 478 0
221 478 0
222 478 0
223 478 0
224 478 0
225 478 0
226 478 0
227 478 0
228 478 0
229 478 0
230 478 0
231 478 0
232 478 0
233 478 0
234 478 0
235 478 0
236 478 0
237 478 0
238 478 0
239 478 0
240 478 0
61 479 -0
62 479 -0
63 479 -0
64 479 -0
65 479 -0
66 479 -0
67 479 -0
68 479 -0
69 479 -0
70 479 -0
71 479 -0
72 479 -0
73 479 -0
74 479 -0
75 479 -0
76 479 -0
77 479 -0
78 479 -0
79 479 -0
80 479 -0
81 479 -0
82 479 -0
83 479 -0
84 479 -0
85 479 -0
86 479 -0
87 479 -0
88 479 -0
89 479 -0
90 479 -0
91 479 -0
92 479 -0
93 479 -0
94 479 -0
95 479 -0
96 479 -0
97 479 -0
98 479 -0
99 479 -0
100 479 -0
101 479 -0
102 479 -0
103 479 -0
104 479 -0
105 479 -0
106 479 -0
107 479 -0.33315053122735733
108 479 -0
109 479 -0
110 479 -0
111 479 -0
112 479 -0
113 479 -0
114 479 -0
115 479 -0
116 479 -0
117 479 -0
118 479 -0
119 479 -0
120 479 -0
181 479 0
182 479 0
183 479 0
184 479 0
185 479 0
186 479 0
187 479 0
188 479 0
189 479 0
190 479 0
191 479 0
192 479 0
193 479 0
194 479 0
195 479 0
196 479 0
197 479 0
198 479 0
199 479 0.99509187132080212
200 479 0
201 479 0
202 479 0
203 479 0
204 479 0
205 479 0
206 479 0
207 479 0
208 479 0
209 479 0
210 479 0
211 479 0
212 479 0
213 479 0
214 479 0
215 479 0
216 479 0
217 479 0
218 479 0
219 479 0
220 479 0
221 479 0
222 479 0
223 479 0
224 479 0
225 479 0
226 479 0
227 479 0
228 479 0
229 479 0
230 479 0
231 479 0
232 479 0
233 479 0
234 479 0
235 479 0
236 479 0
237 479 0
238 479 0
239 479 0
240 479 0
61 480 -0
62 480 -0
63 480 -0
64 480 -0
65 480 -0
66 480 -0
67 480 -0
68 480 -0
69 480 -0
70 480 -0
71 480 -0
72 480 -0
73 480 -0
74 480 -0
75 480 -0
76 480 -0
77 480 -0
78 480 -0
79 480 -0
80 480 -0
81 480 -0
82 480 -0
83 480 -0
84 480 -0
85 480 -0
86 480 -0
87 480 -0
88 480 -0
89 480 -0
90 480 -0
91 480 -0
92 480 -0
93 480 -0
94 480 -0
95 480 -0
96 480 -0
97 480 -0
98 480 -0
99 480 -0
100 480 -0
101 480 -0
102 480 -0
103 480 -0
104 480 -0
105 480 -0
106 480 -0
107 480 -0
108 480 -0.33315053122735733
109 480 -0
110 480 -0
111 480 -0
112 480 -0
113 480 -0
114 480 -0
115 480 -0
116 480 -0
117 480 -0
118 480 -0
119 480 -0
120 480 -0
181 480 0
182 480 0
183 480 0
184 480 0
185 480 0
186 480 0
187 480 0
188 480 0
189 480 0
190 480 0
191 480 0
192 480 0
193 480 0
194 480 0
195 480 0
196 480 0
197 480 0
198 480 0
199 480 0
200 480 0.99509187132080212
201 480 0
202 480 0
203 480 0
204 480 0
205 480 0
206 480 0
207 480 0
208 480 0
209 480 0
210 480 0
211 480 0
212 480 0
213 480 0
214 480 0
215 480 0
216 480 0
217 480 0
218 480 0
219 480 0
220 480 0
221 480 0
222 480 0
223 480 0
224 480 0
225 480 0
226 480 0
227 480 0
228 480 0
229 480 0
230 480 0
231 480 0
232 480 0
233 480 0
234 480 0
235 480 0
236 480 0
237 480 0
238 480 0
239 480 0
240 480 0
61 481 -0
62 481 -0
63 481 -0
64 481 -0
65 481 -0
66 481 -0
67 481 -0
68 481 -0
69 481 -0
70 481 -0
71 481 -0
72 481 -0
73 481 -0
74 481 -0
75 481 -0
76 481 -0
77 481 -0
78 481 -0
79 481 -0
80 481 -0
81 481 -0
82 481 -0
83 481 -0
84 481 -0
85 481 -0
86 481 -0
87 481 -0
88 481 -0
89 481 -0
90 481 -0
91 481 -0
92 481 -0
93 481 -0
94 481 -0
95 481 -0
96 481 -0
97 481 -0
98 481 -0
99 481 -0
100 481 -0
101 481 -0
102 481 -0
103 481 -0
104 481 -0
105 481 -0
106 481 -0
107 481 -0
108 481 -0
109 481 -0.33315053122735733
110 481 -0
111 481 -0
112 481 -0
113 481 -0
114 481 -0
115 481 -0
116 481 -0
117 481 -0
118 481 -0
119 481 -0
120 481 -0
181 481 0
182 481 0
183 481 0
184 481 0
185 481 0
186 481 0
187 481 0
188 481 0
189 481 0
190 481 0
191 481 0
192 481 0
193 481 0
194 481 0
195 481 0
196 481 0
197 481 0
198 481 0
199 481 0
200 481 0
201 481 0
202 481 0
203 481 0
204 481 0
205 481 0
206 481 0
207 481 0
208 481 0
209 481 0
210 481 0
211 481 0
212 481 0
213 481 0
214 481 0
215 481 0
216 481 0
217 481 0
218 481 0
219 481 0
220 481 0
221 481 0
222 481 0
223 481 0
224 481 0
225 481 0
226 481 0
227 481 0
228 481 0
229 481 0
230 481 0
231 481 0
232 481 0
233 481 0
234 481 0
235 481 0
236 481 0
237 481 0
238 481 0
239 481 0
240 481 0
61 482 -0
62 482 -0
63 482 -0
64 482 -0
65 482 -0
66 482 -0
67 482 -0
68 482 -0
69 482 -0
70 482 -0
71 482 -0
72 482 -0
73 482 -0
74 482 -0
75 482 -0
76 482 -0
77 482 -0
78 482 -0
79 482 -0
80 482 -0
81 482 -0
82 482 -0
83 482 -0
84 482 -0
85 482 -0
86 482 -0
87 482 -0
88 482 -0
89 482 -0
90 482 -0
91 482 -0
92 482 -0
93 482 -0
94 482 -0
95 482 -0
96 482 -0
97 482 -0
98 482 -0
99 482 -0
100 482 -0
101 482 -0
102 482 -0
103 482 -0
104 482 -0
105 482 -0
106 482 -0
107 482 -0
108 482 -0
109 482 -0
110 482 -0.33315053122735733
111 482 -0
112 482 -0
113 482 -0
114 482 -0
115 482 -0
116 482 -0
117 482 -0
118 482 -0
119 482 -0
120 482 -0
181 482 0
182 482 0
183 482 0
184 482 0
185 482 0
186 482 0
187 482 0
188 482 0
189 482 0
190 482 0
191 482 0
192 482 0
193 482 0
194 482 0
195 482 0
196 482 0
197 482 0
198 482 0
199 482 0
200 482 0
201 482 0
202 482 0
203 482 0
204 482 0
205 482 0
206 482 0
207 482 0
208 482 0
209 482 0
210 482 0
211 482 0
212 482 0
213 482 0
214 482 0
215 482 0
216 482 0
217 482 0
218 482 0
219 482 0
220 482 0
221 482 0
222 482 0
223 482 0
224 482 0
225 482 0
226 482 0
227 482 0
228 482 0
229 482 0
230 482 0
231 482 0
232 482 0
233 482 0
234 482 0
235 482 0
236 482 0
237 482 0
238 482 0
239 482 0
240 482 0
61 483 -0
62 483 -0
63 483 -0
64 483 -0
65 483 -0
66 483 -0
67 483 -0
68 483 -0
69 483 -0
70 483 -0
71 483 -0
72 483 -0
73 483 -0
74 483 -0
75 483 -0
76 483 -0
77 483 -0
78 483 -0
79 483 -0
80 483 -0
81 483 -0
82 483 -0
83 483 -0
84 483 -0
85 483 -0
86 483 -0
87 483 -0
88 483 -0
89 483 -0
90 483 -0
91 483 -0
92 483 -0
93 483 -0
94 483 -0
95 483 -0
96 483 -0
97 483 -0
98 483 -0
99 483 -0
100 483 -0
101 483 -0
102 483 -0
103 483 -0
104 483 -0
105 483 -0
106 483 -0
107 483 -0
108 483 -0
109 483 -0
110 483 -0
111 483 -0.33315053122735733
112 483 -0
113 483 -0
114 483 -0
115 483 -0
116 483 -0
117 483 -0
118 483 -0
119 483 -0
120 483 -0
181 483 0
182 483 0
183 483 0
184 483 0
185 483 0
186 483 0
187 483 0
188 483 0
189 483 0
190 483 0
191 483 0
192 483 0
193 483 0
194 483 0
195 483 0
196 483 0
197 483 0
198 483 0
199 483 0
200 483 0
201 483 0
202 483 0
203 483 0
204 483 0
205 483 0
206 483 0
207 483 0
208 483 0
209 483 0
210 483 0
211 483 0
212 483 0
213 483 0
214 483 0
215 483 0
216 483 0
217 483 0
218 483 0
219 483 0
220 483 0
221 483 0
222 483 0
223 483 0
224 483 0
225 483 0
226 483 0
227 483 0
228 483 0
229 483 0
230 483 0
231 483 0
232 483 0
233 483 0
234 483 0
235 483 0
236 483 0
237 483 0
238 483 0
239 483 0
240 483 0
61 484 -0
62 484 -0
63 484 -0
64 484 -0
65 484 -0
66 484 -0
67 484 -0
68 484 -0
69 484 -0
70 484 -0
71 484 -0
72 484 -0
73 484 -0
74 484 -0
75 484 -0
76 484 -0
77 484 -0
78 484 -0
79 484 -0
80 484 -0
81 484 -0
82 484 -0
83 484 -0
84 484 -0
85 484 -0
86 484 -0
87 484 -0
88 484 -0
89 484 -0
90 484 -0
91 484 -0
92 484 -0
93 484 -0
94 484 -0
95 484 -0
96 484 -0
97 484 -0
98 484 -0
99 484 -0
100 484 -0
101 484 -0
102 484 -0
103 484 -0
104 484 -0
105 484 -0
106 484 -0
107 484 -0
108 484 -0
109 484 -0
110 484 -0
111 484 -0
112 484 -0.33315053122735733
113 484 -0
114 484 -0
115 484 -0
116 484 -0
117 484 -0
118 484 -0
119 484 -0
120 484 -0
181 484 0
182 484 0
183 484 0
184 484 0
185 484 0
186 484 0
187 484 0
188 484 0
189 484 0
190 484 0
191 484 0
192 484 0
193 484 0
194 484 0
195 484 0
196 484 0
197 484 0
198 484 0
199 484 0
200 484 0
201 484 0
202 484 0
203 484 0
204 484 0
205 484 0
206 484 0
207 484 0
208 484 0
209 484 0
210 484 0
211 484 0
212 484 0
213 484 0
214 484 0
215 484 0
216 484 0
217 484 0
218 484 0
219 484 0
220 484 0
221 484 0
222 484 0
223 484 0
224 484 0
225 484 0
226 484 0
227 484 0
228 484 0
229 484 0
230 484 0
231 484 0
232 484 0
233 484 0
234 484 0
235 484 0
236 484 0
237 484 0
238 484 0
239 484 0
240 484 0
61 485 -0
62 485 -0
63 485 -0
64 485 -0
65 485 -0
66 485 -0
67 485 -0
68 485 -0
69 485 -0
70 485 -0
71 485 -0
72 485 -0
73 485 -0
74 485 -0
75 485 -0
76 485 -0
77 485 -0
78 485 -0
79 485 -0
80 485 -0
81 485 -0
82 485 -0
83 485 -0
84 485 -0
85 485 -0
86 485 -0
87 485 -0
88 485 -0
89 485 -0
90 485 -0
91 485 -0
92 485 -0
93 485 -0
94 485 -0
95 485 -0
96 485 -0
97 485 -0
98 485 -0
99 485 -0
100 485 -0
101 485 -0
102 485 -0
103 485 -0
104 485 -0
105 485 -0
106 485 -0
107 485 -0
108 485 -0
109 485 -0
110 485 -0
111 485 -0
112 485 -0
113 485 -0.33315053122735733
114 485 -0
115 485 -0
116 485 -0
117 485 -0
118 485 -0
119 485 -0
120 485 -0
181 485 0
182 485 0
183 485 0
184 485 0
185 485 0
186 485 0
187 485 0
188 485 0
189 485 0
190 485 0
191 485 0
192 485 0
193 485 0
194 485 0
195 485 0
196 485 0
197 485 0
198 485 0
199 485 0
200 485 0
201 485 0
202 485 0
203 485 0
204 485 0
205 485 0
206 485 0
207 485 0
208 485 0
209 485 0
210 485 0
211 485 0
212 485 0
213 485 0
214 485 0
215 485 0
216 485 0
217 485 0
218 485 0
219 485 0
220 485 0
221 485 0
222 485 0
223 485 0
224 485 0
225 485 0
226 485 0
227 485 0
228 485 0
229 485 0
230 485 0
231 485 0
232 485 0
233 485 0
234 485 0
235 485 0
236 485 0
237 485 0
238 485 0
239 485 0
240 485 0
61 486 -0
62 486 -0
63 486 -0
64 486 -0
65 486 -0
66 486 -0
67 486 -0
68 486 -0
69 486 -0
70 486 -0
71 486 -0
72 486 -0
73 486 -0
74 486 -0
75 486 -0
76 486 -0
77 486 -0
78 486 -0
79 486 -0
80 486 -0
81 486 -0
82 486 -0
83 486 -0
84 486 -0
85 486 -0
86 486 -0
87 486 -0
88 486 -0
89 486 -0
90 486 -0
91 486 -0
92 486 -0
93 486 -0
94 486 -0
95 486 -0
96 486 -0
97 486 -0
98 486 -0
99 486 -0
100 486 -0
101 486 -0
102 486 -0
103 486 -0
104 486 -0
105 486 -0
106 486 -0
107 486 -0
108 486 -0
109 486 -0
110 486 -0
111 486 -0
112 486 -0
113 486 -0
114 486 -0.33315053122735733
115 486 -0
116 486 -0
117 486 -0
118 486 -0
119 486 -0
120 486 -0
181 486 0
182 486 0
183 486 0
184 486 0
185 486 0
186 486 0
187 486 0
188 486 0
189 486 0
190 486 0
191 486 0
192 486 0
193 486 0
194 486 0
195 486 0
196 486 0
197 486 0
198 486 0
199 486 0
200 486 0
201 486 0
202 486 0
203 486 0
204 486 0
205 486 0
206 486 0
207 486 0
208 486 0
209 486 0
210 486 0
211 486 0
212 486 0
213 486 0
214 486 0
215 486 0
216 486 0
217 486 0
218 486 0
219 486 0
220 486 0
221 486 0
222 486 0
223 486 0
224 486 0
225 486 0
226 486 0
227 486 0
228 486 0
229 486 0
230 486 0
231 486 0
232 486 0
233 486 0
234 486 0
235 486 0
236 486 0
237 486 0
238 486 0
239 486 0
240 486 0
61 487 -0
62 487 -0
63 487 -0
64 487 -0
65 487 -0
66 487 -0
67 487 -0
68 487 -0
69 487 -0
70 487 -0
71 487 -0
72 487 -0
73 487 -0
74 487 -0
75 487 -0
76 487 -0
77 487 -0
78 487 -0
79 487 -0
80 487 -0
81 487 -0
82 487 -0
83 487 -0
84 487 -0
85 487 -0
86 487 -0
87 487 -0
88 487 -0
89 487 -0
90 487 -0
91 487 -0
92 487 -0
93 487 -0
94 487 -0
95 487 -0
96 487 -0
97 487 -0
98 487 -0
99 487 -0
100 487 -0
101 487 -0
102 487 -0
103 487 -0
104 487 -0
105 487 -0
106 487 -0
107 487 -0
108 487 -0
109 487 -0
110 487 -0
111 487 -0
112 487 -0
113 487 -0
114 487 -0
115 487 -0.33315053122735733
116 487 -0
117 487 -0
118 487 -0
119 487 -0
120 487 -0
181 487 0
182 487 0
183 487 0
184 487 0
185 487 0
186 487 0
187 487 0
188 487 0
189 487 0
190 487 0
191 487 0
192 487 0
193 487 0
194 487 0
195 487 0
196 487 0
197 487 0
198 487 0
199 487 0
200 487 0
201 487 0
202 487 0
203 487 0
204 487 0
205 487 0
206 487 0
207 487 0
208 487 0
209 487 0
210 487 0
211 487 0
212 487 0
213 487 0
214 487 0
215 487 0
216 487 0
217 487 0
218 487 0
219 487 0
220 487 0
221 487 0
222 487 0
223 487 0
224 487 0
225 487 0
226 487 0
227 487 0
228 487 0
229 487 0
230 487 0
231 487 0
232 487 0
233 487 0
234 487 0
235 487 0
236 487 0
237 487 0
238 487 0
239 487 0
240 487 0
61 488 -0
62 488 -0
63 488 -0
64 488 -0
65 488 -0
66 488 -0
67 488 -0
68 488 -0
69 488 -0
70 488 -0
71 488 -0
72 488 -0
73 488 -0
74 488 -0
75 488 -0
76 488 -0
77 488 -0
78 488 -0
79 488 -0
80 488 -0
81 488 -0
82 488 -0
83 488 -0
84 488 -0
85 488 -0
86 488 -0
87 488 -0
88 488 -0
89 488 -0
90 488 -0
91 488 -0
92 488 -0
93 488 -0
94 488 -0
95 488 -0
96 488 -0
97 488 -0
98 488 -0
99 488 -0
100 488 -0
101 488 -0
102 488 -0
103 488 -0
104 488 -0
105 488 -0
106 488 -0
107 488 -0
108 488 -0
109 488 -0
110 488 -0
111 488 -0
112 488 -0
113 488 -0
114 488 -0
115 488 -0
116 488 -0.33315053122735733
117 488 -0
118 488 -0
119 488 -0
120 488 -0
181 488 0
182 488 0
183 488 0
184 488 0
185 488 0
186 488 0
187 488 0
188 488 0
189 488 0
190 488 0
191 488 0
192 488 0
193 488 0
194 488 0
195 488 0
196 488 0
197 488 0
198 488 0
199 488 0
200 488 0
201 488 0.99509187132080212
202 488 0
203 488 0
204 488 0
205 488 0
206 488 0
207 488 0
208 488 0
209 488 0
210 488 0
211 488 0
212 488 0
213 488 0
214 488 0
215 488 0
216 488 0
217 488 0
218 488 0
219 488 0
220 488 0
221 488 0
222 488 0
223 488 0
224 488 0
225 488 0
226 488 0
227 488 0
228 488 0
229 488 0
230 488 0
231 488 0
232 488 0
233 488 0
234 488 0
235 488 0
236 488 0
237 488 0
238 488 0
239 488 0
240 488 0
61 489 -0
62 489 -0
63 489 -0
64 489 -0
65 489 -0
66 489 -0
67 489 -0
68 489 -0
69 489 -0
70 489 -0
71 489 -0
72 489 -0
73 489 -0
74 489 -0
75 489 -0
76 489 -0
77 489 -0
78 489 -0
79 489 -0
80 489 -0
81 489 -0
82 489 -0
83 489 -0
84 489 -0
85 489 -0
86 489 -0
87 489 -0
88 489 -0
89 489 -0
90 489 -0
91 489 -0
92 489 -0
93 489 -0
94 489 -0
95 489 -0
96 489 -0
97 489 -0
98 489 -0
99 489 -0
100 489 -0
101 489 -0
102 489 -0
103 489 -0
104 489 -0
105 489 -0
106 489 -0
107 489 -0
108 489 -0
109 489 -0
110 489 -0
111 489 -0
112 489 -0
113 489 -0
114 489 -0
115 489 -0
116 489 -0
117 489 -0.33315053122735733
118 489 -0
119 489 -0
120 489 -0
181 489 0
182 489 0
183 489 0
184 489 0
185 489 0
186 489 0
187 489 0
188 489 0
189 489 0
190 489 0
191 489 0
192 489 0
193 489 0
194 489 0
195 489 0
196 489 0
197 489 0
198 489 0
199 489 0
200 489 0
201 489 0
202 489 0.99509187132080212
203 489 0
204 489 0
205 489 0
206 489 0
207 489 0
208 489 0
209 489 0
210 489 0
211 489 0
212 489 0
213 489 0
214 489 0
215 489 0
216 489 0
217 489 0
218 489 0
219 489 0
220 489 0
221 489 0
222 489 0
223 489 0
224 489 0
225 489 0
226 489 0
227 489 0
228 489 0
229 489 0
230 489 0
231 489 0
232 489 0
233 489 0
234 489 0
235 489 0
236 489 0
237 489 0
238 489 0
239 489 0
240 489 0
61 490 -0
62 490 -0
63 490 -0
64 490 -0
65 490 -0
66 490 -0
67 490 -0
68 490 -0
69 490 -0
70 490 -0
71 490 -0
72 490 -0
73 490 -0
74 490 -0
75 490 -0
76 490 -0
77 490 -0
78 490 -0
79 490 -0
80 490 -0
81 490 -0
82 490 -0
83 490 -0
84 490 -0
85 490 -0
86 490 -0
87 490 -0
88 490 -0
89 490 -0
90 490 -0
91 490 -0
92 490 -0
93 490 -0
94 490 -0
95 490 -0
96 490 -0
97 490 -0
98 490 -0
99 490 -0
100 490 -0
101 490 -0
102 490 -0
103 490 -0
104 490 -0
105 490 -0
106 490 -0
107 490 -0
108 490 -0
109 490 -0
110 490 -0
111 490 -0
112 490 -0
113 490 -0
114 490 -0
115 490 -0
116 490 -0
117 490 -0
118 490 -0.33315053122735733
119 490 -0
120 490 -0
181 490 0
182 490 0
183 490 0
184 490 0
185 490 0
186 490 0
187 490 0
188 490 0
189 490 0
190 490 0
191 490 0
192 490 0
193 490 0
194 490 0
195 490 0
196 490 0
197 490 0
198 490 0
199 490 0
200 490 0
201 490 0
202 490 0
203 490 0.99509187132080212
204 490 0
205 490 0
206 490 0
207 490 0
208 490 0
209 490 0
210 490 0
211 490 0
212 490 0
213 490 0
214 490 0
215 490 0
216 490 0
217 490 0
218 490 0
219 490 0
220 490 0
221 490 0
222 490 0
223 490 0
224 490 0
225 490 0
226 490 0
227 490 0
228 490 0
229 490 0
230 490 0
231 490 0
232 490 0
233 490 0
234 490 0
235 490 0
236 490 0
237 490 0
238 490 0
239 490 0
240 490 0
61 491 -0
62 491 -0
63 491 -0
64 491 -0
65 491 -0
66 491 -0
67 491 -0
68 491 -0
69 491 -0
70 491 -0
71 491 -0
72 491 -0
73 491 -0
74 491 -0
75 491 -0
76 491 -0
77 491 -0
78 491 -0
79 491 -0
80 491 -0
81 491 -0
82 491 -0
83 491 -0
84 491 -0
85 491 -0
86 491 -0
87 491 -0
88 491 -0
89 491 -0
90 491 -0
91 491 -0
92 491 -0
93 491 -0
94 491 -0
95 491 -0
96 491 -0
97 491 -0
98 491 -0
99 491 -0
100 491 -0
101 491 -0
102 491 -0
103 491 -0
104 491 -0
105 491 -0
106 491 -0
107 491 -0
108 491 -0
109 491 -0
110 491 -0
111 491 -0
112 491 -0
113 491 -0
114 491 -0
115 491 -0
116 491 -0
117 491 -0
118 491 -0
119 491 -0.33315053122735733
120 491 -0
181 491 0
182 491 0
183 491 0
184 491 0
185 491 0
186 491 0
187 491 0
188 491 0
189 491 0
190 491 0
191 491 0
192 491 0
193 491 0
194 491 0
195 491 0
196 491 0
197 491 0
198 491 0
199 491 0
200 491 0
201 491 0
202 491 0
203 491 0
204 491 0.99509187132080212
205 491 0
206 491 0
207 491 0
208 491 0
209 491 0
210 491 0
211 491 0
212 491 0
213 491 0
214 491 0
215 491 0
216 491 0
217 491 0
218 491 0
219 491 0
220 491 0
221 491 0
222 491 0
223 491 0
224 491 0
225 491 0
226 491 0
227 491 0
228 491 0
229 491 0
230 491 0
231 491 0
232 491 0
233 491 0
234 491 0
235 491 0
236 491 0
237 491 0
238 491 0
239 491 0
240 491 0
61 492 -0
62 492 -0
63 492 -0
64 492 -0
65 492 -0
66 492 -0
67 492 -0
68 492 -0
69 492 -0
70 492 -0
71 492 -0
72 492 -0
73 492 -0
74 492 -0
75 492 -0
76 492 -0
77 492 -0
78 492 -0
79 492 -0
80 492 -0
81 492 -0
82 492 -0
83 492 -0
84 492 -0
85 492 -0
86 492 -0
87 492 -0
88 492 -0
89 492 -0
90 492 -0
91 492 -0
92 492 -0
93 492 -0
94 492 -0
95 492 -0
96 492 -0
97 492 -0
98 492 -0
99 492 -0
100 492 -0
101 492 -0
102 492 -0
103 492 -0
104 492 -0
105 492 -0
106 492 -0
107 492 -0
108 492 -0
109 492 -0
110 492 -0
111 492 -0
112 492 -0
113 492 -0
114 492 -0
115 492 -0
116 492 -0
117 492 -0
118 492 -0
119 492 -0
120 492 -0.33315053122735733
181 492 0
182 492 0
183 492 0
184 492 0
185 492 0
186 492 0
187 492 0
188 492 0
189 492 0
190 492 0
191 492 0
192 492 0
193 492 0
194 492 0
195 492 0
196 492 0
197 492 0
198 492 0
199 492 0
200 492 0
201 492 0
202 492 0
203 492 0
204 492 0
205 492 0.99509187132080212
206 492 0
207 492 0
208 492 0
209 492 0
210 492 0
211 492 0
212 492 0
213 492 0
214 492 0
215 492 0
216 492 0
217 492 0
218 492 0
219 492 0
220 492 0
221 492 0
222 492 0
223 492 0
224 492 0
225 492 0
226 492 0
227 492 0
228 492 0
229 492 0
230 492 0
231 492 0
232 492 0
233 492 0
234 492 0
235 492 0
236 492 0
237 492 0
238 492 0
239 492 0
240 492 0
61 493 -0
62 493 -0
63 493 -0
64 493 -0
65 493 -0
66 493 -0
67 493 -0
68 493 -0
69 493 -0
70 493 -0
71 493 -0
72 493 -0
73 493 -0
74 493 -0
75 493 -0
76 493 -0
77 493 -0
78 493 -0
79 493 -0
80 493 -0
81 493 -0
82 493 -0
83 493 -0
84 493 -0
85 493 -0
86 493 -0
87 493 -0
88 493 -0
89 493 -0
90 493 -0
91 493 -0
92 493 -0
93 493 -0
94 493 -0
95 493 -0
96 493 -0
97 493 -0
98 493 -0
99 493 -0
100 493 -0
101 493 -0
102 493 -0
103 493 -0
104 493 -0
105 493 -0
106 493 -0
107 493 -0
108 493 -0
109 493 -0
110 493 -0
111 493 -0
112 493 -0
113 493 -0
114 493 -0
115 493 -0
116 493 -0
117 493 -0
118 493 -0
119 493 -0
120 493 -0
181 493 0
182 493 0
183 493 0
184 493 0
185 493 0
186 493 0
187 493 0
188 493 0
189 493 0
190 493 0
191 493 0
192 493 0
193 493 0
194 493 0
195 493 0
196 493 0
197 493 0
198 493 0
199 493 0
200 493 0
201 493 0
202 493 0
203 493 0
204 493 0
205 493 0
206 493 0
207 493 0
208 493 0
209 493 0
210 493 0
211 493 0
212 493 0
213 493 0
214 493 0
215 493 0
216 493 0
217 493 0
218 493 0
219 493 0
220 493 0
221 493 0
222 493 0
223 493 0
224 493 0
225 493 0
226 493 0
227 493 0
228 493 0
229 493 0
230 493 0
231 493 0
232 493 0
233 493 0
234 493 0
235 493 0
236 493 0
237 493 0
238 493 0
239 493 0
240 493 0
61 494 -0
62 494 -0
63 494 -0
64 494 -0
65 494 -0
66 494 -0
67 494 -0
68 494 -0
69 494 -0
70 494 -0
71 494 -0
72 494 -0
73 494 -0
74 494 -0
75 494 -0
76 494 -0
77 494 -0
78 494 -0
79 494 -0
80 494 -0
81 494 -0
82 494 -0
83 494 -0
84 494 -0
85 494 -0
86 494 -0
87 494 -0
88 494 -0
89 494 -0
90 494 -0
91 494 -0
92 494 -0
93 494 -0
94 494 -0
95 494 -0
96 494 -0
97 494 -0
98 494 -0
99 494 -0
100 494 -0
101 494 -0
102 494 -0
103 494 -0
104 494 -0
105 494 -0
106 494 -0
107 494 -0
108 494 -0
109 494 -0
110 494 -0
111 494 -0
112 494 -0
113 494 -0
114 494 -0
115 494 -0
116 494 -0
117 494 -0
118 494 -0
119 494 -0
120 494 -0
181 494 0
182 494 0
183 494 0
184 494 0
185 494 0
186 494 0
187 494 0
188 494 0
189 494 0
190 494 0
191 494 0
192 494 0
193 494 0
194 494 0
195 494 0
196 494 0
197 494 0
198 494 0
199 494 0
200 494 0
201 494 0
202 494 0
203 494 0
204 494 0
205 494 0
206 494 0
207 494 0
208 494 0
209 494 0
210 494 0
211 494 0
212 494 0
213 494 0
214 494 0
215 494 0
216 494 0
217 494 0
218 494 0
219 494 0
220 494 0
221 494 0
222 494 0
223 494 0
224 494 0
225 494 0
226 494 0
227 494 0
228 494 0
229 494 0
230 494 0
231 494 0
232 494 0
233 494 0
234 494 0
235 494 0
236 494 0
237 494 0
238 494 0
239 494 0
240 494 0
61 495 -0
62 495 -0
63 495 -0
64 495 -0
65 495 -0
66 495 -0
67 495 -0
68 495 -0
69 495 -0
70 495 -0
71 495 -0
72 495 -0
73 495 -0
74 495 -0
75 495 -0
76 495 -0
77 495 -0
78 495 -0
79 495 -0
80 495 -0
81 495 -0
82 495 -0
83 495 -0
84 495 -0
85 495 -0
86 495 -0
87 495 -0
88 495 -0
89 495 -0
90 495 -0
91 495 -0
92 495 -0
93 495 -0
94 495 -0
95 495 -0
96 495 -0
97 495 -0
98 495 -0
99 495 -0
100 495 -0
101 495 -0
102 495 -0
103 495 -0
104 495 -0
105 495 -0
106 495 -0
107 495 -0
108 495 -0
109 495 -0
110 495 -0
111 495 -0
112 495 -0
113 495 -0
114 495 -0
115 495 -0
116 495 -0
117 495 -0
118 495 -0
119 495 -0
120 495 -0
181 495 0
182 495 0
183 495 0
184 495 0
185 495 0
186 495 0
187 495 0
188 495 0
189 495 0
190 495 0
191 495 0
192 495 0
193 495 0
194 495 0
195 495 0
196 495 0
197 495 0
198 495 0
199 495 0
200 495 0
201 495 0
202 495 0
203 495 0
204 495 0
205 495 0
206 495 0
207 495 0
208 495 0
209 495 0
210 495 0
211 495 0
212 495 0
213 495 0
214 495 0
215 495 0
216 495 0
217 495 0
218 495 0
219 495 0
220 495 0
221 495 0
222 495 0
223 495 0
224 495 0
225 495 0
226 495 0
227 495 0
228 495 0
229 495 0
230 495 0
231 495 0
232 495 0
233 495 0
234 495 0
235 495 0
236 495 0
237 495 0
238 495 0
239 495 0
240 495 0
61 496 -0
62 496 -0
63 496 -0
64 496 -0
65 496 -0
66 496 -0
67 496 -0
68 496 -0
69 496 -0
70 496 -0
71 496 -0
72 496 -0
73 496 -0
74 496 -0
75 496 -0
76 496 -0
77 496 -0
78 496 -0
79 496 -0
80 496 -0
81 496 -0
82 496 -0
83 496 -0
84 496 -0
85 496 -0
86 496 -0
87 496 -0
88 496 -0
89 496 -0
90 496 -0
91 496 -0
92 496 -0
93 496 -0
94 496 -0
95 496 -0
96 496 -0
97 496 -0
98 496 -0
99 496 -0
100 496 -0
101 496 -0
102 496 -0
103 496 -0
104 496 -0
105 496 -0
106 496 -0
107 496 -0
108 496 -0
109 496 -0
110 496 -0
111 496 -0
112 496 -0
113 496 -0
114 496 -0
115 496 -0
116 496 -0
117 496 -0
118 496 -0
119 496 -0
120 496 -0
181 496 0
182 496 0
183 496 0
184 496 0
185 496 0
186 496 0
187 496 0
188 496 0
189 496 0
190 496 0
191 496 0
192 496 0
193 496 0
194 496 0
195 496 0
196 496 0
197 496 0
198 496 0
199 496 0
200 496 0
201 496 0
202 496 0
203 496 0
204 496 0
205 496 0
206 496 0
207 496 0
208 496 0
209 496 0
210 496 0
211 496 0
212 496 0
213 496 0
214 496 0
215 496 0
216 496 0
217 496 0
218 496 0
219 496 0
220 496 0
221 496 0
222 496 0
223 496 0
224 496 0
225 496 0
226 496 0
227 496 0
228 496 0
229 496 0
230 496 0
231 496 0
232 496 0
233 496 0
234 496 0
235 496 0
236 496 0
237 496 0
238 496 0
239 496 0
240 496 0
61 497 -0
62 497 -0
63 497 -0
64 497 -0
65 497 -0
66 497 -0
67 497 -0
68 497 -0
69 497 -0
70 497 -0
71 497 -0
72 497 -0
73 497 -0
74 497 -0
75 497 -0
76 497 -0
77 497 -0
78 497 -0
79 497 -0
80 497 -0
81 497 -0
82 497 -0
83 497 -0
84 497 -0
85 497 -0
86 497 -0
87 497 -0
88 497 -0
89 497 -0
90 497 -0
91 497 -0
92 497 -0
93 497 -0
94 497 -0
95 497 -0
96 497 -0
97 497 -0
98 497 -0
99 497 -0
100 497 -0
101 497 -0
102 497 -0
103 497 -0
104 497 -0
105 497 -0
106 497 -0
107 497 -0
108 497 -0
109 497 -0
110 497 -0
111 497 -0
112 497 -0
113 497 -0
114 497 -0
115 497 -0
116 497 -0
117 497 -0
118 497 -0
119 497 -0
120 497 -0
181 497 0
182 497 0
183 497 0
184 497 0
185 497 0
186 497 0
187 497 0
188 497 0
189 497 0
190 497 0
191 497 0
192 497 0
193 497 0
194 497 0
195 497 0
196 497 0
197 497 0
198 497 0
199 497 0
200 497 0
201 497 0
202 497 0
203 497 0
204 497 0
205 497 0
206 497 0
207 497 0
208 497 0
209 497 0
210 497 0
211 497 0
212 497 0
213 497 0
214 497 0
215 497 0
216 497 0
217 497 0
218 497 0
219 497 0
220 497 0
221 497 0
222 497 0
223 497 0
224 497 0
225 497 0
226 497 0
227 497 0
228 497 0
229 497 0
230 497 0
231 497 0
232 497 0
233 497 0
234 497 0
235 497 0
236 497 0
237 497 0
238 497 0
239 497 0
240 497 0
61 498 -0
62 498 -0
63 498 -0
64 498 -0
65 498 -0
66 498 -0
67 498 -0
68 498 -0
69 498 -0
70 498 -0
71 498 -0
72 498 -0
73 498 -0
74 498 -0
75 498 -0
76 498 -0
77 498 -0
78 498 -0
79 498 -0
80 498 -0
81 498 -0
82 498 -0
83 498 -0
84 498 -0
85 498 -0
86 498 -0
87 498 -0
88 498 -0
89 498 -0
90 498 -0
91 498 -0
92 498 -0
93 498 -0
94 498 -0
95 498 -0
96 498 -0
97 498 -0
98 498 -0
99 498 -0
100 498 -0
101 498 -0
102 498 -0
103 498 -0
104 498 -0
105 498 -0
106 498 -0
107 498 -0
108 498 -0
109 498 -0
110 498 -0
111 498 -0
112 498 -0
113 498 -0
114 498 -0
115 498 -0
116 498 -0
117 498 -0
118 498 -0
119 498 -0
120 498 -0
181 498 0
182 498 0
183 498 0
184 498 0
185 498 0
186 498 0
187 498 0
188 498 0
189 498 0
190 498 0
191 498 0
192 498 0
193 498 0
194 498 0
195 498 0
196 498 0
197 498 0
198 498 0
199 498 0
200 498 0
201 498 0
202 498 0
203 498 0
204 498 0
205 498 0
206 498 0
207 498 0
208 498 0
209 498 0
210 498 0
211 498 0
212 498 0
213 498 0
214 498 0
215 498 0
216 498 0
217 498 0
218 498 0
219 498 0
220 498 0
221 498 0
222 498 0
223 498 0
224 498 0
225 498 0
226 498 0
227 498 0
228 498 0
229 498 0
230 498 0
231 498 0
232 498 0
233 498 0
234 498 0
235 498 0
236 498 0
237 498 0
238 498 0
239 498 0
240 498 0
61 499 -0
62 499 -0
63 499 -0
64 499 -0
65 499 -0
66 499 -0
67 499 -0
68 499 -0
69 499 -0
70 499 -0
71 499 -0
72 499 -0
73 499 -0
74 499 -0
75 499 -0
76 499 -0
77 499 -0
78 499 -0
79 499 -0
80 499 -0
81 499 -0
82 499 -0
83 499 -0
84 499 -0
85 499 -0
86 499 -0
87 499 -0
88 499 -0
89 499 -0
90 499 -0
91 499 -0
92 499 -0
93 499 -0
94 499 -0
95 499 -0
96 499 -0
97 499 -0
98 499 -0
99 499 -0
100 499 -0
101 499 -0
102 499 -0
103 499 -0
104 499 -0
105 499 -0
106 499 -0
107 499 -0
108 499 -0
109 499 -0
110 499 -0
111 499 -0
112 499 -0
113 499 -0
114 499 -0
115 499 -0
116 499 -0
117 499 -0
118 499 -0
119 499 -0
120 499 -0
181 499 0
182 499 0
183 499 0
184 499 0
185 499 0
186 499 0
187 499 0
188 499 0
189 499 0
190 499 0
191 499 0
192 499 0
193 499 0
194 499 0
195 499 0
196 499 0
197 499 0
198 499 0
199 499 0
200 499 0
201 499 0
202 499 0
203 499 0
204 499 0
205 499 0
206 499 0
207 499 0
208 499 0
209 499 0
210 499 0
211 499 0
212 499 0
213 499 0
214 499 0
215 499 0
216 499 0
217 499 0
218 499 0
219 499 0
220 499 0
221 499 0
222 499 0
223 499 0
224 499 0
225 499 0
226 499 0
227 499 0
228 499 0
229 499 0
230 499 0
231 499 0
232 499 0
233 499 0
234 499 0
235 499 0
236 499 0
237 499 0
238 499 0
239 499 0
240 499 0
61 500 -0
62 500 -0
63 500 -0
64 500 -0
65 500 -0
66 500 -0
67 500 -0
68 500 -0
69 500 -0
70 500 -0
71 500 -0
72 500 -0
73 500 -0
74 500 -0
75 500 -0
76 500 -0
77 500 -0
78 500 -0
79 500 -0
80 500 -0
81 500 -0
82 500 -0
83 500 -0
84 500 -0
85 500 -0
86 500 -0
87 500 -0
88 500 -0
89 500 -0
90 500 -0
91 500 -0
92 500 -0
93 500 -0
94 500 -0
95 500 -0
96 500 -0
97 500 -0
98 500 -0
99 500 -0
100 500 -0
101 500 -0
102 500 -0
103 500 -0
104 500 -0
105 500 -0
106 500 -0
107 500 -0
108 500 -0
109 500 -0
110 500 -0
111 500 -0
112 500 -0
113 500 -0
114 500 -0
115 500 -0
116 500 -0
117 500 -0
118 500 -0
119 500 -0
120 500 -0
181 500 0
182 500 0
183 500 0
184 500 0
185 500 0
186 500 0
187 500 0
188 500 0
189 500 0
190 500 0
191 500 0
192 500 0
193 500 0
194 500 0
195 500 0
196 500 0
197 500 0
198 500 0
199 500 0
200 500 0
201 500 0
202 500 0
203 500 0
204 500 0
205 500 0
206 500 0.99509187132080212
207 500 0
208 500 0
209 500 0
210 500 0
211 500 0
212 500 0
213 500 0
214 500 0
215 500 0
216 500 0
217 500 0
218 500 0
219 500 0
220 500 0
221 500 0
222 500 0
223 500 0
224 500 0
225 500 0
226 500 0
227 500 0
228 500 0
229 500 0
230 500 0
231 500 0
232 500 0
233 500 0
234 500 0
235 500 0
236 500 0
237 500 0
238 500 0
239 500 0
240 500 0
61 501 -0
62 501 -0
63 501 -0
64 501 -0
65 501 -0
66 501 -0
67 501 -0
68 501 -0
69 501 -0
70 501 -0
71 501 -0
72 501 -0
73 501 -0
74 501 -0
75 501 -0
76 501 -0
77 501 -0
78 501 -0
79 501 -0
80 501 -0
81 501 -0
82 501 -0
83 501 -0
84 501 -0
85 501 -0
86 501 -0
87 501 -0
88 501 -0
89 501 -0
90 501 -0
91 501 -0
92 501 -0
93 501 -0
94 501 -0
95 501 -0
96 501 -0
97 501 -0
98 501 -0
99 501 -0
100 501 -0
101 501 -0
102 501 -0
103 501 -0
104 501 -0
105 501 -0
106 501 -0
107 501 -0
108 501 -0
109 501 -0
110 501 -0
111 501 -0
112 501 -0
113 501 -0
114 501 -0
115 501 -0
116 501 -0
117 501 -0
118 501 -0
119 501 -0
120 501 -0
181 501 0
182 501 0
183 501 0
184 501 0
185 501 0
186 501 0
187 501 0
188 501 0
189 501 0
190 501 0
191 501 0
192 501 0
193 501 0
194 501 0
195 501 0
196 501 0
197 501 0
198 501 0
199 501 0
200 501 0
201 501 0
202 501 0
203 501 0
204 501 0
205 501 0
206 501 0
207 501 0.99509187132080212
208 501 0
209 501 0
210 501 0
211 501 0
212 501 0
213 501 0
214 501 0
215 501 0
216 501 0
217 501 0
218 501 0
219 501 0
220 501 0
221 501 0
222 501 0
223 501 0
224 501 0
225 501 0
226 501 0
227 501 0
228 501 0
229 501 0
230 501 0
231 501 0
232 501 0
233 501 0
234 501 0
235 501 0
236 501 0
237 501 0
238 501 0
239 501 0
240 501 0
61 502 -0
62 502 -0
63 502 -0
64 502 -0
65 502 -0
66 502 -0
67 502 -0
68 502 -0
69 502 -0
70 502 -0
71 502 -0
72 502 -0
73 502 -0
74 502 -0
75 502 -0
76 502 -0
77 502 -0
78 502 -0
79 502 -0
80 502 -0
81 502 -0
82 502 -0
83 502 -0
84 502 -0
85 502 -0
86 502 -0
87 502 -0
88 502 -0
89 502 -0
90 502 -0
91 502 -0
92 502 -0
93 502 -0
94 502 -0
95 502 -0
96 502 -0
97 502 -0
98 502 -0
99 502 -0
100 502 -0
101 502 -0
102 502 -0
103 502 -0
104 502 -0
105 502 -0
106 502 -0
107 502 -0
108 502 -0
109 502 -0
110 502 -0
111 502 -0
112 502 -0
113 502 -0
114 502 -0
115 502 -0
116 502 -0
117 502 -0
118 502 -0
119 502 -0
120 502 -0
181 502 0
182 502 0
183 502 0
184 502 0
185 502 0
186 502 0
187 502 0
188 502 0
189 502 0
190 502 0
191 502 0
192 502 0
193 502 0
194 502 0
195 502 0
196 502 0
197 502 0
198 502 0
199 502 0
200 502 0
201 502 0
202 502 0
203 502 0
204 502 0
205 502 0
206 502 0
207 502 0
208 502 0.99509187132080212
209 502 0
210 502 0
211 502 0
212 502 0
213 502 0
214 502 0
215 502 0
216 502 0
217 502 0
218 502 0
219 502 0
220 502 0
221 502 0
222 502 0
223 502 0
224 502 0
225 502 0
226 502 0
227 502 0
228 502 0
229 502 0
230 502 0
231 502 0
232 502 0
233 502 0
234 502 0
235 502 0
236 502 0
237 502 0
238 502 0
239 502 0
240 502 0
61 503 -0
62 503 -0
63 503 -0
64 503 -0
65 503 -0
66 503 -0
67 503 -0
68 503 -0
69 503 -0
70 503 -0
71 503 -0
72 503 -0
73 503 -0
74 503 -0
75 503 -0
76 503 -0
77 503 -0
78 503 -0
79 503 -0
80 503 -0
81 503 -0
82 503 -0
83 503 -0
84 503 -0
85 503 -0
86 503 -0
87 503 -0
88 503 -0
89 503 -0
90 503 -0
91 503 -0
92 503 -0
93 503 -0
94 503 -0
95 503 -0
96 503 -0
97 503 -0
98 503 -0
99 503 -0
100 503 -0
101 503 -0
102 503 -0
103 503 -0
104 503 -0
105 503 -0
106 503 -0
107 503 -0
108 503 -0
109 503 -0
110 503 -0
111 503 -0
112 503 -0
113 503 -0
114 503 -0
115 503 -0
116 503 -0
117 503 -0
118 503 -0
119 503 -0
120 503 -0
181 503 0
182 503 0
183 503 0
184 503 0
185 503 0
186 503 0
187 503 0
188 503 0
189 503 0
190 503 0
191 503 0
192 503 0
193 503 0
194 503 0
195 503 0
196 503 0
197 503 0
198 503 0
199 503 0
200 503 0
201 503 0
202 503 0
203 503 0
204 503 0
205 503 0
206 503 0
207 503 0
208 503 0
209 503 0.99509187132080212
210 503 0
211 503 0
212 503 0
213 503 0
214 503 0
215 503 0
216 503 0
217 503 0
218 503 0
219 503 0
220 503 0
221 503 0
222 503 0
223 503 0
224 503 0
225 503 0
226 503 0
227 503 0
228 503 0
229 503 0
230 503 0
231 503 0
232 503 0
233 503 0
234 503 0
235 503 0
236 503 0
237 503 0
238 503 0
239 503 0
240 503 0
61 504 -0
62 504 -0
63 504 -0
64 504 -0
65 504 -0
66 504 -0
67 504 -0
68 504 -0
69 504 -0
70 504 -0
71 504 -0
72 504 -0
73 504 -0
74 504 -0
75 504 -0
76 504 -0
77 504 -0
78 504 -0
79 504 -0
80 504 -0
81 504 -0
82 504 -0
83 504 -0
84 504 -0
85 504 -0
86 504 -0
87 504 -0
88 504 -0
89 504 -0
90 504 -0
91 504 -0
92 504 -0
93 504 -0
94 504 -0
95 504 -0
96 504 -0
97 504 -0
98 504 -0
99 504 -0
100 504 -0
101 504 -0
102 504 -0
103 504 -0
104 504 -0
105 504 -0
106 504 -0
107 504 -0
108 504 -0
109 504 -0
110 504 -0
111 504 -0
112 504 -0
113 504 -0
114 504 -0
115 504 -0
116 504 -0
117 504 -0
118 504 -0
119 504 -0
120 504 -0
181 504 0
182 504 0
183 504 0
184 504 0
185 504 0
186 504 0
187 504 0
188 504 0
189 504 0
190 504 0
191 504 0
192 504 0
193 504 0
194 504 0
195 504 0
196 504 0
197 504 0
198 504 0
199 504 0
200 504 0
201 504 0
202 504 0
203 504 0
204 504 0
205 504 0
206 504 0
207 504 0
208 504 0
209 504 0
210 504 0.99509187132080212
211 504 0
212 504 0
213 504 0
214 504 0
215 504 0
216 504 0
217 504 0
218 504 0
219 504 0
220 504 0
221 504 0
222 504 0
223 504 0
224 504 0
225 504 0
226 504 0
227 504 0
228 504 0
229 504 0
230 504 0
231 504 0
232 504 0
233 504 0
234 504 0
235 504 0
236 504 0
237 504 0
238 504 0
239 504 0
240 504 0
61 505 -0
62 505 -0
63 505 -0
64 505 -0
65 505 -0
66 505 -0
67 505 -0
68 505 -0
69 505 -0
70 505 -0
71 505 -0
72 505 -0
73 505 -0
74 505 -0
75 505 -0
76 505 -0
77 505 -0
78 505 -0
79 505 -0
80 505 -0
81 505 -0
82 505 -0
83 505 -0
84 505 -0
85 505 -0
86 505 -0
87 505 -0
88 505 -0
89 505 -0
90 505 -0
91 505 -0
92 505 -0
93 505 -0
94 505 -0
95 505 -0
96 505 -0
97 505 -0
98 505 -0
99 505 -0
100 505 -0
101 505 -0
102 505 -0
103 505 -0
104 505 -0
105 505 -0
106 505 -0
107 505 -0
108 505 -0
109 505 -0
110 505 -0
111 505 -0
112 505 -0
113 505 -0
114 505 -0
115 505 -0
116 505 -0
117 505 -0
118 505 -0
119 505 -0
120 505 -0
181 505 0
182 505 0
183 505 0
184 505 0
185 505 0
186 505 0
187 505 0
188 505 0
189 505 0
190 505 0
191 505 0
192 505 0
193 505 0
194 505 0
195 505 0
196 505 0
197 505 0
198 505 0
199 505 0
200 505 0
201 505 0
202 505 0
203 505 0
204 505 0
205 505 0
206 505 0
207 505 0
208 505 0
209 505 0
210 505 0
211 505 0
212 505 0
213 505 0
214 505 0
215 505 0
216 505 0
217 505 0
218 505 0
219 505 0
220 505 0
221 505 0
222 505 0
223 505 0
224 505 0
225 505 0
226 505 0
227 505 0
228 505 0
229 505 0
230 505 0
231 505 0
232 505 0
233 505 0
234 505 0
235 505 0
236 505 0
237 505 0
238 505 0
239 505 0
240 505 0
61 506 -0
62 506 -0
63 506 -0
64 506 -0
65 506 -0
66 506 -0
67 506 -0
68 506 -0
69 506 -0
70 506 -0
71 506 -0
72 506 -0
73 506 -0
74 506 -0
75 506 -0
76 506 -0
77 506 -0
78 506 -0
79 506 -0
80 506 -0
81 506 -0
82 506 -0
83 506 -0
84 506 -0
85 506 -0
86 506 -0
87 506 -0
88 506 -0
89 506 -0
90 506 -0
91 506 -0
92 506 -0
93 506 -0
94 506 -0
95 506 -0
96 506 -0
97 506 -0
98 506 -0
99 506 -0
100 506 -0
101 506 -0
102 506 -0
103 506 -0
104 506 -0
105 506 -0
106 506 -0
107 506 -0
108 506 -0
109 506 -0
110 506 -0
111 506 -0
112 506 -0
113 506 -0
114 506 -0
115 506 -0
116 506 -0
117 506 -0
118 506 -0
119 506 -0
120 506 -0
181 506 0
182 506 0
183 506 0
184 506 0
185 506 0
186 506 0
187 506 0
188 506 0
189 506 0
190 506 0
191 506 0
192 506 0
193 506 0
194 506 0
195 506 0
196 506 0
197 506 0
198 506 0
199 506 0
200 506 0
201 506 0
202 506 0
203 506 0
204 506 0
205 506 0
206 506 0
207 506 0
208 506 0
209 506 0
210 506 0
211 506 0
212 506 0
213 506 0
214 506 0
215 506 0
216 506 0
217 506 0
218 506 0
219 506 0
220 506 0
221 506 0
222 506 0
223 506 0
224 506 0
225 506 0
226 506 0
227 506 0
228 506 0
229 506 0
230 506 0
231 506 0
232 506 0
233 506 0
234 506 0
235 506 0
236 506 0
237 506 0
238 506 0
239 506 0
240 506 0
61 507 -0
62 507 -0
63 507 -0
64 507 -0
65 507 -0
66 507 -0
67 507 -0
68 507 -0
69 507 -0
70 507 -0
71 507 -0
72 507 -0
73 507 -0
74 507 -0
75 507 -0
76 507 -0
77 507 -0
78 507 -0
79 507 -0
80 507 -0
81 507 -0
82 507 -0
83 507 -0
84 507 -0
85 507 -0
86 507 -0
87 507 -0
88 507 -0
89 507 -0
90 507 -0
91 507 -0
92 507 -0
93 507 -0
94 507 -0
95 507 -0
96 507 -0
97 507 -0
98 507 -0
99 507 -0
100 507 -0
101 507 -0
102 507 -0
103 507 -0
104 507 -0
105 507 -0
106 507 -0
107 507 -0
108 507 -0
109 507 -0
110 507 -0
111 507 -0
112 507 -0
113 507 -0
114 507 -0
115 507 -0
116 507 -0
117 507 -0
118 507 -0
119 507 -0
120 507 -0
181 507 0
182 507 0
183 507 0
184 507 0
185 507 0
186 507 0
187 507 0
188 507 0
189 507 0
190 507 0
191 507 0
192 507 0
193 507 0
194 507 0
195 507 0
196 507 0
197 507 0
198 507 0
199 507 0
200 507 0
201 507 0
202 507 0
203 507 0
204 507 0
205 507 0
206 507 0
207 507 0
208 507 0
209 507 0
210 507 0
211 507 0
212 507 0
213 507 0
214 507 0
215 507 0
216 507 0
217 507 0
218 507 0
219 507 0
220 507 0
221 507 0
222 507 0
223 507 0
224 507 0
225 507 0
226 507 0
227 507 0
228 507 0
229 507 0
230 507 0
231 507 0
232 507 0
233 507 0
234 507 0
235 507 0
236 507 0
237 507 0
238 507 0
239 507 0
240 507 0
61 508 -0
62 508 -0
63 508 -0
64 508 -0
65 508 -0
66 508 -0
67 508 -0
68 508 -0
69 508 -0
70 508 -0
71 508 -0
72 508 -0
73 508 -0
74 508 -0
75 508 -0
76 508 -0
77 508 -0
78 508 -0
79 508 -0
80 508 -0
81 508 -0
82 508 -0
83 508 -0
84 508 -0
85 508 -0
86 508 -0
87 508 -0
88 508 -0
89 508 -0
90 508 -0
91 508 -0
92 508 -0
93 508 -0
94 508 -0
95 508 -0
96 508 -0
97 508 -0
98 508 -0
99 508 -0
100 508 -0
101 508 -0
102 508 -0
103 508 -0
104 508 -0
105 508 -0
106 508 -0
107 508 -0
108 508 -0
109 508 -0
110 508 -0
111 508 -0
112 508 -0
113 508 -0
114 508 -0
115 508 -0
116 508 -0
117 508 -0
118 508 -0
119 508 -0
120 508 -0
181 508 0
182 508 0
183 508 0
184 508 0
185 508 0
186 508 0
187 508 0
188 508 0
189 508 0
190 508 0
191 508 0
192 508 0
193 508 0
194 508 0
195 508 0
196 508 0
197 508 0
198 508 0
199 508 0
200 508 0
201 508 0
202 508 0
203 508 0
204 508 0
205 508 0
206 508 0
207 508 0
208 508 0
209 508 0
210 508 0
211 508 0
212 508 0
213 508 0
214 508 0
215 508 0
216 508 0
217 508 0
218 508 0
219 508 0
220 508 0
221 508 0
222 508 0
223 508 0
224 508 0
225 508 0
226 508 0
227 508 0
228 508 0
229 508 0
230 508 0
231 508 0
232 508 0
233 508 0
234 508 0
235 508 0
236 508 0
237 508 0
238 508 0
239 508 0
240 508 0
61 509 -0
62 509 -0
63 509 -0
64 509 -0
65 509 -0
66 509 -0
67 509 -0
68 509 -0
69 509 -0
70 509 -0
71 509 -0
72 509 -0
73 509 -0
74 509 -0
75 509 -0
76 509 -0
77 509 -0
78 509 -0
79 509 -0
80 509 -0
81 509 -0
82 509 -0
83 509 -0
84 509 -0
85 509 -0
86 509 -0
87 509 -0
88 509 -0
89 509 -0
90 509 -0
91 509 -0
92 509 -0
93 509 -0
94 509 -0
95 509 -0
96 509 -0
97 509 -0
98 509 -0
99 509 -0
100 509 -0
101 509 -0
102 509 -0
103 509 -0
104 509 -0
105 509 -0
106 509 -0
107 509 -0
108 509 -0
109 509 -0
110 509 -0
111 509 -0
112 509 -0
113 509 -0
114 509 -0
115 509 -0
116 509 -0
117 509 -0
118 509 -0
119 509 -0
120 509 -0
181 509 0
182 509 0
183 509 0
184 509 0
185 509 0
186 509 0
187 509 0
188 509 0
189 509 0
190 509 0
191 509 0
192 509 0
193 509 0
194 509 0
195 509 0
196 509 0
197 509 0
198 509 0
199 509 0
200 509 0
201 509 0
202 509 0
203 509 0
204 509 0
205 509 0
206 509 0
207 509 0
208 509 0
209 509 0
210 509 0
211 509 0
212 509 0
213 509 0
214 509 0
215 509 0
216 509 0
217 509 0
218 509 0
219 509 0
220 509 0
221 509 0
222 509 0
223 509 0
224 509 0
225 509 0
226 509 0
227 509 0
228 509 0
229 509 0
230 509 0
231 509 0
232 509 0
233 509 0
234 509 0
235 509 0
236 509 0
237 509 0
238 509 0
239 509 0
240 509 0
61 510 -0
62 510 -0
63 510 -0
64 510 -0
65 510 -0
66 510 -0
67 510 -0
68 510 -0
69 510 -0
70 510 -0
71 510 -0
72 510 -0
73 510 -0
74 510 -0
75 510 -0
76 510 -0
77 510 -0
78 510 -0
79 510 -0
80 510 -0
81 510 -0
82 510 -0
83 510 -0
84 510 -0
85 510 -0
86 510 -0
87 510 -0
88 510 -0
89 510 -0
90 510 -0
91 510 -0
92 510 -0
93 510 -0
94 510 -0
95 510 -0
96 510 -0
97 510 -0
98 510 -0
99 510 -0
100 510 -0
101 510 -0
102 510 -0
103 510 -0
104 510 -0
105 510 -0
106 510 -0
107 510 -0
108 510 -0
109 510 -0
110 510 -0
111 510 -0
112 510 -0
113 510 -0
114 510 -0
115 510 -0
116 510 -0
117 510 -0
118 510 -0
119 510 -0
120 510 -0
181 510 0
182 510 0
183 510 0
184 510 0
185 510 0
186 510 0
187 510 0
188 510 0
189 510 0
190 510 0
191 510 0
192 510 0
193 510 0
194 510 0
195 510 0
196 510 0
197 510 0
198 510 0
199 510 0
200 510 0
201 510 0
202 510 0
203 510 0
204 510 0
205 510 0
206 510 0
207 510 0
208 510 0
209 510 0
210 510 0
211 510 0
212 510 0
213 510 0
214 510 0
215 510 0
216 510 0
217 510 0
218 510 0
219 510 0
220 510 0
221 510 0
222 510 0
223 510 0
224 510 0
225 510 0
226 510 0
227 510 0
228 510 0
229 510 0
230 510 0
231 510 0
232 510 0
233 510 0
234 510 0
235 510 0
236 510 0
237 510 0
238 510 0
239 510 0
240 510 0
61 511 -0
62 511 -0
63 511 -0
64 511 -0
65 511 -0
66 511 -0
67 511 -0
68 511 -0
69 511 -0
70 511 -0
71 511 -0
72 511 -0
73 511 -0
74 511 -0
75 511 -0
76 511 -0
77 511 -0
78 511 -0
79 511 -0
80 511 -0
81 511 -0
82 511 -0
83 511 -0
84 511 -0
85 511 -0
86 511 -0
87 511 -0
88 511 -0
89 511 -0
90 511 -0
91 511 -0
92 511 -0
93 511 -0
94 511 -0
95 511 -0
96 511 -0
97 511 -0
98 511 -0
99 511 -0
100 511 -0
101 511 -0
102 511 -0
103 511 -0
104 511 -0
105 511 -0
106 511 -0
107 511 -0
108 511 -0
109 511 -0
110 511 -0
111 511 -0
112 511 -0
113 511 -0
114 511 -0
115 511 -0
116 511 -0
117 511 -0
118 511 -0
119 511 -0
120 511 -0
181 511 0
182 511 0
183 511 0
184 511 0
185 511 0
186 511 0
187 511 0
188 511 0
189 511 0
190 511 0
191 511 0
192 511 0
193 511 0
194 511 0
195 511 0
196 511 0
197 511 0
198 511 0
199 511 0
200 511 0
201 511 0
202 511 0
203 511 0
204 511 0
205 511 0
206 511 0
207 511 0
208 511 0
209 511 0
210 511 0
211 511 0
212 511 0
213 511 0
214 511 0
215 511 0
216 511 0
217 511 0
218 511 0
219 511 0
220 511 0
221 511 0
222 511 0
223 511 0
224 511 0
225 511 0
226 511 0
227 511 0
228 511 0
229 511 0
230 511 0
231 511 0
232 511 0
233 511 0
234 511 0
235 511 0
236 511 0
237 511 0
238 511 0
239 511 0
240 511 0
61 512 -0
62 512 -0
63 512 -0
64 512 -0
65 512 -0
66 512 -0
67 512 -0
68 512 -0
69 512 -0
70 512 -0
71 512 -0
72 512 -0
73 512 -0
74 512 -0
75 512 -0
76 512 -0
77 512 -0
78 512 -0
79 512 -0
80 512 -0
81 512 -0
82 512 -0
83 512 -0
84 512 -0
85 512 -0
86 512 -0
87 512 -0
88 512 -0
89 512 -0
90 512 -0
91 512 -0
92 512 -0
93 512 -0
94 512 -0
95 512 -0
96 512 -0
97 512 -0
98 512 -0
99 512 -0
100 512 -0
101 512 -0
102 512 -0
103 512 -0
104 512 -0
105 512 -0
106 512 -0
107 512 -0
108 512 -0
109 512 -0
110 512 -0
111 512 -0
112 512 -0
113 512 -0
114 512 -0
115 512 -0
116 512 -0
117 512 -0
118 512 -0
119 512 -0
120 512 -0
181 512 0
182 512 0
183 512 0
184 512 0
185 512 0
186 512 0
187 512 0
188 512 0
189 512 0
190 512 0
191 512 0
192 512 0
193 512 0
194 512 0
195 512 0
196 512 0
197 512 0
198 512 0
199 512 0
200 512 0
201 512 0
202 512 0
203 512 0
204 512 0
205 512 0
206 512 0
207 512 0
208 512 0
209 512 0
210 512 0
211 512 0.99509187132080212
212 512 0
213 512 0
214 512 0
215 512 0
216 512 0
217 512 0
218 512 0
219 512 0
220 512 0
221 512 0
222 512 0
223 512 0
224 512 0
225 512 0
226 512 0
227 512 0
228 512 0
229 512 0
230 512 0
231 512 0
232 512 0
233 512 0
234 512 0
235 512 0
236 512 0
237 512 0
238 512 0
239 512 0
240 512 0
61 513 -0
62 513 -0
63 513 -0
64 513 -0
65 513 -0
66 513 -0
67 513 -0
68 513 -0
69 513 -0
70 513 -0
71 513 -0
72 513 -0
73 513 -0
74 513 -0
75 513 -0
76 513 -0
77 513 -0
78 513 -0
79 513 -0
80 513 -0
81 513 -0
82 513 -0
83 513 -0
84 513 -0
85 513 -0
86 513 -0
87 513 -0
88 513 -0
89 513 -0
90 513 -0
91 513 -0
92 513 -0
93 513 -0
94 513 -0
95 513 -0
96 513 -0
97 513 -0
98 513 -0
99 513 -0
100 513 -0
101 513 -0
102 513 -0
103 513 -0
104 513 -0
105 513 -0
106 513 -0
107 513 -0
108 513 -0
109 513 -0
110 513 -0
111 513 -0
112 513 -0
113 513 -0
114 513 -0
115 513 -0
116 513 -0
117 513 -0
118 513 -0
119 513 -0
120 513 -0
181 513 0
182 513 0
183 513 0
184 513 0
185 513 0
186 513 0
187 513 0
188 513 0
189 513 0
190 513 0
191 513 0
192 513 0
193 513 0
194 513 0
195 513 0
196 513 0
197 513 0
198 513 0
199 513 0
200 513 0
201 513 0
202 513 0
203 513 0
204 513 0
205 513 0
206 513 0
207 513 0
208 513 0
209 513 0
210 513 0
211 513 0
212 513 0.99509187132080212
213 513 0
214 513 0
215 513 0
216 513 0
217 513 0
218 513 0
219 513 0
220 513 0
221 513 0
222 513 0
223 513 0
224 513 0
225 513 0
226 513 0
227 513 0
228 513 0
229 513 0
230 513 0
231 513 0
232 513 0
233 513 0
234 513 0
235 513 0
236 513 0
237 513 0
238 513 0
239 513 0
240 513 0
61 514 -0
62 514 -0
63 514 -0
64 514 -0
65 514 -0
66 514 -0
67 514 -0
68 514 -0
69 514 -0
70 514 -0
71 514 -0
72 514 -0
73 514 -0
74 514 -0
75 514 -0
76 514 -0
77 514 -0
78 514 -0
79 514 -0
80 514 -0
81 514 -0
82 514 -0
83 514 -0
84 514 -0
85 514 -0
86 514 -0
87 514 -0
88 514 -0
89 514 -0
90 514 -0
91 514 -0
92 514 -0
93 514 -0
94 514 -0
95 514 -0
96 514 -0
97 514 -0
98 514 -0
99 514 -0
100 514 -0
101 514 -0
102 514 -0
103 514 -0
104 514 -0
105 514 -0
106 514 -0
107 514 -0
108 514 -0
109 514 -0
110 514 -0
111 514 -0
112 514 -0
113 514 -0
114 514 -0
115 514 -0
116 514 -0
117 514 -0
118 514 -0
119 514 -0
120 514 -0
181 514 0
182 514 0
183 514 0
184 514 0
185 514 0
186 514 0
187 514 0
188 514 0
189 514 0
190 514 0
191 514 0
192 514 0
193 514 0
194 514 0
195 514 0
196 514 0
197 514 0
198 514 0
199 514 0
200 514 0
201 514 0
202 514 0
203 514 0
204 514 0
205 514 0
206 514 0
207 514 0
208 514 0
209 514 0
210 514 0
211 514 0
212 514 0
213 514 0.99509187132080212
214 514 0
215 514 0
216 514 0
217 514 0
218 514 0
219 514 0
220 514 0
221 514 0
222 514 0
223 514 0
224 514 0
225 514 0
226 514 0
227 514 0
228 514 0
229 514 0
230 514 0
231 514 0
232 514 0
233 514 0
234 514 0
235 514 0
236 514 0
237 514 0
238 514 0
239 514 0
240 514 0
61 515 -0
62 515 -0
63 515 -0
64 515 -0
65 515 -0
66 515 -0
67 515 -0
68 515 -0
69 515 -0
70 515 -0
71 515 -0
72 515 -0
73 515 -0
74 515 -0
75 515 -0
76 515 -0
77 515 -0
78 515 -0
79 515 -0
80 515 -0
81 515 -0
82 515 -0
83 515 -0
84 515 -0
85 515 -0
86 515 -0
87 515 -0
88 515 -0
89 515 -0
90 515 -0
91 515 -0
92 515 -0
93 515 -0
94 515 -0
95 515 -0
96 515 -0
97 515 -0
98 515 -0
99 515 -0
100 515 -0
101 515 -0
102 515 -0
103 515 -0
104 515 -0
105 515 -0
106 515 -0
107 515 -0
108 515 -0
109 515 -0
110 515 -0
111 515 -0
112 515 -0
113 515 -0
114 515 -0
115 515 -0
116 515 -0
117 515 -0
118 515 -0
119 515 -0
120 515 -0
181 515 0
182 515 0
183 515 0
184 515 0
185 515 0
186 515 0
187 515 0
188 515 0
189 515 0
190 515 0
191 515 0
192 515 0
193 515 0
194 515 0
195 515 0
196 515 0
197 515 0
198 515 0
199 515 0
200 515 0
201 515 0
202 515 0
203 515 0
204 515 0
205 515 0
206 515 0
207 515 0
208 515 0
209 515 0
210 515 0
211 515 0
212 515 0
213 515 0
214 515 0.99509187132080212
215 515 0
216 515 0
217 515 0
218 515 0
219 515 0
220 515 0
221 515 0
222 515 0
223 515 0
224 515 0
225 515 0
226 515 0
227 515 0
228 515 0
229 515 0
230 515 0
231 515 0
232 515 0
233 515 0
234 515 0
235 515 0
236 515 0
237 515 0
238 515 0
239 515 0
240 515 0
61 516 -0
62 516 -0
63 516 -0
64 516 -0
65 516 -0
66 516 -0
67 516 -0
68 516 -0
69 516 -0
70 516 -0
71 516 -0
72 516 -0
73 516 -0
74 516 -0
75 516 -0
76 516 -0
77 516 -0
78 516 -0
79 516 -0
80 516 -0
81 516 -0
82 516 -0
83 516 -0
84 516 -0
85 516 -0
86 516 -0
87 516 -0
88 516 -0
89 516 -0
90 516 -0
91 516 -0
92 516 -0
93 516 -0
94 516 -0
95 516 -0
96 516 -0
97 516 -0
98 516 -0
99 516 -0
100 516 -0
101 516 -0
102 516 -0
103 516 -0
104 516 -0
105 516 -0
106 516 -0
107 516 -0
108 516 -0
109 516 -0
110 516 -0
111 516 -0
112 516 -0
113 516 -0
114 516 -0
115 516 -0
116 516 -0
117 516 -0
118 516 -0
119 516 -0
120 516 -0
181 516 0
182 516 0
183 516 0
184 516 0
185 516 0
186 516 0
187 516 0
188 516 0
189 516 0
190 516 0
191 516 0
192 516 0
193 516 0
194 516 0
195 516 0
196 516 0
197 516 0
198 516 0
199 516 0
200 516 0
201 516 0
202 516 0
203 516 0
204 516 0
205 516 0
206 516 0
207 516 0
208 516 0
209 516 0
210 516 0
211 516 0
212 516 0
213 516 0
214 516 0
215 516 0.99509187132080212
216 516 0
217 516 0
218 516 0
219 516 0
220 516 0
221 516 0
222 516 0
223 516 0
224 516 0
225 516 0
226 516 0
227 516 0
228 516 0
229 516 0
230 516 0
231 516 0
232 516 0
233 516 0
234 516 0
235 516 0
236 516 0
237 516 0
238 516 0
239 516 0
240 516 0
61 517 -0
62 517 -0
63 517 -0
64 517 -0
65 517 -0
66 517 -0
67 517 -0
68 517 -0
69 517 -0
70 517 -0
71 517 -0
72 517 -0
73 517 -0
74 517 -0
75 517 -0
76 517 -0
77 517 -0
78 517 -0
79 517 -0
80 517 -0
81 517 -0
82 517 -0
83 517 -0
84 517 -0
85 517 -0
86 517 -0
87 517 -0
88 517 -0
89 517 -0
90 517 -0
91 517 -0
92 517 -0
93 517 -0
94 517 -0
95 517 -0
96 517 -0
97 517 -0
98 517 -0
99 517 -0
100 517 -0
101 517 -0
102 517 -0
103 517 -0
104 517 -0
105 517 -0
106 517 -0
107 517 -0
108 517 -0
109 517 -0
110 517 -0
111 517 -0
112 517 -0
113 517 -0
114 517 -0
115 517 -0
116 517 -0
117 517 -0
118 517 -0
119 517 -0
120 517 -0
181 517 0
182 517 0
183 517 0
184 517 0
185 517 0
186 517 0
187 517 0
188 517 0
189 517 0
190 517 0
191 517 0
192 517 0
193 517 0
194 517 0
195 517 0
196 517 0
197 517 0
198 517 0
199 517 0
200 517 0
201 517 0
202 517 0
203 517 0
204 517 0
205 517 0
206 517 0
207 517 0
208 517 0
209 517 0
210 517 0
211 517 0
212 517 0
213 517 0
214 517 0
215 517 0
216 517 0
217 517 0
218 517 0
219 517 0
220 517 0
221 517 0
222 517 0
223 517 0
224 517 0
225 517 0
226 517 0
227 517 0
228 517 0
229 517 0
230 517 0
231 517 0
232 517 0
233 517 0
234 517 0
235 517 0
236 517 0
237 517 0
238 517 0
239 517 0
240 517 0
61 518 -0
62 518 -0
63 518 -0
64 518 -0
65 518 -0
66 518 -0
67 518 -0
68 518 -0
69 518 -0
70 518 -0
71 518 -0
72 518 -0
73 518 -0
74 518 -0
75 518 -0
76 518 -0
77 518 -0
78 518 -0
79 518 -0
80 518 -0
81 518 -0
82 518 -0
83 518 -0
84 518 -0
85 518 -0
86 518 -0
87 518 -0
88 518 -0
89 518 -0
90 518 -0
91 518 -0
92 518 -0
93 518 -0
94 518 -0
95 518 -0
96 518 -0
97 518 -0
98 518 -0
99 518 -0
100 518 -0
101 518 -0
102 518 -0
103 518 -0
104 518 -0
105 518 -0
106 518 -0
107 518 -0
108 518 -0
109 518 -0
110 518 -0
111 518 -0
112 518 -0
113 518 -0
114 518 -0
115 518 -0
116 518 -0
117 518 -0
118 518 -0
119 518 -0
120 518 -0
181 518 0
182 518 0
183 518 0
184 518 0
185 518 0
186 518 0
187 518 0
188 518 0
189 518 0
190 518 0
191 518 0
192 518 0
193 518 0
194 518 0
195 518 0
196 518 0
197 518 0
198 518 0
199 518 0
200 518 0
201 518 0
202 518 0
203 518 0
204 518 0
205 518 0
206 518 0
207 518 0
208 518 0
209 518 0
210 518 0
211 518 0
212 518 0
213 518 0
214 518 0
215 518 0
216 518 0
217 518 0
218 518 0
219 518 0
220 518 0
221 518 0
222 518 0
223 518 0
224 518 0
225 518 0
226 518 0
227 518 0
228 518 0
229 518 0
230 518 0
231 518 0
232 518 0
233 518 0
234 518 0
235 518 0
236 518 0
237 518 0
238 518 0
239 518 0
240 518 0
61 519 -0
62 519 -0
63 519 -0
64 519 -0
65 519 -0
66 519 -0
67 519 -0
68 519 -0
69 519 -0
70 519 -0
71 519 -0
72 519 -0
73 519 -0
74 519 -0
75 519 -0
76 519 -0
77 519 -0
78 519 -0
79 519 -0
80 519 -0
81 519 -0
82 519 -0
83 519 -0
84 519 -0
85 519 -0
86 519 -0
87 519 -0
88 519 -0
89 519 -0
90 519 -0
91 519 -0
92 519 -0
93 519 -0
94 519 -0
95 519 -0
96 519 -0
97 519 -0
98 519 -0
99 519 -0
100 519 -0
101 519 -0
102 519 -0
103 519 -0
104 519 -0
105 519 -0
106 519 -0
107 519 -0
108 519 -0
109 519 -0
110 519 -0
111 519 -0
112 519 -0
113 519 -0
114 519 -0
115 519 -0
116 519 -0
117 519 -0
118 519 -0
119 519 -0
120 519 -0
181 519 0
182 519 0
183 519 0
184 519 0
185 519 0
186 519 0
187 519 0
188 519 0
189 519 0
190 519 0
191 519 0
192 519 0
193 519 0
194 519 0
195 519 0
196 519 0
197 519 0
198 519 0
199 519 0
200 519 0
201 519 0
202 519 0
203 519 0
204 519 0
205 519 0
206 519 0
207 519 0
208 519 0
209 519 0
210 519 0
211 519 0
212 519 0
213 519 0
214 519 0
215 519 0
216 519 0
217 519 0
218 519 0
219 519 0
220 519 0
221 519 0
222 519 0
223 519 0
224 519 0
225 519 0
226 519 0
227 519 0
228 519 0
229 519 0
230 519 0
231 519 0
232 519 0
233 519 0
234 519 0
235 519 0
236 519 0
237 519 0
238 519 0
239 519 0
240 519 0
61 520 -0
62 520 -0
63 520 -0
64 520 -0
65 520 -0
66 520 -0
67 520 -0
68 520 -0
69 520 -0
70 520 -0
71 520 -0
72 520 -0
73 520 -0
74 520 -0
75 520 -0
76 520 -0
77 520 -0
78 520 -0
79 520 -0
80 520 -0
81 520 -0
82 520 -0
83 520 -0
84 520 -0
85 520 -0
86 520 -0
87 520 -0
88 520 -0
89 520 -0
90 520 -0
91 520 -0
92 520 -0
93 520 -0
94 520 -0
95 520 -0
96 520 -0
97 520 -0
98 520 -0
99 520 -0
100 520 -0
101 520 -0
102 520 -0
103 520 -0
104 520 -0
105 520 -0
106 520 -0
107 520 -0
108 520 -0
109 520 -0
110 520 -0
111 520 -0
112 520 -0
113 520 -0
114 520 -0
115 520 -0
116 520 -0
117 520 -0
118 520 -0
119 520 -0
120 520 -0
181 520 0
182 520 0
183 520 0
184 520 0
185 520 0
186 520 0
187 520 0
188 520 0
189 520 0
190 520 0
191 520 0
192 520 0
193 520 0
194 520 0
195 520 0
196 520 0
197 520 0
198 520 0
199 520 0
200 520 0
201 520 0
202 520 0
203 520 0
204 520 0
205 520 0
206 520 0
207 520 0
208 520 0
209 520 0
210 520 0
211 520 0
212 520 0
213 520 0
214 520 0
215 520 0
216 520 0
217 520 0
218 520 0
219 520 0
220 520 0
221 520 0
222 520 0
223 520 0
224 520 0
225 520 0
226 520 0
227 520 0
228 520 0
229 520 0
230 520 0
231 520 0
232 520 0
233 520 0
234 520 0
235 520 0
236 520 0
237 520 0
238 520 0
239 520 0
240 520 0
61 521 -0
62 521 -0
63 521 -0
64 521 -0
65 521 -0
66 521 -0
67 521 -0
68 521 -0
69 521 -0
70 521 -0
71 521 -0
72 521 -0
73 521 -0
74 521 -0
75 521 -0
76 521 -0
77 521 -0
78 521 -0
79 521 -0
80 521 -0
81 521 -0
82 521 -0
83 521 -0
84 521 -0
85 521 -0
86 521 -0
87 521 -0
88 521 -0
89 521 -0
90 521 -0
91 521 -0
92 521 -0
93 521 -0
94 521 -0
95 521 -0
96 521 -0
97 521 -0
98 521 -0
99 521 -0
100 521 -0
101 521 -0
102 521 -0
103 521 -0
104 521 -0
105 521 -0
106 521 -0
107 521 -0
108 521 -0
109 521 -0
110 521 -0
111 521 -0
112 521 -0
113 521 -0
114 521 -0
115 521 -0
116 521 -0
117 521 -0
118 521 -0
119 521 -0
120 521 -0
181 521 0
182 521 0
183 521 0
184 521 0
185 521 0
186 521 0
187 521 0
188 521 0
189 521 0
190 521 0
191 521 0
192 521 0
193 521 0
194 521 0
195 521 0
196 521 0
197 521 0
198 521 0
199 521 0
200 521 0
201 521 0
202 521 0
203 521 0
204 521 0
205 521 0
206 521 0
207 521 0
208 521 0
209 521 0
210 521 0
211 521 0
212 521 0
213 521 0
214 521 0
215 521 0
216 521 0
217 521 0
218 521 0
219 521 0
220 521 0
221 521 0
222 521 0
223 521 0
224 521 0
225 521 0
226 521 0
227 521 0
228 521 0
229 521 0
230 521 0
231 521 0
232 521 0
233 521 0
234 521 0
235 521 0
236 521 0
237 521 0
238 521 0
239 521 0
240 521 0
61 522 -0
62 522 -0
63 522 -0
64 522 -0
65 522 -0
66 522 -0
67 522 -0
68 522 -0
69 522 -0
70 522 -0
71 522 -0
72 522 -0
73 522 -0
74 522 -0
75 522 -0
76 522 -0
77 522 -0
78 522 -0
79 522 -0
80 522 -0
81 522 -0
82 522 -0
83 522 -0
84 522 -0
85 522 -0
86 522 -0
87 522 -0
88 522 -0
89 522 -0
90 522 -0
91 522 -0
92 522 -0
93 522 -0
94 522 -0
95 522 -0
96 522 -0
97 522 -0
98 522 -0
99 522 -0
100 522 -0
101 522 -0
102 522 -0
103 522 -0
104 522 -0
105 522 -0
106 522 -0
107 522 -0
108 522 -0
109 522 -0
110 522 -0
111 522 -0
112 522 -0
113 522 -0
114 522 -0
115 522 -0
116 522 -0
117 522 -0
118 522 -0
119 522 -0
120 522 -0
181 522 0
182 522 0
183 522 0
184 522 0
185 522 0
186 522 0
187 522 0
188 522 0
189 522 0
190 522 0
191 522 0
192 522 0
193 522 0
194 522 0
195 522 0
196 522 0
197 522 0
198 522 0
199 522 0
200 522 0
201 522 0
202 522 0
203 522 0
204 522 0
205 522 0
206 522 0
207 522 0
208 522 0
209 522 0
210 522 0
211 522 0
212 522 0
213 522 0
214 522 0
215 522 0
216 522 0
217 522 0
218 522 0
219 522 0
220 522 0
221 522 0
222 522 0
223 522 0
224 522 0
225 522 0
226 522 0
227 522 0
228 522 0
229 522 0
230 522 0
231 522 0
232 522 0
233 522 0
234 522 0
235 522 0
236 522 0
237 522 0
238 522 0
239 522 0
240 522 0
61 523 -0
62 523 -0
63 523 -0
64 523 -0
65 523 -0
66 523 -0
67 523 -0
68 523 -0
69 523 -0
70 523 -0
71 523 -0
72 523 -0
73 523 -0
74 523 -0
75 523 -0
76 523 -0
77 523 -0
78 523 -0
79 523 -0
80 523 -0
81 523 -0
82 523 -0
83 523 -0
84 523 -0
85 523 -0
86 523 -0
87 523 -0
88 523 -0
89 523 -0
90 523 -0
91 523 -0
92 523 -0
93 523 -0
94 523 -0
95 523 -0
96 523 -0
97 523 -0
98 523 -0
99 523 -0
100 523 -0
101 523 -0
102 523 -0
103 523 -0
104 523 -0
105 523 -0
106 523 -0
107 523 -0
108 523 -0
109 523 -0
110 523 -0
111 523 -0
112 523 -0
113 523 -0
114 523 -0
115 523 -0
116 523 -0
117 523 -0
118 523 -0
119 523 -0
120 523 -0
181 523 0
182 523 0
183 523 0
184 523 0
185 523 0
186 523 0
187 523 0
188 523 0
189 523 0
190 523 0
191 523 0
192 523 0
193 523 0
194 523 0
195 523 0
196 523 0
197 523 0
198 523 0
199 523 0
200 523 0
201 523 0
202 523 0
203 523 0
204 523 0
205 523 0
206 523 0
207 523 0
208 523 0
209 523 0
210 523 0
211 523 0
212 523 0
213 523 0
214 523 0
215 523 0
216 523 0
217 523 0
218 523 0
219 523 0
220 523 0
221 523 0
222 523 0
223 523 0
224 523 0
225 523 0
226 523 0
227 523 0
228 523 0
229 523 0
230 523 0
231 523 0
232 523 0
233 523 0
234 523 0
235 523 0
236 523 0
237 523 0
238 523 0
239 523 0
240 523 0
61 524 -0
62 524 -0
63 524 -0
64 524 -0
65 524 -0
66 524 -0
67 524 -0
68 524 -0
69 524 -0
70 524 -0
71 524 -0
72 524 -0
73 524 -0
74 524 -0
75 524 -0
76 524 -0
77 524 -0
78 524 -0
79 524 -0
80 524 -0
81 524 -0
82 524 -0
83 524 -0
84 524 -0
85 524 -0
86 524 -0
87 524 -0
88 524 -0
89 524 -0
90 524 -0
91 524 -0
92 524 -0
93 524 -0
94 524 -0
95 524 -0
96 524 -0
97 524 -0
98 524 -0
99 524 -0
100 524 -0
101 524 -0
102 524 -0
103 524 -0
104 524 -0
105 524 -0
106 524 -0
107 524 -0
108 524 -0
109 524 -0
110 524 -0
111 524 -0
112 524 -0
113 524 -0
114 524 -0
115 524 -0
116 524 -0
117 524 -0
118 524 -0
119 524 -0
120 524 -0
181 524 0
182 524 0
183 524 0
184 524 0
185 524 0
186 524 0
187 524 0
188 524 0
189 524 0
190 524 0
191 524 0
192 524 0
193 524 0
194 524 0
195 524 0
196 524 0
197 524 0
198 524 0
199 524 0
200 524 0
201 524 0
202 524 0
203 524 0
204 524 0
205 524 0
206 524 0
207 524 0
208 524 0
209 524 0
210 524 0
211 524 0
212 524 0
213 524 0
214 524 0
215 524 0
216 524 0.99509187132080212
217 524 0
218 524 0
219 524 0
220 524 0
221 524 0
222 524 0
223 524 0
224 524 0
225 524 0
226 524 0
227 524 0
228 524 0
229 524 0
230 524 0
231 524 0
232 524 0
233 524 0
234 524 0
235 524 0
236 524 0
237 524 0
238 524 0
239 524 0
240 524 0
61 525 -0
62 525 -0
63 525 -0
64 525 -0
65 525 -0
66 525 -0
67 525 -0
68 525 -0
69 525 -0
70 525 -0
71 525 -0
72 525 -0
73 525 -0
74 525 -0
75 525 -0
76 525 -0
77 525 -0
78 525 -0
79 525 -0
80 525 -0
81 525 -0
82 525 -0
83 525 -0
84 525 -0
85 525 -0
86 525 -0
87 525 -0
88 525 -0
89 525 -0
90 525 -0
91 525 -0
92 525 -0
93 525 -0
94 525 -0
95 525 -0
96 525 -0
97 525 -0
98 525 -0
99 525 -0
100 525 -0
101 525 -0
102 525 -0
103 525 -0
104 525 -0
105 525 -0
106 525 -0
107 525 -0
108 525 -0
109 525 -0
110 525 -0
111 525 -0
112 525 -0
113 525 -0
114 525 -0
115 525 -0
116 525 -0
117 525 -0
118 525 -0
119 525 -0
120 525 -0
181 525 0
182 525 0
183 525 0
184 525 0
185 525 0
186 525 0
187 525 0
188 525 0
189 525 0
190 525 0
191 525 0
192 525 0
193 525 0
194 525 0
195 525 0
196 525 0
197 525 0
198 525 0
199 525 0
200 525 0
201 525 0
202 525 0
203 525 0
204 525 0
205 525 0
206 525 0
207 525 0
208 525 0
209 525 0
210 525 0
211 525 0
212 525 0
213 525 0
214 525 0
215 525 0
216 525 0
217 525 0.99509187132080212
218 525 0
219 525 0
220 525 0
221 525 0
222 525 0
223 525 0
224 525 0
225 525 0
226 525 0
227 525 0
228 525 0
229 525 0
230 525 0
231 525 0
232 525 0
233 525 0
234 525 0
235 525 0
236 525 0
237 525 0
238 525 0
239 525 0
240 525 0
61 526 -0
62 526 -0
63 526 -0
64 526 -0
65 526 -0
66 526 -0
67 526 -0
68 526 -0
69 526 -0
70 526 -0
71 526 -0
72 526 -0
73 526 -0
74 526 -0
75 526 -0
76 526 -0
77 526 -0
78 526 -0
79 526 -0
80 526 -0
81 526 -0
82 526 -0
83 526 -0
84 526 -0
85 526 -0
86 526 -0
87 526 -0
88 526 -0
89 526 -0
90 526 -0
91 526 -0
92 526 -0
93 526 -0
94 526 -0
95 526 -0
96 526 -0
97 526 -0
98 526 -0
99 526 -0
100 526 -0
101 526 -0
102 526 -0
103 526 -0
104 526 -0
105 526 -0
106 526 -0
107 526 -0
108 526 -0
109 526 -0
110 526 -0
111 526 -0
112 526 -0
113 526 -0
114 526 -0
115 526 -0
116 526 -0
117 526 -0
118 526 -0
119 526 -0
120 526 -0
181 526 0
182 526 0
183 526 0
184 526 0
185 526 0
186 526 0
187 526 0
188 526 0
189 526 0
190 526 0
191 526 0
192 526 0
193 526 0
194 526 0
195 526 0
196 526 0
197 526 0
198 526 0
199 526 0
200 526 0
201 526 0
202 526 0
203 526 0
204 526 0
205 526 0
206 526 0
207 526 0
208 526 0
209 526 0
210 526 0
211 526 0
212 526 0
213 526 0
214 526 0
215 526 0
216 526 0
217 526 0
218 526 0.99509187132080212
219 526 0
220 526 0
221 526 0
222 526 0
223 526 0
224 526 0
225 526 0
226 526 0
227 526 0
228 526 0
229 526 0
230 526 0
231 526 0
232 526 0
233 526 0
234 526 0
235 526 0
236 526 0
237 526 0
238 526 0
239 526 0
240 526 0
61 527 -0
62 527 -0
63 527 -0
64 527 -0
65 527 -0
66 527 -0
67 527 -0
68 527 -0
69 527 -0
70 527 -0
71 527 -0
72 527 -0
73 527 -0
74 527 -0
75 527 -0
76 527 -0
77 527 -0
78 527 -0
79 527 -0
80 527 -0
81 527 -0
82 527 -0
83 527 -0
84 527 -0
85 527 -0
86 527 -0
87 527 -0
88 527 -0
89 527 -0
90 527 -0
91 527 -0
92 527 -0
93 527 -0
94 527 -0
95 527 -0
96 527 -0
97 527 -0
98 527 -0
99 527 -0
100 527 -0
101 527 -0
102 527 -0
103 527 -0
104 527 -0
105 527 -0
106 527 -0
107 527 -0
108 527 -0
109 527 -0
110 527 -0
111 527 -0
112 527 -0
113 527 -0
114 527 -0
115 527 -0
116 527 -0
117 527 -0
118 527 -0
119 527 -0
120 527 -0
181 527 0
182 527 0
183 527 0
184 527 0
185 527 0
186 527 0
187 527 0
188 527 0
189 527 0
190 527 0
191 527 0
192 527 0
193 527 0
194 527 0
195 527 0
196 527 0
197 527 0
198 527 0
199 527 0
200 527 0
201 527 0
202 527 0
203 527 0
204 527 0
205 527 0
206 527 0
207 527 0
208 527 0
209 527 0
210 527 0
211 527 0
212 527 0
213 527 0
214 527 0
215 527 0
216 527 0
217 527 0
218 527 0
219 527 0.99509187132080212
220 527 0
221 527 0
222 527 0
223 527 0
224 527 0
225 527 0
226 527 0
227 527 0
228 527 0
229 527 0
230 527 0
231 527 0
232 527 0
233 527 0
234 527 0
235 527 0
236 527 0
237 527 0
238 527 0
239 527 0
240 527 0
61 528 -0
62 528 -0
63 528 -0
64 528 -0
65 528 -0
66 528 -0
67 528 -0
68 528 -0
69 528 -0
70 528 -0
71 528 -0
72 528 -0
73 528 -0
74 528 -0
75 528 -0
76 528 -0
77 528 -0
78 528 -0
79 528 -0
80 528 -0
81 528 -0
82 528 -0
83 528 -0
84 528 -0
85 528 -0
86 528 -0
87 528 -0
88 528 -0
89 528 -0
90 528 -0
91 528 -0
92 528 -0
93 528 -0
94 528 -0
95 528 -0
96 528 -0
97 528 -0
98 528 -0
99 528 -0
100 528 -0
101 528 -0
102 528 -0
103 528 -0
104 528 -0
105 528 -0
106 528 -0
107 528 -0
108 528 -0
109 528 -0
110 528 -0
111 528 -0
112 528 -0
113 528 -0
114 528 -0
115 528 -0
116 528 -0
117 528 -0
118 528 -0
119 528 -0
120 528 -0
181 528 0
182 528 0
183 528 0
184 528 0
185 528 0
186 528 0
187 528 0
188 528 0
189 528 0
190 528 0
191 528 0
192 528 0
193 528 0
194 528 0
195 528 0
196 528 0
197 528 0
198 528 0
199 528 0
200 528 0
201 528 0
202 528 0
203 528 0
204 528 0
205 528 0
206 528 0
207 528 0
208 528 0
209 528 0
210 528 0
211 528 0
212 528 0
213 528 0
214 528 0
215 528 0
216 528 0
217 528 0
218 528 0
219 528 0
220 528 0.99509187132080212
221 528 0
222 528 0
223 528 0
224 528 0
225 528 0
226 528 0
227 528 0
228 528 0
229 528 0
230 528 0
231 528 0
232 528 0
233 528 0
234 528 0
235 528 0
236 528 0
237 528 0
238 528 0
239 528 0
240 528 0
61 529 -0
62 529 -0
63 529 -0
64 529 -0
65 529 -0
66 529 -0
67 529 -0
68 529 -0
69 529 -0
70 529 -0
71 529 -0
72 529 -0
73 529 -0
74 529 -0
75 529 -0
76 529 -0
77 529 -0
78 529 -0
79 529 -0
80 529 -0
81 529 -0
82 529 -0
83 529 -0
84 529 -0
85 529 -0
86 529 -0
87 529 -0
88 529 -0
89 529 -0
90 529 -0
91 529 -0
92 529 -0
93 529 -0
94 529 -0
95 529 -0
96 529 -0
97 529 -0
98 529 -0
99 529 -0
100 529 -0
101 529 -0
102 529 -0
103 529 -0
104 529 -0
105 529 -0
106 529 -0
107 529 -0
108 529 -0
109 529 -0
110 529 -0
111 529 -0
112 529 -0
113 529 -0
114 529 -0
115 529 -0
116 529 -0
117 529 -0
118 529 -0
119 529 -0
120 529 -0
181 529 0
182 529 0
183 529 0
184 529 0
185 529 0
186 529 0
187 529 0
188 529 0
189 529 0
190 529 0
191 529 0
192 529 0
193 529 0
194 529 0
195 529 0
196 529 0
197 529 0
198 529 0
199 529 0
200 529 0
201 529 0
202 529 0
203 529 0
204 529 0
205 529 0
206 529 0
207 529 0
208 529 0
209 529 0
210 529 0
211 529 0
212 529 0
213 529 0
214 529 0
215 529 0
216 529 0
217 529 0
218 529 0
219 529 0
220 529 0
221 529 0
222 529 0
223 529 0
224 529 0
225 529 0
226 529 0
227 529 0
228 529 0
229 529 0
230 529 0
231 529 0
232 529 0
233 529 0
234 529 0
235 529 0
236 529 0
237 529 0
238 529 0
239 529 0
240 529 0
61 530 -0
62 530 -0
63 530 -0
64 530 -0
65 530 -0
66 530 -0
67 530 -0
68 530 -0
69 530 -0
70 530 -0
71 530 -0
72 530 -0
73 530 -0
74 530 -0
75 530 -0
76 530 -0
77 530 -0
78 530 -0
79 530 -0
80 530 -0
81 530 -0
82 530 -0
83 530 -0
84 530 -0
85 530 -0
86 530 -0
87 530 -0
88 530 -0
89 530 -0
90 530 -0
91 530 -0
92 530 -0
93 530 -0
94 530 -0
95 530 -0
96 530 -0
97 530 -0
98 530 -0
99 530 -0
100 530 -0
101 530 -0
102 530 -0
103 530 -0
104 530 -0
105 530 -0
106 530 -0
107 530 -0
108 530 -0
109 530 -0
110 530 -0
111 530 -0
112 530 -0
113 530 -0
114 530 -0
115 530 -0
116 530 -0
117 530 -0
118 530 -0
119 530 -0
120 530 -0
181 530 0
182 530 0
183 530 0
184 530 0
185 530 0
186 530 0
187 530 0
188 530 0
189 530 0
190 530 0
191 530 0
192 530 0
193 530 0
194 530 0
195 530 0
196 530 0
197 530 0
198 530 0
199 530 0
200 530 0
201 530 0
202 530 0
203 530 0
204 530 0
205 530 0
206 530 0
207 530 0
208 530 0
209 530 0
210 530 0
211 530 0
212 530 0
213 530 0
214 530 0
215 530 0
216 530 0
217 530 0
218 530 0
219 530 0
220 530 0
221 530 0
222 530 0
223 530 0
224 530 0
225 530 0
226 530 0
227 530 0
228 530 0
229 530 0
230 530 0
231 530 0
232 530 0
233 530 0
234 530 0
235 530 0
236 530 0
237 530 0
238 530 0
239 530 0
240 530 0
61 531 -0
62 531 -0
63 531 -0
64 531 -0
65 531 -0
66 531 -0
67 531 -0
68 531 -0
69 531 -0
70 531 -0
71 531 -0
72 531 -0
73 531 -0
74 531 -0
75 531 -0
76 531 -0
77 531 -0
78 531 -0
79 531 -0
80 531 -0
81 531 -0
82 531 -0
83 531 -0
84 531 -0
85 531 -0
86 531 -0
87 531 -0
88 531 -0
89 531 -0
90 531 -0
91 531 -0
92 531 -0
93 531 -0
94 531 -0
95 531 -0
96 531 -0
97 531 -0
98 531 -0
99 531 -0
100 531 -0
101 531 -0
102 531 -0
103 531 -0
104 531 -0
105 531 -0
106 531 -0
107 531 -0
108 531 -0
109 531 -0
110 531 -0
111 531 -0
112 531 -0
113 531 -0
114 531 -0
115 531 -0
116 531 -0
117 531 -0
118 531 -0
119 531 -0
120 531 -0
181 531 0
182 531 0
183 531 0
184 531 0
185 531 0
186 531 0
187 531 0
188 531 0
189 531 0
190 531 0
191 531 0
192 531 0
193 531 0
194 531 0
195 531 0
196 531 0
197 531 0
198 531 0
199 531 0
200 531 0
201 531 0
202 531 0
203 531 0
204 531 0
205 531 0
206 531 0
207 531 0
208 531 0
209 531 0
210 531 0
211 531 0
212 531 0
213 531 0
214 531 0
215 531 0
216 531 0
217 531 0
218 531 0
219 531 0
220 531 0
221 531 0
222 531 0
223 531 0
224 531 0
225 531 0
226 531 0
227 531 0
228 531 0
229 531 0
230 531 0
231 531 0
232 531 0
233 531 0
234 531 0
235 531 0
236 531 0
237 531 0
238 531 0
239 531 0
240 531 0
61 532 -0
62 532 -0
63 532 -0
64 532 -0
65 532 -0
66 532 -0
67 532 -0
68 532 -0
69 532 -0
70 532 -0
71 532 -0
72 532 -0
73 532 -0
74 532 -0
75 532 -0
76 532 -0
77 532 -0
78 532 -0
79 532 -0
80 532 -0
81 532 -0
82 532 -0
83 532 -0
84 532 -0
85 532 -0
86 532 -0
87 532 -0
88 532 -0
89 532 -0
90 532 -0
91 532 -0
92 532 -0
93 532 -0
94 532 -0
95 532 -0
96 532 -0
97 532 -0
98 532 -0
99 532 -0
100 532 -0
101 532 -0
102 532 -0
103 532 -0
104 532 -0
105 532 -0
106 532 -0
107 532 -0
108 532 -0
109 532 -0
110 532 -0
111 532 -0
112 532 -0
113 532 -0
114 532 -0
115 532 -0
116 532 -0
117 532 -0
118 532 -0
119 532 -0
120 532 -0
181 532 0
182 532 0
183 532 0
184 532 0
185 532 0
186 532 0
187 532 0
188 532 0
189 532 0
190 532 0
191 532 0
192 532 0
193 532 0
194 532 0
195 532 0
196 532 0
197 532 0
198 532 0
199 532 0
200 532 0
201 532 0
202 532 0
203 532 0
204 532 0
205 532 0
206 532 0
207 532 0
208 532 0
209 532 0
210 532 0
211 532 0
212 532 0
213 532 0
214 532 0
215 532 0
216 532 0
217 532 0
218 532 0
219 532 0
220 532 0
221 532 0
222 532 0
223 532 0
224 532 0
225 532 0
226 532 0
227 532 0
228 532 0
229 532 0
230 532 0
231 532 0
232 532 0
233 532 0
234 532 0
235 532 0
236 532 0
237 532 0
238 532 0
239 532 0
240 532 0
61 533 -0
62 533 -0
63 533 -0
64 533 -0
65 533 -0
66 533 -0
67 533 -0
68 533 -0
69 533 -0
70 533 -0
71 533 -0
72 533 -0
73 533 -0
74 533 -0
75 533 -0
76 533 -0
77 533 -0
78 533 -0
79 533 -0
80 533 -0
81 533 -0
82 533 -0
83 533 -0
84 533 -0
85 533 -0
86 533 -0
87 533 -0
88 533 -0
89 533 -0
90 533 -0
91 533 -0
92 533 -0
93 533 -0
94 533 -0
95 533 -0
96 533 -0
97 533 -0
98 533 -0
99 533 -0
100 533 -0
101 533 -0
102 533 -0
103 533 -0
104 533 -0
105 533 -0
106 533 -0
107 533 -0
108 533 -0
109 533 -0
110 533 -0
111 533 -0
112 533 -0
113 533 -0
114 533 -0
115 533 -0
116 533 -0
117 533 -0
118 533 -0
119 533 -0
120 533 -0
181 533 0
182 533 0
183 533 0
184 533 0
185 533 0
186 533 0
187 533 0
188 533 0
189 533 0
190 533 0
191 533 0
192 533 0
193 533 0
194 533 0
195 533 0
196 533 0
197 533 0
198 533 0
199 533 0
200 533 0
201 533 0
202 533 0
203 533 0
204 533 0
205 533 0
206 533 0
207 533 0
208 533 0
209 533 0
210 533 0
211 533 0
212 533 0
213 533 0
214 533 0
215 533 0
216 533 0
217 533 0
218 533 0
219 533 0
220 533 0
221 533 0
222 533 0
223 533 0
224 533 0
225 533 0
226 533 0
227 533 0
228 533 0
229 533 0
230 533 0
231 533 0
232 533 0
233 533 0
234 533 0
235 533 0
236 533 0
237 533 0
238 533 0
239 533 0
240 533 0
61 534 -0
62 534 -0
63 534 -0
64 534 -0
65 534 -0
66 534 -0
67 534 -0
68 534 -0
69 534 -0
70 534 -0
71 534 -0
72 534 -0
73 534 -0
74 534 -0
75 534 -0
76 534 -0
77 534 -0
78 534 -0
79 534 -0
80 534 -0
81 534 -0
82 534 -0
83 534 -0
84 534 -0
85 534 -0
86 534 -0
87 534 -0
88 534 -0
89 534 -0
90 534 -0
91 534 -0
92 534 -0
93 534 -0
94 534 -0
95 534 -0
96 534 -0
97 534 -0
98 534 -0
99 534 -0
100 534 -0
101 534 -0
102 534 -0
103 534 -0
104 534 -0
105 534 -0
106 534 -0
107 534 -0
108 534 -0
109 534 -0
110 534 -0
111 534 -0
112 534 -0
113 534 -0
114 534 -0
115 534 -0
116 534 -0
117 534 -0
118 534 -0
119 534 -0
120 534 -0
181 534 0
182 534 0
183 534 0
184 534 0
185 534 0
186 534 0
187 534 0
188 534 0
189 534 0
190 534 0
191 534 0
192 534 0
193 534 0
194 534 0
195 534 0
196 534 0
197 534 0
198 534 0
199 534 0
200 534 0
201 534 0
202 534 0
203 534 0
204 534 0
205 534 0
206 534 0
207 534 0
208 534 0
209 534 0
210 534 0
211 534 0
212 534 0
213 534 0
214 534 0
215 534 0
216 534 0
217 534 0
218 534 0
219 534 0
220 534 0
221 534 0
222 534 0
223 534 0
224 534 0
225 534 0
226 534 0
227 534 0
228 534 0
229 534 0
230 534 0
231 534 0
232 534 0
233 534 0
234 534 0
235 534 0
236 534 0
237 534 0
238 534 0
239 534 0
240 534 0
61 535 -0
62 535 -0
63 535 -0
64 535 -0
65 535 -0
66 535 -0
67 535 -0
68 535 -0
69 535 -0
70 535 -0
71 535 -0
72 535 -0
73 535 -0
74 535 -0
75 535 -0
76 535 -0
77 535 -0
78 535 -0
79 535 -0
80 535 -0
81 535 -0
82 535 -0
83 535 -0
84 535 -0
85 535 -0
86 535 -0
87 535 -0
88 535 -0
89 535 -0
90 535 -0
91 535 -0
92 535 -0
93 535 -0
94 535 -0
95 535 -0
96 535 -0
97 535 -0
98 535 -0
99 535 -0
100 535 -0
101 535 -0
102 535 -0
103 535 -0
104 535 -0
105 535 -0
106 535 -0
107 535 -0
108 535 -0
109 535 -0
110 535 -0
111 535 -0
112 535 -0
113 535 -0
114 535 -0
115 535 -0
116 535 -0
117 535 -0
118 535 -0
119 535 -0
120 535 -0
181 535 0
182 535 0
183 535 0
184 535 0
185 535 0
186 535 0
187 535 0
188 535 0
189 535 0
190 535 0
191 535 0
192 535 0
193 535 0
194 535 0
195 535 0
196 535 0
197 535 0
198 535 0
199 535 0
200 535 0
201 535 0
202 535 0
203 535 0
204 535 0
205 535 0
206 535 0
207 535 0
208 535 0
209 535 0
210 535 0
211 535 0
212 535 0
213 535 0
214 535 0
215 535 0
216 535 0
217 535 0
218 535 0
219 535 0
220 535 0
221 535 0
222 535 0
223 535 0
224 535 0
225 535 0
226 535 0
227 535 0
228 535 0
229 535 0
230 535 0
231 535 0
232 535 0
233 535 0
234 535 0
235 535 0
236 535 0
237 535 0
238 535 0
239 535 0
240 535 0
61 536 -0
62 536 -0
63 536 -0
64 536 -0
65 536 -0
66 536 -0
67 536 -0
68 536 -0
69 536 -0
70 536 -0
71 536 -0
72 536 -0
73 536 -0
74 536 -0
75 536 -0
76 536 -0
77 536 -0
78 536 -0
79 536 -0
80 536 -0
81 536 -0
82 536 -0
83 536 -0
84 536 -0
85 536 -0
86 536 -0
87 536 -0
88 536 -0
89 536 -0
90 536 -0
91 536 -0
92 536 -0
93 536 -0
94 536 -0
95 536 -0
96 536 -0
97 536 -0
98 536 -0
99 536 -0
100 536 -0
101 536 -0
102 536 -0
103 536 -0
104 536 -0
105 536 -0
106 536 -0
107 536 -0
108 536 -0
109 536 -0
110 536 -0
111 536 -0
112 536 -0
113 536 -0
114 536 -0
115 536 -0
116 536 -0
117 536 -0
118 536 -0
119 536 -0
120 536 -0
181 536 0
182 536 0
183 536 0
184 536 0
185 536 0
186 536 0
187 536 0
188 536 0
189 536 0
190 536 0
191 536 0
192 536 0
193 536 0
194 536 0
195 536 0
196 536 0
197 536 0
198 536 0
199 536 0
200 536 0
201 536 0
202 536 0
203 536 0
204 536 0
205 536 0
206 536 0
207 536 0
208 536 0
209 536 0
210 536 0
211 536 0
212 536 0
213 536 0
214 536 0
215 536 0
216 536 0
217 536 0
218 536 0
219 536 0
220 536 0
221 536 0.99509187132080212
222 536 0
223 536 0
224 536 0
225 536 0
226 536 0
227 536 0
228 536 0
229 536 0
230 536 0
231 536 0
232 536 0
233 536 0
234 536 0
235 536 0
236 536 0
237 536 0
238 536 0
239 536 0
240 536 0
61 537 -0
62 537 -0
63 537 -0
64 537 -0
65 537 -0
66 537 -0
67 537 -0
68 537 -0
69 537 -0
70 537 -0
71 537 -0
72 537 -0
73 537 -0
74 537 -0
75 537 -0
76 537 -0
77 537 -0
78 537 -0
79 537 -0
80 537 -0
81 537 -0
82 537 -0
83 537 -0
84 537 -0
85 537 -0
86 537 -0
87 537 -0
88 537 -0
89 537 -0
90 537 -0
91 537 -0
92 537 -0
93 537 -0
94 537 -0
95 537 -0
96 537 -0
97 537 -0
98 537 -0
99 537 -0
100 537 -0
101 537 -0
102 537 -0
103 537 -0
104 537 -0
105 537 -0
106 537 -0
107 537 -0
108 537 -0
109 537 -0
110 537 -0
111 537 -0
112 537 -0
113 537 -0
114 537 -0
115 537 -0
116 537 -0
117 537 -0
118 537 -0
119 537 -0
120 537 -0
181 537 0
182 537 0
183 537 0
184 537 0
185 537 0
186 537 0
187 537 0
188 537 0
189 537 0
190 537 0
191 537 0
192 537 0
193 537 0
194 537 0
195 537 0
196 537 0
197 537 0
198 537 0
199 537 0
200 537 0
201 537 0
202 537 0
203 537 0
204 537 0
205 537 0
206 537 0
207 537 0
208 537 0
209 537 0
210 537 0
211 537 0
212 537 0
213 537 0
214 537 0
215 537 0
216 537 0
217 537 0
218 537 0
219 537 0
220 537 0
221 537 0
222 537 0.99509187132080212
223 537 0
224 537 0
225 537 0
226 537 0
227 537 0
228 537 0
229 537 0
230 537 0
231 537 0
232 537 0
233 537 0
234 537 0
235 537 0
236 537 0
237 537 0
238 537 0
239 537 0
240 537 0
61 538 -0
62 538 -0
63 538 -0
64 538 -0
65 538 -0
66 538 -0
67 538 -0
68 538 -0
69 538 -0
70 538 -0
71 538 -0
72 538 -0
73 538 -0
74 538 -0
75 538 -0
76 538 -0
77 538 -0
78 538 -0
79 538 -0
80 538 -0
81 538 -0
82 538 -0
83 538 -0
84 538 -0
85 538 -0
86 538 -0
87 538 -0
88 538 -0
89 538 -0
90 538 -0
91 538 -0
92 538 -0
93 538 -0
94 538 -0
95 538 -0
96 538 -0
97 538 -0
98 538 -0
99 538 -0
100 538 -0
101 538 -0
102 538 -0
103 538 -0
104 538 -0
105 538 -0
106 538 -0
107 538 -0
108 538 -0
109 538 -0
110 538 -0
111 538 -0
112 538 -0
113 538 -0
114 538 -0
115 538 -0
116 538 -0
117 538 -0
118 538 -0
119 538 -0
120 538 -0
181 538 0
182 538 0
183 538 0
184 538 0
185 538 0
186 538 0
187 538 0
188 538 0
189 538 0
190 538 0
191 538 0
192 538 0
193 538 0
194 538 0
195 538 0
196 538 0
197 538 0
198 538 0
199 538 0
200 538 0
201 538 0
202 538 0
203 538 0
204 538 0
205 538 0
206 538 0
207 538 0
208 538 0
209 538 0
210 538 0
211 538 0
212 538 0
213 538 0
214 538 0
215 538 0
216 538 0
217 538 0
218 538 0
219 538 0
220 538 0
221 538 0
222 538 0
223 538 0.99509187132080212
224 538 0
225 538 0
226 538 0
227 538 0
228 538 0
229 538 0
230 538 0
231 538 0
232 538 0
233 538 0
234 538 0
235 538 0
236 538 0
237 538 0
238 538 0
239 538 0
240 538 0
61 539 -0
62 539 -0
63 539 -0
64 539 -0
65 539 -0
66 539 -0
67 539 -0
68 539 -0
69 539 -0
70 539 -0
71 539 -0
72 539 -0
73 539 -0
74 539 -0
75 539 -0
76 539 -0
77 539 -0
78 539 -0
79 539 -0
80 539 -0
81 539 -0
82 539 -0
83 539 -0
84 539 -0
85 539 -0
86 539 -0
87 539 -0
88 539 -0
89 539 -0
90 539 -0
91 539 -0
92 539 -0
93 539 -0
94 539 -0
95 539 -0
96 539 -0
97 539 -0
98 539 -0
99 539 -0
100 539 -0
101 539 -0
102 539 -0
103 539 -0
104 539 -0
105 539 -0
106 539 -0
107 539 -0
108 539 -0
109 539 -0
110 539 -0
111 539 -0
112 539 -0
113 539 -0
114 539 -0
115 539 -0
116 539 -0
117 539 -0
118 539 -0
119 539 -0
120 539 -0
181 539 0
182 539 0
183 539 0
184 539 0
185 539 0
186 539 0
187 539 0
188 539 0
189 539 0
190 539 0
191 539 0
192 539 0
193 539 0
194 539 0
195 539 0
196 539 0
197 539 0
198 539 0
199 539 0
200 539 0
201 539 0
202 539 0
203 539 0
204 539 0
205 539 0
206 539 0
207 539 0
208 539 0
209 539 0
210 539 0
211 539 0
212 539 0
213 539 0
214 539 0
215 539 0
216 539 0
217 539 0
218 539 0
219 539 0
220 539 0
221 539 0
222 539 0
223 539 0
224 539 0.99509187132080212
225 539 0
226 539 0
227 539 0
228 539 0
229 539 0
230 539 0
231 539 0
232 539 0
233 539 0
234 539 0
235 539 0
236 539 0
237 539 0
238 539 0
239 539 0
240 539 0
61 540 -0
62 540 -0
63 540 -0
64 540 -0
65 540 -0
66 540 -0
67 540 -0
68 540 -0
69 540 -0
70 540 -0
71 540 -0
72 540 -0
73 540 -0
74 540 -0
75 540 -0
76 540 -0
77 540 -0
78 540 -0
79 540 -0
80 540 -0
81 540 -0
82 540 -0
83 540 -0
84 540 -0
85 540 -0
86 540 -0
87 540 -0
88 540 -0
89 540 -0
90 540 -0
91 540 -0
92 540 -0
93 540 -0
94 540 -0
95 540 -0
96 540 -0
97 540 -0
98 540 -0
99 540 -0
100 540 -0
101 540 -0
102 540 -0
103 540 -0
104 540 -0
105 540 -0
106 540 -0
107 540 -0
108 540 -0
109 540 -0
110 540 -0
111 540 -0
112 540 -0
113 540 -0
114 540 -0
115 540 -0
116 540 -0
117 540 -0
118 540 -0
119 540 -0
120 540 -0
181 540 0
182 540 0
183 540 0
184 540 0
185 540 0
186 540 0
187 540 0
188 540 0
189 540 0
190 540 0
191 540 0
192 540 0
193 540 0
194 540 0
195 540 0
196 540 0
197 540 0
198 540 0
199 540 0
200 540 0
201 540 0
202 540 0
203 540 0
204 540 0
205 540 0
206 540 0
207 540 0
208 540 0
209 540 0
210 540 0
211 540 0
212 540 0
213 540 0
214 540 0
215 540 0
216 540 0
217 540 0
218 540 0
219 540 0
220 540 0
221 540 0
222 540 0
223 540 0
224 540 0
225 540 0.99509187132080212
226 540 0
227 540 0
228 540 0
229 540 0
230 540 0
231 540 0
232 540 0
233 540 0
234 540 0
235 540 0
236 540 0
237 540 0
238 540 0
239 540 0
240 540 0
61 541 -0
62 541 -0
63 541 -0
64 541 -0
65 541 -0
66 541 -0
67 541 -0
68 541 -0
69 541 -0
70 541 -0
71 541 -0
72 541 -0
73 541 -0
74 541 -0
75 541 -0
76 541 -0
77 541 -0
78 541 -0
79 541 -0
80 541 -0
81 541 -0
82 541 -0
83 541 -0
84 541 -0
85 541 -0
86 541 -0
87 541 -0
88 541 -0
89 541 -0
90 541 -0
91 541 -0
92 541 -0
93 541 -0
94 541 -0
95 541 -0
96 541 -0
97 541 -0
98 541 -0
99 541 -0
100 541 -0
101 541 -0
102 541 -0
103 541 -0
104 541 -0
105 541 -0
106 541 -0
107 541 -0
108 541 -0
109 541 -0
110 541 -0
111 541 -0
112 541 -0
113 541 -0
114 541 -0
115 541 -0
116 541 -0
117 541 -0
118 541 -0
119 541 -0
120 541 -0
181 541 0
182 541 0
183 541 0
184 541 0
185 541 0
186 541 0
187 541 0
188 541 0
189 541 0
190 541 0
191 541 0
192 541 0
193 541 0
194 541 0
195 541 0
196 541 0
197 541 0
198 541 0
199 541 0
200 541 0
201 541 0
202 541 0
203 541 0
204 541 0
205 541 0
206 541 0
207 541 0
208 541 0
209 541 0
210 541 0
211 541 0
212 541 0
213 541 0
214 541 0
215 541 0
216 541 0
217 541 0
218 541 0
219 541 0
220 541 0
221 541 0
222 541 0
223 541 0
224 541 0
225 541 0
226 541 0
227 541 0
228 541 0
229 541 0
230 541 0
231 541 0
232 541 0
233 541 0
234 541 0
235 541 0
236 541 0
237 541 0
238 541 0
239 541 0
240 541 0
61 542 -0
62 542 -0
63 542 -0
64 542 -0
65 542 -0
66 542 -0
67 542 -0
68 542 -0
69 542 -0
70 542 -0
71 542 -0
72 542 -0
73 542 -0
74 542 -0
75 542 -0
76 542 -0
77 542 -0
78 542 -0
79 542 -0
80 542 -0
81 542 -0
82 542 -0
83 542 -0
84 542 -0
85 542 -0
86 542 -0
87 542 -0
88 542 -0
89 542 -0
90 542 -0
91 542 -0
92 542 -0
93 542 -0
94 542 -0
95 542 -0
96 542 -0
97 542 -0
98 542 -0
99 542 -0
100 542 -0
101 542 -0
102 542 -0
103 542 -0
104 542 -0
105 542 -0
106 542 -0
107 542 -0
108 542 -0
109 542 -0
110 542 -0
111 542 -0
112 542 -0
113 542 -0
114 542 -0
115 542 -0
116 542 -0
117 542 -0
118 542 -0
119 542 -0
120 542 -0
181 542 0
182 542 0
183 542 0
184 542 0
185 542 0
186 542 0
187 542 0
188 542 0
189 542 0
190 542 0
191 542 0
192 542 0
193 542 0
194 542 0
195 542 0
196 542 0
197 542 0
198 542 0
199 542 0
200 542 0
201 542 0
202 542 0
203 542 0
204 542 0
205 542 0
206 542 0
207 542 0
208 542 0
209 542 0
210 542 0
211 542 0
212 542 0
213 542 0
214 542 0
215 542 0
216 542 0
217 542 0
218 542 0
219 542 0
220 542 0
221 542 0
222 542 0
223 542 0
224 542 0
225 542 0
226 542 0
227 542 0
228 542 0
229 542 0
230 542 0
231 542 0
232 542 0
233 542 0
234 542 0
235 542 0
236 542 0
237 542 0
238 542 0
239 542 0
240 542 0
61 543 -0
62 543 -0
63 543 -0
64 543 -0
65 543 -0
66 543 -0
67 543 -0
68 543 -0
69 543 -0
70 543 -0
71 543 -0
72 543 -0
73 543 -0
74 543 -0
75 543 -0
76 543 -0
77 543 -0
78 543 -0
79 543 -0
80 543 -0
81 543 -0
82 543 -0
83 543 -0
84 543 -0
85 543 -0
86 543 -0
87 543 -0
88 543 -0
89 543 -0
90 543 -0
91 543 -0
92 543 -0
93 543 -0
94 543 -0
95 543 -0
96 543 -0
97 543 -0
98 543 -0
99 543 -0
100 543 -0
101 543 -0
102 543 -0
103 543 -0
104 543 -0
105 543 -0
106 543 -0
107 543 -0
108 543 -0
109 543 -0
110 543 -0
111 543 -0
112 543 -0
113 543 -0
114 543 -0
115 543 -0
116 543 -0
117 543 -0
118 543 -0
119 543 -0
120 543 -0
181 543 0
182 543 0
183 543 0
184 543 0
185 543 0
186 543 0
187 543 0
188 543 0
189 543 0
190 543 0
191 543 0
192 543 0
193 543 0
194 543 0
195 543 0
196 543 0
197 543 0
198 543 0
199 543 0
200 543 0
201 543 0
202 543 0
203 543 0
204 543 0
205 543 0
206 543 0
207 543 0
208 543 0
209 543 0
210 543 0
211 543 0
212 543 0
213 543 0
214 543 0
215 543 0
216 543 0
217 543 0
218 543 0
219 543 0
220 543 0
221 543 0
222 543 0
223 543 0
224 543 0
225 543 0
226 543 0
227 543 0
228 543 0
229 543 0
230 543 0
231 543 0
232 543 0
233 543 0
234 543 0
235 543 0
236 543 0
237 543 0
238 543 0
239 543 0
240 543 0
61 544 -0
62 544 -0
63 544 -0
64 544 -0
65 544 -0
66 544 -0
67 544 -0
68 544 -0
69 544 -0
70 544 -0
71 544 -0
72 544 -0
73 544 -0
74 544 -0
75 544 -0
76 544 -0
77 544 -0
78 544 -0
79 544 -0
80 544 -0
81 544 -0
82 544 -0
83 544 -0
84 544 -0
85 544 -0
86 544 -0
87 544 -0
88 544 -0
89 544 -0
90 544 -0
91 544 -0
92 544 -0
93 544 -0
94 544 -0
95 544 -0
96 544 -0
97 544 -0
98 544 -0
99 544 -0
100 544 -0
101 544 -0
102 544 -0
103 544 -0
104 544 -0
105 544 -0
106 544 -0
107 544 -0
108 544 -0
109 544 -0
110 544 -0
111 544 -0
112 544 -0
113 544 -0
114 544 -0
115 544 -0
116 544 -0
117 544 -0
118 544 -0
119 544 -0
120 544 -0
181 544 0
182 544 0
183 544 0
184 544 0
185 544 0
186 544 0
187 544 0
188 544 0
189 544 0
190 544 0
191 544 0
192 544 0
193 544 0
194 544 0
195 544 0
196 544 0
197 544 0
198 544 0
199 544 0
200 544 0
201 544 0
202 544 0
203 544 0
204 544 0
205 544 0
206 544 0
207 544 0
208 544 0
209 544 0
210 544 0
211 544 0
212 544 0
213 544 0
214 544 0
215 544 0
216 544 0
217 544 0
218 544 0
219 544 0
220 544 0
221 544 0
222 544 0
223 544 0
224 544 0
225 544 0
226 544 0
227 544 0
228 544 0
229 544 0
230 544 0
231 544 0
232 544 0
233 544 0
234 544 0
235 544 0
236 544 0
237 544 0
238 544 0
239 544 0
240 544 0
61 545 -0
62 545 -0
63 545 -0
64 545 -0
65 545 -0
66 545 -0
67 545 -0
68 545 -0
69 545 -0
70 545 -0
71 545 -0
72 545 -0
73 545 -0
74 545 -0
75 545 -0
76 545 -0
77 545 -0
78 545 -0
79 545 -0
80 545 -0
81 545 -0
82 545 -0
83 545 -0
84 545 -0
85 545 -0
86 545 -0
87 545 -0
88 545 -0
89 545 -0
90 545 -0
91 545 -0
92 545 -0
93 545 -0
94 545 -0
95 545 -0
96 545 -0
97 545 -0
98 545 -0
99 545 -0
100 545 -0
101 545 -0
102 545 -0
103 545 -0
104 545 -0
105 545 -0
106 545 -0
107 545 -0
108 545 -0
109 545 -0
110 545 -0
111 545 -0
112 545 -0
113 545 -0
114 545 -0
115 545 -0
116 545 -0
117 545 -0
118 545 -0
119 545 -0
120 545 -0
181 545 0
182 545 0
183 545 0
184 545 0
185 545 0
186 545 0
187 545 0
188 545 0
189 545 0
190 545 0
191 545 0
192 545 0
193 545 0
194 545 0
195 545 0
196 545 0
197 545 0
198 545 0
199 545 0
200 545 0
201 545 0
202 545 0
203 545 0
204 545 0
205 545 0
206 545 0
207 545 0
208 545 0
209 545 0
210 545 0
211 545 0
212 545 0
213 545 0
214 545 0
215 545 0
216 545 0
217 545 0
218 545 0
219 545 0
220 545 0
221 545 0
222 545 0
223 545 0
224 545 0
225 545 0
226 545 0
227 545 0
228 545 0
229 545 0
230 545 0
231 545 0
232 545 0
233 545 0
234 545 0
235 545 0
236 545 0
237 545 0
238 545 0
239 545 0
240 545 0
61 546 -0
62 546 -0
63 546 -0
64 546 -0
65 546 -0
66 546 -0
67 546 -0
68 546 -0
69 546 -0
70 546 -0
71 546 -0
72 546 -0
73 546 -0
74 546 -0
75 546 -0
76 546 -0
77 546 -0
78 546 -0
79 546 -0
80 546 -0
81 546 -0
82 546 -0
83 546 -0
84 546 -0
85 546 -0
86 546 -0
87 546 -0
88 546 -0
89 546 -0
90 546 -0
91 546 -0
92 546 -0
93 546 -0
94 546 -0
95 546 -0
96 546 -0
97 546 -0
98 546 -0
99 546 -0
100 546 -0
101 546 -0
102 546 -0
103 546 -0
104 546 -0
105 546 -0
106 546 -0
107 546 -0
108 546 -0
109 546 -0
110 546 -0
111 546 -0
112 546 -0
113 546 -0
114 546 -0
115 546 -0
116 546 -0
117 546 -0
118 546 -0
119 546 -0
120 546 -0
181 546 0
182 546 0
183 546 0
184 546 0
185 546 0
186 546 0
187 546 0
188 546 0
189 546 0
190 546 0
191 546 0
192 546 0
193 546 0
194 546 0
195 546 0
196 546 0
197 546 0
198 546 0
199 546 0
200 546 0
201 546 0
202 546 0
203 546 0
204 546 0
205 546 0
206 546 0
207 546 0
208 546 0
209 546 0
210 546 0
211 546 0
212 546 0
213 546 0
214 546 0
215 546 0
216 546 0
217 546 0
218 546 0
219 546 0
220 546 0
221 546 0
222 546 0
223 546 0
224 546 0
225 546 0
226 546 0
227 546 0
228 546 0
229 546 0
230 546 0
231 546 0
232 546 0
233 546 0
234 546 0
235 546 0
236 546 0
237 546 0
238 546 0
239 546 0
240 546 0
61 547 -0
62 547 -0
63 547 -0
64 547 -0
65 547 -0
66 547 -0
67 547 -0
68 547 -0
69 547 -0
70 547 -0
71 547 -0
72 547 -0
73 547 -0
74 547 -0
75 547 -0
76 547 -0
77 547 -0
78 547 -0
79 547 -0
80 547 -0
81 547 -0
82 547 -0
83 547 -0
84 547 -0
85 547 -0
86 547 -0
87 547 -0
88 547 -0
89 547 -0
90 547 -0
91 547 -0
92 547 -0
93 547 -0
94 547 -0
95 547 -0
96 547 -0
97 547 -0
98 547 -0
99 547 -0
100 547 -0
101 547 -0
102 547 -0
103 547 -0
104 547 -0
105 547 -0
106 547 -0
107 547 -0
108 547 -0
109 547 -0
110 547 -0
111 547 -0
112 547 -0
113 547 -0
114 547 -0
115 547 -0
116 547 -0
117 547 -0
118 547 -0
119 547 -0
120 547 -0
181 547 0
182 547 0
183 547 0
184 547 0
185 547 0
186 547 0
187 547 0
188 547 0
189 547 0
190 547 0
191 547 0
192 547 0
193 547 0
194 547 0
195 547 0
196 547 0
197 547 0
198 547 0
199 547 0
200 547 0
201 547 0
202 547 0
203 547 0
204 547 0
205 547 0
206 547 0
207 547 0
208 547 0
209 547 0
210 547 0
211 547 0
212 547 0
213 547 0
214 547 0
215 547 0
216 547 0
217 547 0
218 547 0
219 547 0
220 547 0
221 547 0
222 547 0
223 547 0
224 547 0
225 547 0
226 547 0
227 547 0
228 547 0
229 547 0
230 547 0
231 547 0
232 547 0
233 547 0
234 547 0
235 547 0
236 547 0
237 547 0
238 547 0
239 547 0
240 547 0
61 548 -0
62 548 -0
63 548 -0
64 548 -0
65 548 -0
66 548 -0
67 548 -0
68 548 -0
69 548 -0
70 548 -0
71 548 -0
72 548 -0
73 548 -0
74 548 -0
75 548 -0
76 548 -0
77 548 -0
78 548 -0
79 548 -0
80 548 -0
81 548 -0
82 548 -0
83 548 -0
84 548 -0
85 548 -0
86 548 -0
87 548 -0
88 548 -0
89 548 -0
90 548 -0
91 548 -0
92 548 -0
93 548 -0
94 548 -0
95 548 -0
96 548 -0
97 548 -0
98 548 -0
99 548 -0
100 548 -0
101 548 -0
102 548 -0
103 548 -0
104 548 -0
105 548 -0
106 548 -0
107 548 -0
108 548 -0
109 548 -0
110 548 -0
111 548 -0
112 548 -0
113 548 -0
114 548 -0
115 548 -0
116 548 -0
117 548 -0
118 548 -0
119 548 -0
120 548 -0
181 548 0
182 548 0
183 548 0
184 548 0
185 548 0
186 548 0
187 548 0
188 548 0
189 548 0
190 548 0
191 548 0
192 548 0
193 548 0
194 548 0
195 548 0
196 548 0
197 548 0
198 548 0
199 548 0
200 548 0
201 548 0
202 548 0
203 548 0
204 548 0
205 548 0
206 548 0
207 548 0
208 548 0
209 548 0
210 548 0
211 548 0
212 548 0
213 548 0
214 548 0
215 548 0
216 548 0
217 548 0
218 548 0
219 548 0
220 548 0
221 548 0
222 548 0
223 548 0
224 548 0
225 548 0
226 548 0.99509187132080212
227 548 0
228 548 0
229 548 0
230 548 0
231 548 0
232 548 0
233 548 0
234 548 0
235 548 0
236 548 0
237 548 0
238 548 0
239 548 0
240 548 0
61 549 -0
62 549 -0
63 549 -0
64 549 -0
65 549 -0
66 549 -0
67 549 -0
68 549 -0
69 549 -0
70 549 -0
71 549 -0
72 549 -0
73 549 -0
74 549 -0
75 549 -0
76 549 -0
77 549 -0
78 549 -0
79 549 -0
80 549 -0
81 549 -0
82 549 -0
83 549 -0
84 549 -0
85 549 -0
86 549 -0
87 549 -0
88 549 -0
89 549 -0
90 549 -0
91 549 -0
92 549 -0
93 549 -0
94 549 -0
95 549 -0
96 549 -0
97 549 -0
98 549 -0
99 549 -0
100 549 -0
101 549 -0
102 549 -0
103 549 -0
104 549 -0
105 549 -0
106 549 -0
107 549 -0
108 549 -0
109 549 -0
110 549 -0
111 549 -0
112 549 -0
113 549 -0
114 549 -0
115 549 -0
116 549 -0
117 549 -0
118 549 -0
119 549 -0
120 549 -0
181 549 0
182 549 0
183 549 0
184 549 0
185 549 0
186 549 0
187 549 0
188 549 0
189 549 0
190 549 0
191 549 0
192 549 0
193 549 0
194 549 0
195 549 0
196 549 0
197 549 0
198 549 0
199 549 0
200 549 0
201 549 0
202 549 0
203 549 0
204 549 0
205 549 0
206 549 0
207 549 0
208 549 0
209 549 0
210 549 0
211 549 0
212 549 0
213 549 0
214 549 0
215 549 0
216 549 0
217 549 0
218 549 0
219 549 0
220 549 0
221 549 0
222 549 0
223 549 0
224 549 0
225 549 0
226 549 0
227 549 0.99509187132080212
228 549 0
229 549 0
230 549 0
231 549 0
232 549 0
233 549 0
234 549 0
235 549 0
236 549 0
237 549 0
238 549 0
239 549 0
240 549 0
61 550 -0
62 550 -0
63 550 -0
64 550 -0
65 550 -0
66 550 -0
67 550 -0
68 550 -0
69 550 -0
70 550 -0
71 550 -0
72 550 -0
73 550 -0
74 550 -0
75 550 -0
76 550 -0
77 550 -0
78 550 -0
79 550 -0
80 550 -0
81 550 -0
82 550 -0
83 550 -0
84 550 -0
85 550 -0
86 550 -0
87 550 -0
88 550 -0
89 550 -0
90 550 -0
91 550 -0
92 550 -0
93 550 -0
94 550 -0
95 550 -0
96 550 -0
97 550 -0
98 550 -0
99 550 -0
100 550 -0
101 550 -0
102 550 -0
103 550 -0
104 550 -0
105 550 -0
106 550 -0
107 550 -0
108 550 -0
109 550 -0
110 550 -0
111 550 -0
112 550 -0
113 550 -0
114 550 -0
115 550 -0
116 550 -0
117 550 -0
118 550 -0
119 550 -0
120 550 -0
181 550 0
182 550 0
183 550 0
184 550 0
185 550 0
186 550 0
187 550 0
188 550 0
189 550 0
190 550 0
191 550 0
192 550 0
193 550 0
194 550 0
195 550 0
196 550 0
197 550 0
198 550 0
199 550 0
200 550 0
201 550 0
202 550 0
203 550 0
204 550 0
205 550 0
206 550 0
207 550 0
208 550 0
209 550 0
210 550 0
211 550 0
212 550 0
213 550 0
214 550 0
215 550 0
216 550 0
217 550 0
218 550 0
219 550 0
220 550 0
221 550 0
222 550 0
223 550 0
224 550 0
225 550 0
226 550 0
227 550 0
228 550 0.99509187132080212
229 550 0
230 550 0
231 550 0
232 550 0
233 550 0
234 550 0
235 550 0
236 550 0
237 550 0
238 550 0
239 550 0
240 550 0
61 551 -0
62 551 -0
63 551 -0
64 551 -0
65 551 -0
66 551 -0
67 551 -0
68 551 -0
69 551 -0
70 551 -0
71 551 -0
72 551 -0
73 551 -0
74 551 -0
75 551 -0
76 551 -0
77 551 -0
78 551 -0
79 551 -0
80 551 -0
81 551 -0
82 551 -0
83 551 -0
84 551 -0
85 551 -0
86 551 -0
87 551 -0
88 551 -0
89 551 -0
90 551 -0
91 551 -0
92 551 -0
93 551 -0
94 551 -0
95 551 -0
96 551 -0
97 551 -0
98 551 -0
99 551 -0
100 551 -0
101 551 -0
102 551 -0
103 551 -0
104 551 -0
105 551 -0
106 551 -0
107 551 -0
108 551 -0
109 551 -0
110 551 -0
111 551 -0
112 551 -0
113 551 -0
114 551 -0
115 551 -0
116 551 -0
117 551 -0
118 551 -0
119 551 -0
120 551 -0
181 551 0
182 551 0
183 551 0
184 551 0
185 551 0
186 551 0
187 551 0
188 551 0
189 551 0
190 551 0
191 551 0
192 551 0
193 551 0
194 551 0
195 551 0
196 551 0
197 551 0
198 551 0
199 551 0
200 551 0
201 551 0
202 551 0
203 551 0
204 551 0
205 551 0
206 551 0
207 551 0
208 551 0
209 551 0
210 551 0
211 551 0
212 551 0
213 551 0
214 551 0
215 551 0
216 551 0
217 551 0
218 551 0
219 551 0
220 551 0
221 551 0
222 551 0
223 551 0
224 551 0
225 551 0
226 551 0
227 551 0
228 551 0
229 551 0.99509187132080212
230 551 0
231 551 0
232 551 0
233 551 0
234 551 0
235 551 0
236 551 0
237 551 0
238 551 0
239 551 0
240 551 0
61 552 -0
62 552 -0
63 552 -0
64 552 -0
65 552 -0
66 552 -0
67 552 -0
68 552 -0
69 552 -0
70 552 -0
71 552 -0
72 552 -0
73 552 -0
74 552 -0
75 552 -0
76 552 -0
77 552 -0
78 552 -0
79 552 -0
80 552 -0
81 552 -0
82 552 -0
83 552 -0
84 552 -0
85 552 -0
86 552 -0
87 552 -0
88 552 -0
89 552 -0
90 552 -0
91 552 -0
92 552 -0
93 552 -0
94 552 -0
95 552 -0
96 552 -0
97 552 -0
98 552 -0
99 552 -0
100 552 -0
101 552 -0
102 552 -0
103 552 -0
104 552 -0
105 552 -0
106 552 -0
107 552 -0
108 552 -0
109 552 -0
110 552 -0
111 552 -0
112 552 -0
113 552 -0
114 552 -0
115 552 -0
116 552 -0
117 552 -0
118 552 -0
119 552 -0
120 552 -0
181 552 0
182 552 0
183 552 0
184 552 0
185 552 0
186 552 0
187 552 0
188 552 0
189 552 0
190 552 0
191 552 0
192 552 0
193 552 0
194 552 0
195 552 0
196 552 0
197 552 0
198 552 0
199 552 0
200 552 0
201 552 0
202 552 0
203 552 0
204 552 0
205 552 0
206 552 0
207 552 0
208 552 0
209 552 0
210 552 0
211 552 0
212 552 0
213 552 0
214 552 0
215 552 0
216 552 0
217 552 0
218 552 0
219 552 0
220 552 0
221 552 0
222 552 0
223 552 0
224 552 0
225 552 0
226 552 0
227 552 0
228 552 0
229 552 0
230 552 0.99509187132080212
231 552 0
232 552 0
233 552 0
234 552 0
235 552 0
236 552 0
237 552 0
238 552 0
239 552 0
240 552 0
61 553 -0
62 553 -0
63 553 -0
64 553 -0
65 553 -0
66 553 -0
67 553 -0
68 553 -0
69 553 -0
70 553 -0
71 553 -0
72 553 -0
73 553 -0
74 553 -0
75 553 -0
76 553 -0
77 553 -0
78 553 -0
79 553 -0
80 553 -0
81 553 -0
82 553 -0
83 553 -0
84 553 -0
85 553 -0
86 553 -0
87 553 -0
88 553 -0
89 553 -0
90 553 -0
91 553 -0
92 553 -0
93 553 -0
94 553 -0
95 553 -0
96 553 -0
97 553 -0
98 553 -0
99 553 -0
100 553 -0
101 553 -0
102 553 -0
103 553 -0
104 553 -0
105 553 -0
106 553 -0
107 553 -0
108 553 -0
109 553 -0
110 553 -0
111 553 -0
112 553 -0
113 553 -0
114 553 -0
115 553 -0
116 553 -0
117 553 -0
118 553 -0
119 553 -0
120 553 -0
181 553 0
182 553 0
183 553 0
184 553 0
185 553 0
186 553 0
187 553 0
188 553 0
189 553 0
190 553 0
191 553 0
192 553 0
193 553 0
194 553 0
195 553 0
196 553 0
197 553 0
198 553 0
199 553 0
200 553 0
201 553 0
202 553 0
203 553 0
204 553 0
205 553 0
206 553 0
207 553 0
208 553 0
209 553 0
210 553 0
211 553 0
212 553 0
213 553 0
214 553 0
215 553 0
216 553 0
217 553 0
218 553 0
219 553 0
220 553 0
221 553 0
222 553 0
223 553 0
224 553 0
225 553 0
226 553 0
227 553 0
228 553 0
229 553 0
230 553 0
231 553 0
232 553 0
233 553 0
234 553 0
235 553 0
236 553 0
237 553 0
238 553 0
239 553 0
240 553 0
61 554 -0
62 554 -0
63 554 -0
64 554 -0
65 554 -0
66 554 -0
67 554 -0
68 554 -0
69 554 -0
70 554 -0
71 554 -0
72 554 -0
73 554 -0
74 554 -0
75 554 -0
76 554 -0
77 554 -0
78 554 -0
79 554 -0
80 554 -0
81 554 -0
82 554 -0
83 554 -0
84 554 -0
85 554 -0
86 554 -0
87 554 -0
88 554 -0
89 554 -0
90 554 -0
91 554 -0
92 554 -0
93 554 -0
94 554 -0
95 554 -0
96 554 -0
97 554 -0
98 554 -0
99 554 -0
100 554 -0
101 554 -0
102 554 -0
103 554 -0
104 554 -0
105 554 -0
106 554 -0
107 554 -0
108 554 -0
109 554 -0
110 554 -0
111 554 -0
112 554 -0
113 554 -0
114 554 -0
115 554 -0
116 554 -0
117 554 -0
118 554 -0
119 554 -0
120 554 -0
181 554 0
182 554 0
183 554 0
184 554 0
185 554 0
186 554 0
187 554 0
188 554 0
189 554 0
190 554 0
191 554 0
192 554 0
193 554 0
194 554 0
195 554 0
196 554 0
197 554 0
198 554 0
199 554 0
200 554 0
201 554 0
202 554 0
203 554 0
204 554 0
205 554 0
206 554 0
207 554 0
208 554 0
209 554 0
210 554 0
211 554 0
212 554 0
213 554 0
214 554 0
215 554 0
216 554 0
217 554 0
218 554 0
219 554 0
220 554 0
221 554 0
222 554 0
223 554 0
224 554 0
225 554 0
226 554 0
227 554 0
228 554 0
229 554 0
230 554 0
231 554 0
232 554 0
233 554 0
234 554 0
235 554 0
236 554 0
237 554 0
238 554 0
239 554 0
240 554 0
61 555 -0
62 555 -0
63 555 -0
64 555 -0
65 555 -0
66 555 -0
67 555 -0
68 555 -0
69 555 -0
70 555 -0
71 555 -0
72 555 -0
73 555 -0
74 555 -0
75 555 -0
76 555 -0
77 555 -0
78 555 -0
79 555 -0
80 555 -0
81 555 -0
82 555 -0
83 555 -0
84 555 -0
85 555 -0
86 555 -0
87 555 -0
88 555 -0
89 555 -0
90 555 -0
91 555 -0
92 555 -0
93 555 -0
94 555 -0
95 555 -0
96 555 -0
97 555 -0
98 555 -0
99 555 -0
100 555 -0
101 555 -0
102 555 -0
103 555 -0
104 555 -0
105 555 -0
106 555 -0
107 555 -0
108 555 -0
109 555 -0
110 555 -0
111 555 -0
112 555 -0
113 555 -0
114 555 -0
115 555 -0
116 555 -0
117 555 -0
118 555 -0
119 555 -0
120 555 -0
181 555 0
182 555 0
183 555 0
184 555 0
185 555 0
186 555 0
187 555 0
188 555 0
189 555 0
190 555 0
191 555 0
192 555 0
193 555 0
194 555 0
195 555 0
196 555 0
197 555 0
198 555 0
199 555 0
200 555 0
201 555 0
202 555 0
203 555 0
204 555 0
205 555 0
206 555 0
207 555 0
208 555 0
209 555 0
210 555 0
211 555 0
212 555 0
213 555 0
214 555 0
215 555 0
216 555 0
217 555 0
218 555 0
219 555 0
220 555 0
221 555 0
222 555 0
223 555 0
224 555 0
225 555 0
226 555 0
227 555 0
228 555 0
229 555 0
230 555 0
231 555 0
232 555 0
233 555 0
234 555 0
235 555 0
236 555 0
237 555 0
238 555 0
239 555 0
240 555 0
61 556 -0
62 556 -0
63 556 -0
64 556 -0
65 556 -0
66 556 -0
67 556 -0
68 556 -0
69 556 -0
70 556 -0
71 556 -0
72 556 -0
73 556 -0
74 556 -0
75 556 -0
76 556 -0
77 556 -0
78 556 -0
79 556 -0
80 556 -0
81 556 -0
82 556 -0
83 556 -0
84 556 -0
85 556 -0
86 556 -0
87 556 -0
88 556 -0
89 556 -0
90 556 -0
91 556 -0
92 556 -0
93 556 -0
94 556 -0
95 556 -0
96 556 -0
97 556 -0
98 556 -0
99 556 -0
100 556 -0
101 556 -0
102 556 -0
103 556 -0
104 556 -0
105 556 -0
106 556 -0
107 556 -0
108 556 -0
109 556 -0
110 556 -0
111 556 -0
112 556 -0
113 556 -0
114 556 -0
115 556 -0
116 556 -0
117 556 -0
118 556 -0
119 556 -0
120 556 -0
181 556 0
182 556 0
183 556 0
184 556 0
185 556 0
186 556 0
187 556 0
188 556 0
189 556 0
190 556 0
191 556 0
192 556 0
193 556 0
194 556 0
195 556 0
196 556 0
197 556 0
198 556 0
199 556 0
200 556 0
201 556 0
202 556 0
203 556 0
204 556 0
205 556 0
206 556 0
207 556 0
208 556 0
209 556 0
210 556 0
211 556 0
212 556 0
213 556 0
214 556 0
215 556 0
216 556 0
217 556 0
218 556 0
219 556 0
220 556 0
221 556 0
222 556 0
223 556 0
224 556 0
225 556 0
226 556 0
227 556 0
228 556 0
229 556 0
230 556 0
231 556 0
232 556 0
233 556 0
234 556 0
235 556 0
236 556 0
237 556 0
238 556 0
239 556 0
240 556 0
61 557 -0
62 557 -0
63 557 -0
64 557 -0
65 557 -0
66 557 -0
67 557 -0
68 557 -0
69 557 -0
70 557 -0
71 557 -0
72 557 -0
73 557 -0
74 557 -0
75 557 -0
76 557 -0
77 557 -0
78 557 -0
79 557 -0
80 557 -0
81 557 -0
82 557 -0
83 557 -0
84 557 -0
85 557 -0
86 557 -0
87 557 -0
88 557 -0
89 557 -0
90 557 -0
91 557 -0
92 557 -0
93 557 -0
94 557 -0
95 557 -0
96 557 -0
97 557 -0
98 557 -0
99 557 -0
100 557 -0
101 557 -0
102 557 -0
103 557 -0
104 557 -0
105 557 -0
106 557 -0
107 557 -0
108 557 -0
109 557 -0
110 557 -0
111 557 -0
112 557 -0
113 557 -0
114 557 -0
115 557 -0
116 557 -0
117 557 -0
118 557 -0
119 557 -0
120 557 -0
181 557 0
182 557 0
183 557 0
184 557 0
185 557 0
186 557 0
187 557 0
188 557 0
189 557 0
190 557 0
191 557 0
192 557 0
193 557 0
194 557 0
195 557 0
196 557 0
197 557 0
198 557 0
199 557 0
200 557 0
201 557 0
202 557 0
203 557 0
204 557 0
205 557 0
206 557 0
207 557 0
208 557 0
209 557 0
210 557 0
211 557 0
212 557 0
213 557 0
214 557 0
215 557 0
216 557 0
217 557 0
218 557 0
219 557 0
220 557 0
221 557 0
222 557 0
223 557 0
224 557 0
225 557 0
226 557 0
227 557 0
228 557 0
229 557 0
230 557 0
231 557 0
232 557 0
233 557 0
234 557 0
235 557 0
236 557 0
237 557 0
238 557 0
239 557 0
240 557 0
61 558 -0
62 558 -0
63 558 -0
64 558 -0
65 558 -0
66 558 -0
67 558 -0
68 558 -0
69 558 -0
70 558 -0
71 558 -0
72 558 -0
73 558 -0
74 558 -0
75 558 -0
76 558 -0
77 558 -0
78 558 -0
79 558 -0
80 558 -0
81 558 -0
82 558 -0
83 558 -0
84 558 -0
85 558 -0
86 558 -0
87 558 -0
88 558 -0
89 558 -0
90 558 -0
91 558 -0
92 558 -0
93 558 -0
94 558 -0
95 558 -0
96 558 -0
97 558 -0
98 558 -0
99 558 -0
100 558 -0
101 558 -0
102 558 -0
103 558 -0
104 558 -0
105 558 -0
106 558 -0
107 558 -0
108 558 -0
109 558 -0
110 558 -0
111 558 -0
112 558 -0
113 558 -0
114 558 -0
115 558 -0
116 558 -0
117 558 -0
118 558 -0
119 558 -0
120 558 -0
181 558 0
182 558 0
183 558 0
184 558 0
185 558 0
186 558 0
187 558 0
188 558 0
189 558 0
190 558 0
191 558 0
192 558 0
193 558 0
194 558 0
195 558 0
196 558 0
197 558 0
198 558 0
199 558 0
200 558 0
201 558 0
202 558 0
203 558 0
204 558 0
205 558 0
206 558 0
207 558 0
208 558 0
209 558 0
210 558 0
211 558 0
212 558 0
213 558 0
214 558 0
215 558 0
216 558 0
217 558 0
218 558 0
219 558 0
220 558 0
221 558 0
222 558 0
223 558 0
224 558 0
225 558 0
226 558 0
227 558 0
228 558 0
229 558 0
230 558 0
231 558 0
232 558 0
233 558 0
234 558 0
235 558 0
236 558 0
237 558 0
238 558 0
239 558 0
240 558 0
61 559 -0
62 559 -0
63 559 -0
64 559 -0
65 559 -0
66 559 -0
67 559 -0
68 559 -0
69 559 -0
70 559 -0
71 559 -0
72 559 -0
73 559 -0
74 559 -0
75 559 -0
76 559 -0
77 559 -0
78 559 -0
79 559 -0
80 559 -0
81 559 -0
82 559 -0
83 559 -0
84 559 -0
85 559 -0
86 559 -0
87 559 -0
88 559 -0
89 559 -0
90 559 -0
91 559 -0
92 559 -0
93 559 -0
94 559 -0
95 559 -0
96 559 -0
97 559 -0
98 559 -0
99 559 -0
100 559 -0
101 559 -0
102 559 -0
103 559 -0
104 559 -0
105 559 -0
106 559 -0
107 559 -0
108 559 -0
109 559 -0
110 559 -0
111 559 -0
112 559 -0
113 559 -0
114 559 -0
115 559 -0
116 559 -0
117 559 -0
118 559 -0
119 559 -0
120 559 -0
181 559 0
182 559 0
183 559 0
184 559 0
185 559 0
186 559 0
187 559 0
188 559 0
189 559 0
190 559 0
191 559 0
192 559 0
193 559 0
194 559 0
195 559 0
196 559 0
197 559 0
198 559 0
199 559 0
200 559 0
201 559 0
202 559 0
203 559 0
204 559 0
205 559 0
206 559 0
207 559 0
208 559 0
209 559 0
210 559 0
211 559 0
212 559 0
213 559 0
214 559 0
215 559 0
216 559 0
217 559 0
218 559 0
219 559 0
220 559 0
221 559 0
222 559 0
223 559 0
224 559 0
225 559 0
226 559 0
227 559 0
228 559 0
229 559 0
230 559 0
231 559 0
232 559 0
233 559 0
234 559 0
235 559 0
236 559 0
237 559 0
238 559 0
239 559 0
240 559 0
61 560 -0
62 560 -0
63 560 -0
64 560 -0
65 560 -0
66 560 -0
67 560 -0
68 560 -0
69 560 -0
70 560 -0
71 560 -0
72 560 -0
73 560 -0
74 560 -0
75 560 -0
76 560 -0
77 560 -0
78 560 -0
79 560 -0
80 560 -0
81 560 -0
82 560 -0
83 560 -0
84 560 -0
85 560 -0
86 560 -0
87 560 -0
88 560 -0
89 560 -0
90 560 -0
91 560 -0
92 560 -0
93 560 -0
94 560 -0
95 560 -0
96 560 -0
97 560 -0
98 560 -0
99 560 -0
100 560 -0
101 560 -0
102 560 -0
103 560 -0
104 560 -0
105 560 -0
106 560 -0
107 560 -0
108 560 -0
109 560 -0
110 560 -0
111 560 -0
112 560 -0
113 560 -0
114 560 -0
115 560 -0
116 560 -0
117 560 -0
118 560 -0
119 560 -0
120 560 -0
181 560 0
182 560 0
183 560 0
184 560 0
185 560 0
186 560 0
187 560 0
188 560 0
189 560 0
190 560 0
191 560 0
192 560 0
193 560 0
194 560 0
195 560 0
196 560 0
197 560 0
198 560 0
199 560 0
200 560 0
201 560 0
202 560 0
203 560 0
204 560 0
205 560 0
206 560 0
207 560 0
208 560 0
209 560 0
210 560 0
211 560 0
212 560 0
213 560 0
214 560 0
215 560 0
216 560 0
217 560 0
218 560 0
219 560 0
220 560 0
221 560 0
222 560 0
223 560 0
224 560 0
225 560 0
226 560 0
227 560 0
228 560 0
229 560 0
230 560 0
231 560 0.99509187132080212
232 560 0
233 560 0
234 560 0
235 560 0
236 560 0
237 560 0
238 560 0
239 560 0
240 560 0
61 561 -0
62 561 -0
63 561 -0
64 561 -0
65 561 -0
66 561 -0
67 561 -0
68 561 -0
69 561 -0
70 561 -0
71 561 -0
72 561 -0
73 561 -0
74 561 -0
75 561 -0
76 561 -0
77 561 -0
78 561 -0
79 561 -0
80 561 -0
81 561 -0
82 561 -0
83 561 -0
84 561 -0
85 561 -0
86 561 -0
87 561 -0
88 561 -0
89 561 -0
90 561 -0
91 561 -0
92 561 -0
93 561 -0
94 561 -0
95 561 -0
96 561 -0
97 561 -0
98 561 -0
99 561 -0
100 561 -0
101 561 -0
102 561 -0
103 561 -0
104 561 -0
105 561 -0
106 561 -0
107 561 -0
108 561 -0
109 561 -0
110 561 -0
111 561 -0
112 561 -0
113 561 -0
114 561 -0
115 561 -0
116 561 -0
117 561 -0
118 561 -0
119 561 -0
120 561 -0
181 561 0
182 561 0
183 561 0
184 561 0
185 561 0
186 561 0
187 561 0
188 561 0
189 561 0
190 561 0
191 561 0
192 561 0
193 561 0
194 561 0
195 561 0
196 561 0
197 561 0
198 561 0
199 561 0
200 561 0
201 561 0
202 561 0
203 561 0
204 561 0
205 561 0
206 561 0
207 561 0
208 561 0
209 561 0
210 561 0
211 561 0
212 561 0
213 561 0
214 561 0
215 561 0
216 561 0
217 561 0
218 561 0
219 561 0
220 561 0
221 561 0
222 561 0
223 561 0
224 561 0
225 561 0
226 561 0
227 561 0
228 561 0
229 561 0
230 561 0
231 561 0
232 561 0.99509187132080212
233 561 0
234 561 0
235 561 0
236 561 0
237 561 0
238 561 0
239 561 0
240 561 0
61 562 -0
62 562 -0
63 562 -0
64 562 -0
65 562 -0
66 562 -0
67 562 -0
68 562 -0
69 562 -0
70 562 -0
71 562 -0
72 562 -0
73 562 -0
74 562 -0
75 562 -0
76 562 -0
77 562 -0
78 562 -0
79 562 -0
80 562 -0
81 562 -0
82 562 -0
83 562 -0
84 562 -0
85 562 -0
86 562 -0
87 562 -0
88 562 -0
89 562 -0
90 562 -0
91 562 -0
92 562 -0
93 562 -0
94 562 -0
95 562 -0
96 562 -0
97 562 -0
98 562 -0
99 562 -0
100 562 -0
101 562 -0
102 562 -0
103 562 -0
104 562 -0
105 562 -0
106 562 -0
107 562 -0
108 562 -0
109 562 -0
110 562 -0
111 562 -0
112 562 -0
113 562 -0
114 562 -0
115 562 -0
116 562 -0
117 562 -0
118 562 -0
119 562 -0
120 562 -0
181 562 0
182 562 0
183 562 0
184 562 0
185 562 0
186 562 0
187 562 0
188 562 0
189 562 0
190 562 0
191 562 0
192 562 0
193 562 0
194 562 0
195 562 0
196 562 0
197 562 0
198 562 0
199 562 0
200 562 0
201 562 0
202 562 0
203 562 0
204 562 0
205 562 0
206 562 0
207 562 0
208 562 0
209 562 0
210 562 0
211 562 0
212 562 0
213 562 0
214 562 0
215 562 0
216 562 0
217 562 0
218 562 0
219 562 0
220 562 0
221 562 0
222 562 0
223 562 0
224 562 0
225 562 0
226 562 0
227 562 0
228 562 0
229 562 0
230 562 0
231 562 0
232 562 0
233 562 0.99509187132080212
234 562 0
235 562 0
236 562 0
237 562 0
238 562 0
239 562 0
240 562 0
61 563 -0
62 563 -0
63 563 -0
64 563 -0
65 563 -0
66 563 -0
67 563 -0
68 563 -0
69 563 -0
70 563 -0
71 563 -0
72 563 -0
73 563 -0
74 563 -0
75 563 -0
76 563 -0
77 563 -0
78 563 -0
79 563 -0
80 563 -0
81 563 -0
82 563 -0
83 563 -0
84 563 -0
85 563 -0
86 563 -0
87 563 -0
88 563 -0
89 563 -0
90 563 -0
91 563 -0
92 563 -0
93 563 -0
94 563 -0
95 563 -0
96 563 -0
97 563 -0
98 563 -0
99 563 -0
100 563 -0
101 563 -0
102 563 -0
103 563 -0
104 563 -0
105 563 -0
106 563 -0
107 563 -0
108 563 -0
109 563 -0
110 563 -0
111 563 -0
112 563 -0
113 563 -0
114 563 -0
115 563 -0
116 563 -0
117 563 -0
118 563 -0
119 563 -0
120 563 -0
181 563 0
182 563 0
183 563 0
184 563 0
185 563 0
186 563 0
187 563 0
188 563 0
189 563 0
190 563 0
191 563 0
192 563 0
193 563 0
194 563 0
195 563 0
196 563 0
197 563 0
198 563 0
199 563 0
200 563 0
201 563 0
202 563 0
203 563 0
204 563 0
205 563 0
206 563 0
207 563 0
208 563 0
209 563 0
210 563 0
211 563 0
212 563 0
213 563 0
214 563 0
215 563 0
216 563 0
217 563 0
218 563 0
219 563 0
220 563 0
221 563 0
222 563 0
223 563 0
224 563 0
225 563 0
226 563 0
227 563 0
228 563 0
229 563 0
230 563 0
231 563 0
232 563 0
233 563 0
234 563 0.99509187132080212
235 563 0
236 563 0
237 563 0
238 563 0
239 563 0
240 563 0
61 564 -0
62 564 -0
63 564 -0
64 564 -0
65 564 -0
66 564 -0
67 564 -0
68 564 -0
69 564 -0
70 564 -0
71 564 -0
72 564 -0
73 564 -0
74 564 -0
75 564 -0
76 564 -0
77 564 -0
78 564 -0
79 564 -0
80 564 -0
81 564 -0
82 564 -0
83 564 -0
84 564 -0
85 564 -0
86 564 -0
87 564 -0
88 564 -0
89 564 -0
90 564 -0
91 564 -0
92 564 -0
93 564 -0
94 564 -0
95 564 -0
96 564 -0
97 564 -0
98 564 -0
99 564 -0
100 564 -0
101 564 -0
102 564 -0
103 564 -0
104 564 -0
105 564 -0
106 564 -0
107 564 -0
108 564 -0
109 564 -0
110 564 -0
111 564 -0
112 564 -0
113 564 -0
114 564 -0
115 564 -0
116 564 -0
117 564 -0
118 564 -0
119 564 -0
120 564 -0
181 564 0
182 564 0
183 564 0
184 564 0
185 564 0
186 564 0
187 564 0
188 564 0
189 564 0
190 564 0
191 564 0
192 564 0
193 564 0
194 564 0
195 564 0
196 564 0
197 564 0
198 564 0
199 564 0
200 564 0
201 564 0
202 564 0
203 564 0
204 564 0
205 564 0
206 564 0
207 564 0
208 564 0
209 564 0
210 564 0
211 564 0
212 564 0
213 564 0
214 564 0
215 564 0
216 564 0
217 564 0
218 564 0
219 564 0
220 564 0
221 564 0
222 564 0
223 564 0
224 564 0
225 564 0
226 564 0
227 564 0
228 564 0
229 564 0
230 564 0
231 564 0
232 564 0
233 564 0
234 564 0
235 564 0.99509187132080212
236 564 0
237 564 0
238 564 0
239 564 0
240 564 0
61 565 -0
62 565 -0
63 565 -0
64 565 -0
65 565 -0
66 565 -0
67 565 -0
68 565 -0
69 565 -0
70 565 -0
71 565 -0
72 565 -0
73 565 -0
74 565 -0
75 565 -0
76 565 -0
77 565 -0
78 565 -0
79 565 -0
80 565 -0
81 565 -0
82 565 -0
83 565 -0
84 565 -0
85 565 -0
86 565 -0
87 565 -0
88 565 -0
89 565 -0
90 565 -0
91 565 -0
92 565 -0
93 565 -0
94 565 -0
95 565 -0
96 565 -0
97 565 -0
98 565 -0
99 565 -0
100 565 -0
101 565 -0
102 565 -0
103 565 -0
104 565 -0
105 565 -0
106 565 -0
107 565 -0
108 565 -0
109 565 -0
110 565 -0
111 565 -0
112 565 -0
113 565 -0
114 565 -0
115 565 -0
116 565 -0
117 565 -0
118 565 -0
119 565 -0
120 565 -0
181 565 0
182 565 0
183 565 0
184 565 0
185 565 0
186 565 0
187 565 0
188 565 0
189 565 0
190 565 0
191 565 0
192 565 0
193 565 0
194 565 0
195 565 0
196 565 0
197 565 0
198 565 0
199 565 0
200 565 0
201 565 0
202 565 0
203 565 0
204 565 0
205 565 0
206 565 0
207 565 0
208 565 0
209 565 0
210 565 0
211 565 0
212 565 0
213 565 0
214 565 0
215 565 0
216 565 0
217 565 0
218 565 0
219 565 0
220 565 0
221 565 0
222 565 0
223 565 0
224 565 0
225 565 0
226 565 0
227 565 0
228 565 0
229 565 0
230 565 0
231 565 0
232 565 0
233 565 0
234 565 0
235 565 0
236 565 0
237 565 0
238 565 0
239 565 0
240 565 0
61 566 -0
62 566 -0
63 566 -0
64 566 -0
65 566 -0
66 566 -0
67 566 -0
68 566 -0
69 566 -0
70 566 -0
71 566 -0
72 566 -0
73 566 -0
74 566 -0
75 566 -0
76 566 -0
77 566 -0
78 566 -0
79 566 -0
80 566 -0
81 566 -0
82 566 -0
83 566 -0
84 566 -0
85 566 -0
86 566 -0
87 566 -0
88 566 -0
89 566 -0
90 566 -0
91 566 -0
92 566 -0
93 566 -0
94 566 -0
95 566 -0
96 566 -0
97 566 -0
98 566 -0
99 566 -0
100 566 -0
101 566 -0
102 566 -0
103 566 -0
104 566 -0
105 566 -0
106 566 -0
107 566 -0
108 566 -0
109 566 -0
110 566 -0
111 566 -0
112 566 -0
113 566 -0
114 566 -0
115 566 -0
116 566 -0
117 566 -0
118 566 -0
119 566 -0
120 566 -0
181 566 0
182 566 0
183 566 0
184 566 0
185 566 0
186 566 0
187 566 0
188 566 0
189 566 0
190 566 0
191 566 0
192 566 0
193 566 0
194 566 0
195 566 0
196 566 0
197 566 0
198 566 0
199 566 0
200 566 0
201 566 0
202 566 0
203 566 0
204 566 0
205 566 0
206 566 0
207 566 0
208 566 0
209 566 0
210 566 0
211 566 0
212 566 0
213 566 0
214 566 0
215 566 0
216 566 0
217 566 0
218 566 0
219 566 0
220 566 0
221 566 0
222 566 0
223 566 0
224 566 0
225 566 0
226 566 0
227 566 0
228 566 0
229 566 0
230 566 0
231 566 0
232 566 0
233 566 0
234 566 0
235 566 0
236 566 0
237 566 0
238 566 0
239 566 0
240 566 0
61 567 -0
62 567 -0
63 567 -0
64 567 -0
65 567 -0
66 567 -0
67 567 -0
68 567 -0
69 567 -0
70 567 -0
71 567 -0
72 567 -0
73 567 -0
74 567 -0
75 567 -0
76 567 -0
77 567 -0
78 567 -0
79 567 -0
80 567 -0
81 567 -0
82 567 -0
83 567 -0
84 567 -0
85 567 -0
86 567 -0
87 567 -0
88 567 -0
89 567 -0
90 567 -0
91 567 -0
92 567 -0
93 567 -0
94 567 -0
95 567 -0
96 567 -0
97 567 -0
98 567 -0
99 567 -0
100 567 -0
101 567 -0
102 567 -0
103 567 -0
104 567 -0
105 567 -0
106 567 -0
107 567 -0
108 567 -0
109 567 -0
110 567 -0
111 567 -0
112 567 -0
113 567 -0
114 567 -0
115 567 -0
116 567 -0
117 567 -0
118 567 -0
119 567 -0
120 567 -0
181 567 0
182 567 0
183 567 0
184 567 0
185 567 0
186 567 0
187 567 0
188 567 0
189 567 0
190 567 0
191 567 0
192 567 0
193 567 0
194 567 0
195 567 0
196 567 0
197 567 0
198 567 0
199 567 0
200 567 0
201 567 0
202 567 0
203 567 0
204 567 0
205 567 0
206 567 0
207 567 0
208 567 0
209 567 0
210 567 0
211 567 0
212 567 0
213 567 0
214 567 0
215 567 0
216 567 0
217 567 0
218 567 0
219 567 0
220 567 0
221 567 0
222 567 0
223 567 0
224 567 0
225 567 0
226 567 0
227 567 0
228 567 0
229 567 0
230 567 0
231 567 0
232 567 0
233 567 0
234 567 0
235 567 0
236 567 0
237 567 0
238 567 0
239 567 0
240 567 0
61 568 -0
62 568 -0
63 568 -0
64 568 -0
65 568 -0
66 568 -0
67 568 -0
68 568 -0
69 568 -0
70 568 -0
71 568 -0
72 568 -0
73 568 -0
74 568 -0
75 568 -0
76 568 -0
77 568 -0
78 568 -0
79 568 -0
80 568 -0
81 568 -0
82 568 -0
83 568 -0
84 568 -0
85 568 -0
86 568 -0
87 568 -0
88 568 -0
89 568 -0
90 568 -0
91 568 -0
92 568 -0
93 568 -0
94 568 -0
95 568 -0
96 568 -0
97 568 -0
98 568 -0
99 568 -0
100 568 -0
101 568 -0
102 568 -0
103 568 -0
104 568 -0
105 568 -0
106 568 -0
107 568 -0
108 568 -0
109 568 -0
110 568 -0
111 568 -0
112 568 -0
113 568 -0
114 568 -0
115 568 -0
116 568 -0
117 568 -0
118 568 -0
119 568 -0
120 568 -0
181 568 0
182 568 0
183 568 0
184 568 0
185 568 0
186 568 0
187 568 0
188 568 0
189 568 0
190 568 0
191 568 0
192 568 0
193 568 0
194 568 0
195 568 0
196 568 0
197 568 0
198 568 0
199 568 0
200 568 0
201 568 0
202 568 0
203 568 0
204 568 0
205 568 0
206 568 0
207 568 0
208 568 0
209 568 0
210 568 0
211 568 0
212 568 0
213 568 0
214 568 0
215 568 0
216 568 0
217 568 0
218 568 0
219 568 0
220 568 0
221 568 0
222 568 0
223 568 0
224 568 0
225 568 0
226 568 0
227 568 0
228 568 0
229 568 0
230 568 0
231 568 0
232 568 0
233 568 0
234 568 0
235 568 0
236 568 0
237 568 0
238 568 0
239 568 0
240 568 0
61 569 -0
62 569 -0
63 569 -0
64 569 -0
65 569 -0
66 569 -0
67 569 -0
68 569 -0
69 569 -0
70 569 -0
71 569 -0
72 569 -0
73 569 -0
74 569 -0
75 569 -0
76 569 -0
77 569 -0
78 569 -0
79 569 -0
80 569 -0
81 569 -0
82 569 -0
83 569 -0
84 569 -0
85 569 -0
86 569 -0
87 569 -0
88 569 -0
89 569 -0
90 569 -0
91 569 -0
92 569 -0
93 569 -0
94 569 -0
95 569 -0
96 569 -0
97 569 -0
98 569 -0
99 569 -0
100 569 -0
101 569 -0
102 569 -0
103 569 -0
104 569 -0
105 569 -0
106 569 -0
107 569 -0
108 569 -0
109 569 -0
110 569 -0
111 569 -0
112 569 -0
113 569 -0
114 569 -0
115 569 -0
116 569 -0
117 569 -0
118 569 -0
119 569 -0
120 569 -0
181 569 0
182 569 0
183 569 0
184 569 0
185 569 0
186 569 0
187 569 0
188 569 0
189 569 0
190 569 0
191 569 0
192 569 0
193 569 0
194 569 0
195 569 0
196 569 0
197 569 0
198 569 0
199 569 0
200 569 0
201 569 0
202 569 0
203 569 0
204 569 0
205 569 0
206 569 0
207 569 0
208 569 0
209 569 0
210 569 0
211 569 0
212 569 0
213 569 0
214 569 0
215 569 0
216 569 0
217 569 0
218 569 0
219 569 0
220 569 0
221 569 0
222 569 0
223 569 0
224 569 0
225 569 0
226 569 0
227 569 0
228 569 0
229 569 0
230 569 0
231 569 0
232 569 0
233 569 0
234 569 0
235 569 0
236 569 0
237 569 0
238 569 0
239 569 0
240 569 0
61 570 -0
62 570 -0
63 570 -0
64 570 -0
65 570 -0
66 570 -0
67 570 -0
68 570 -0
69 570 -0
70 570 -0
71 570 -0
72 570 -0
73 570 -0
74 570 -0
75 570 -0
76 570 -0
77 570 -0
78 570 -0
79 570 -0
80 570 -0
81 570 -0
82 570 -0
83 570 -0
84 570 -0
85 570 -0
86 570 -0
87 570 -0
88 570 -0
89 570 -0
90 570 -0
91 570 -0
92 570 -0
93 570 -0
94 570 -0
95 570 -0
96 570 -0
97 570 -0
98 570 -0
99 570 -0
100 570 -0
101 570 -0
102 570 -0
103 570 -0
104 570 -0
105 570 -0
106 570 -0
107 570 -0
108 570 -0
109 570 -0
110 570 -0
111 570 -0
112 570 -0
113 570 -0
114 570 -0
115 570 -0
116 570 -0
117 570 -0
118 570 -0
119 570 -0
120 570 -0
181 570 0
182 570 0
183 570 0
184 570 0
185 570 0
186 570 0
187 570 0
188 570 0
189 570 0
190 570 0
191 570 0
192 570 0
193 570 0
194 570 0
195 570 0
196 570 0
197 570 0
198 570 0
199 570 0
200 570 0
201 570 0
202 570 0
203 570 0
204 570 0
205 570 0
206 570 0
207 570 0
208 570 0
209 570 0
210 570 0
211 570 0
212 570 0
213 570 0
214 570 0
215 570 0
216 570 0
217 570 0
218 570 0
219 570 0
220 570 0
221 570 0
222 570 0
223 570 0
224 570 0
225 570 0
226 570 0
227 570 0
228 570 0
229 570 0
230 570 0
231 570 0
232 570 0
233 570 0
234 570 0
235 570 0
236 570 0
237 570 0
238 570 0
239 570 0
240 570 0
61 571 -0
62 571 -0
63 571 -0
64 571 -0
65 571 -0
66 571 -0
67 571 -0
68 571 -0
69 571 -0
70 571 -0
71 571 -0
72 571 -0
73 571 -0
74 571 -0
75 571 -0
76 571 -0
77 571 -0
78 571 -0
79 571 -0
80 571 -0
81 571 -0
82 571 -0
83 571 -0
84 571 -0
85 571 -0
86 571 -0
87 571 -0
88 571 -0
89 571 -0
90 571 -0
91 571 -0
92 571 -0
93 571 -0
94 571 -0
95 571 -0
96 571 -0
97 571 -0
98 571 -0
99 571 -0
100 571 -0
101 571 -0
102 571 -0
103 571 -0
104 571 -0
105 571 -0
106 571 -0
107 571 -0
108 571 -0
109 571 -0
110 571 -0
111 571 -0
112 571 -0
113 571 -0
114 571 -0
115 571 -0
116 571 -0
117 571 -0
118 571 -0
119 571 -0
120 571 -0
181 571 0
182 571 0
183 571 0
184 571 0
185 571 0
186 571 0
187 571 0
188 571 0
189 571 0
190 571 0
191 571 0
192 571 0
193 571 0
194 571 0
195 571 0
196 571 0
197 571 0
198 571 0
199 571 0
200 571 0
201 571 0
202 571 0
203 571 0
204 571 0
205 571 0
206 571 0
207 571 0
208 571 0
209 571 0
210 571 0
211 571 0
212 571 0
213 571 0
214 571 0
215 571 0
216 571 0
217 571 0
218 571 0
219 571 0
220 571 0
221 571 0
222 571 0
223 571 0
224 571 0
225 571 0
226 571 0
227 571 0
228 571 0
229 571 0
230 571 0
231 571 0
232 571 0
233 571 0
234 571 0
235 571 0
236 571 0
237 571 0
238 571 0
239 571 0
240 571 0
61 572 -0
62 572 -0
63 572 -0
64 572 -0
65 572 -0
66 572 -0
67 572 -0
68 572 -0
69 572 -0
70 572 -0
71 572 -0
72 572 -0
73 572 -0
74 572 -0
75 572 -0
76 572 -0
77 572 -0
78 572 -0
79 572 -0
80 572 -0
81 572 -0
82 572 -0
83 572 -0
84 572 -0
85 572 -0
86 572 -0
87 572 -0
88 572 -0
89 572 -0
90 572 -0
91 572 -0
92 572 -0
93 572 -0
94 572 -0
95 572 -0
96 572 -0
97 572 -0
98 572 -0
99 572 -0
100 572 -0
101 572 -0
102 572 -0
103 572 -0
104 572 -0
105 572 -0
106 572 -0
107 572 -0
108 572 -0
109 572 -0
110 572 -0
111 572 -0
112 572 -0
113 572 -0
114 572 -0
115 572 -0
116 572 -0
117 572 -0
118 572 -0
119 572 -0
120 572 -0
181 572 0
182 572 0
183 572 0
184 572 0
185 572 0
186 572 0
187 572 0
188 572 0
189 572 0
190 572 0
191 572 0
192 572 0
193 572 0
194 572 0
195 572 0
196 572 0
197 572 0
198 572 0
199 572 0
200 572 0
201 572 0
202 572 0
203 572 0
204 572 0
205 572 0
206 572 0
207 572 0
208 572 0
209 572 0
210 572 0
211 572 0
212 572 0
213 572 0
214 572 0
215 572 0
216 572 0
217 572 0
218 572 0
219 572 0
220 572 0
221 572 0
222 572 0
223 572 0
224 572 0
225 572 0
226 572 0
227 572 0
228 572 0
229 572 0
230 572 0
231 572 0
232 572 0
233 572 0
234 572 0
235 572 0
236 572 0.99509187132080212
237 572 0
238 572 0
239 572 0
240 572 0
61 573 -0
62 573 -0
63 573 -0
64 573 -0
65 573 -0
66 573 -0
67 573 -0
68 573 -0
69 573 -0
70 573 -0
71 573 -0
72 573 -0
73 573 -0
74 573 -0
75 573 -0
76 573 -0
77 573 -0
78 573 -0
79 573 -0
80 573 -0
81 573 -0
82 573 -0
83 573 -0
84 573 -0
85 573 -0
86 573 -0
87 573 -0
88 573 -0
89 573 -0
90 573 -0
91 573 -0
92 573 -0
93 573 -0
94 573 -0
95 573 -0
96 573 -0
97 573 -0
98 573 -0
99 573 -0
100 573 -0
101 573 -0
102 573 -0
103 573 -0
104 573 -0
105 573 -0
106 573 -0
107 573 -0
108 573 -0
109 573 -0
110 573 -0
111 573 -0
112 573 -0
113 573 -0
114 573 -0
115 573 -0
116 573 -0
117 573 -0
118 573 -0
119 573 -0
120 573 -0
181 573 0
182 573 0
183 573 0
184 573 0
185 573 0
186 573 0
187 573 0
188 573 0
189 573 0
190 573 0
191 573 0
192 573 0
193 573 0
194 573 0
195 573 0
196 573 0
197 573 0
198 573 0
199 573 0
200 573 0
201 573 0
202 573 0
203 573 0
204 573 0
205 573 0
206 573 0
207 573 0
208 573 0
209 573 0
210 573 0
211 573 0
212 573 0
213 573 0
214 573 0
215 573 0
216 573 0
217 573 0
218 573 0
219 573 0
220 573 0
221 573 0
222 573 0
223 573 0
224 573 0
225 573 0
226 573 0
227 573 0
228 573 0
229 573 0
230 573 0
231 573 0
232 573 0
233 573 0
234 573 0
235 573 0
236 573 0
237 573 0.99509187132080212
238 573 0
239 573 0
240 573 0
61 574 -0
62 574 -0
63 574 -0
64 574 -0
65 574 -0
66 574 -0
67 574 -0
68 574 -0
69 574 -0
70 574 -0
71 574 -0
72 574 -0
73 574 -0
74 574 -0
75 574 -0
76 574 -0
77 574 -0
78 574 -0
79 574 -0
80 574 -0
81 574 -0
82 574 -0
83 574 -0
84 574 -0
85 574 -0
86 574 -0
87 574 -0
88 574 -0
89 574 -0
90 574 -0
91 574 -0
92 574 -0
93 574 -0
94 574 -0
95 574 -0
96 574 -0
97 574 -0
98 574 -0
99 574 -0
100 574 -0
101 574 -0
102 574 -0
103 574 -0
104 574 -0
105 574 -0
106 574 -0
107 574 -0
108 574 -0
109 574 -0
110 574 -0
111 574 -0
112 574 -0
113 574 -0
114 574 -0
115 574 -0
116 574 -0
117 574 -0
118 574 -0
119 574 -0
120 574 -0
181 574 0
182 574 0
183 574 0
184 574 0
185 574 0
186 574 0
187 574 0
188 574 0
189 574 0
190 574 0
191 574 0
192 574 0
193 574 0
194 574 0
195 574 0
196 574 0
197 574 0
198 574 0
199 574 0
200 574 0
201 574 0
202 574 0
203 574 0
204 574 0
205 574 0
206 574 0
207 574 0
208 574 0
209 574 0
210 574 0
211 574 0
212 574 0
213 574 0
214 574 0
215 574 0
216 574 0
217 574 0
218 574 0
219 574 0
220 574 0
221 574 0
222 574 0
223 574 0
224 574 0
225 574 0
226 574 0
227 574 0
228 574 0
229 574 0
230 574 0
231 574 0
232 574 0
233 574 0
234 574 0
235 574 0
236 574 0
237 574 0
238 574 0.99509187132080212
239 574 0
240 574 0
61 575 -0
62 575 -0
63 575 -0
64 575 -0
65 575 -0
66 575 -0
67 575 -0
68 575 -0
69 575 -0
70 575 -0
71 575 -0
72 575 -0
73 575 -0
74 575 -0
75 575 -0
76 575 -0
77 575 -0
78 575 -0
79 575 -0
80 575 -0
81 575 -0
82 575 -0
83 575 -0
84 575 -0
85 575 -0
86 575 -0
87 575 -0
88 575 -0
89 575 -0
90 575 -0
91 575 -0
92 575 -0
93 575 -0
94 575 -0
95 575 -0
96 575 -0
97 575 -0
98 575 -0
99 575 -0
100 575 -0
101 575 -0
102 575 -0
103 575 -0
104 575 -0
105 575 -0
106 575 -0
107 575 -0
108 575 -0
109 575 -0
110 575 -0
111 575 -0
112 575 -0
113 575 -0
114 575 -0
115 575 -0
116 575 -0
117 575 -0
118 575 -0
119 575 -0
120 575 -0
181 575 0
182 575 0
183 575 0
184 575 0
185 575 0
186 575 0
187 575 0
188 575 0
189 575 0
190 575 0
191 575 0
192 575 0
193 575 0
194 575 0
195 575 0
196 575 0
197 575 0
198 575 0
199 575 0
200 575 0
201 575 0
202 575 0
203 575 0
204 575 0
205 575 0
206 575 0
207 575 0
208 575 0
209 575 0
210 575 0
211 575 0
212 575 0
213 575 0
214 575 0
215 575 0
216 575 0
217 575 0
218 575 0
219 575 0
220 575 0
221 575 0
222 575 0
223 575 0
224 575 0
225 575 0
226 575 0
227 575 0
228 575 0
229 575 0
230 575 0
231 575 0
232 575 0
233 575 0
234 575 0
235 575 0
236 575 0
237 575 0
238 575 0
239 575 0.99509187132080212
240 575 0
61 576 -0
62 576 -0
63 576 -0
64 576 -0
65 576 -0
66 576 -0
67 576 -0
68 576 -0
69 576 -0
70 576 -0
71 576 -0
72 576 -0
73 576 -0
74 576 -0
75 576 -0
76 576 -0
77 576 -0
78 576 -0
79 576 -0
80 576 -0
81 576 -0
82 576 -0
83 576 -0
84 576 -0
85 576 -0
86 576 -0
87 576 -0
88 576 -0
89 576 -0
90 576 -0
91 576 -0
92 576 -0
93 576 -0
94 576 -0
95 576 -0
96 576 -0
97 576 -0
98 576 -0
99 576 -0
100 576 -0
101 576 -0
102 576 -0
103 576 -0
104 576 -0
105 576 -0
106 576 -0
107 576 -0
108 576 -0
109 576 -0
110 576 -0
111 576 -0
112 576 -0
113 576 -0
114 576 -0
115 576 -0
116 576 -0
117 576 -0
118 576 -0
119 576 -0
120 576 -0
181 576 0
182 576 0
183 576 0
184 576 0
185 576 0
186 576 0
187 576 0
188 576 0
189 576 0
190 576 0
191 576 0
192 576 0
193 576 0
194 576 0
195 576 0
196 576 0
197 576 0
198 576 0
199 576 0
200 576 0
201 576 0
202 576 0
203 576 0
204 576 0
205 576 0
206 576 0
207 576 0
208 576 0
209 576 0
210 576 0
211 576 0
212 576 0
213 576 0
214 576 0
215 576 0
216 576 0
217 576 0
218 576 0
219 576 0
220 576 0
221 576 0
222 576 0
223 576 0
224 576 0
225 576 0
226 576 0
227 576 0
228 576 0
229 576 0
230 576 0
231 576 0
232 576 0
233 576 0
234 576 0
235 576 0
236 576 0
237 576 0
238 576 0
239 576 0
240 576 0.99509187132080212
