%%MatrixMarket matrix coordinate real general
20 20 20
1 1 0.037913077785579341
2 2 0.21534730968087656
3 3 0.12129878000658698
4 4 0.18338478927603447
5 5 0.42171843530056541
6 6 8.3639256587210102
7 7 0.003854043002934598
8 8 0.016663593043275249
9 9 0.024367453647100634
10 10 0.16489894043499395
11 11 0.48360674543728088
12 12 0.99521004899934506
13 13 0.40764944538852455
14 14 0.41256427637407911
15 15 1.810107740734908
16 16 0.05867640893430863
17 17 6.9243726729194882e-08
18 18 2.5899818651053992e-06
19 19 1.2968230993590215e-07
20 20 1.6056434779441338e-07
