%%MatrixMarket matrix coordinate real general
16 20 320
1 1 -0.022567361763575062
2 1 0.98346156445246258
3 1 -0.086273694846549051
4 1 -0.27116120745448768
5 1 -0.46483265087503983
6 1 0.12325534610252439
7 1 0.10623946591341506
8 1 -0.0055324731052375144
9 1 -0.02263978727806602
10 1 0.99900791313107684
11 1 -0.08583676152594609
12 1 -0.26710994757819989
13 1 -0.46826747454285156
14 1 0.12111512871737137
15 1 0.10494720480890053
16 1 -0.0054448666291235384
1 2 0.064074067151248193
2 2 -0.98299528117071644
3 2 0.066998280608378188
4 2 0.64600845330186618
5 2 0.16518370366480306
6 2 0.48188595165561121
7 2 -0.32065304343413437
8 2 -0.31082261441110476
9 2 0.064304587255963067
10 2 -0.99860218522860822
11 2 0.066656433137992965
12 2 0.63636706940741272
13 2 0.16639977062788766
14 2 0.47353111740962395
15 2 -0.31675159517537521
16 2 -0.30591355452060626
1 3 0.1355387111452708
2 3 -0.98392442113640499
3 3 0.011359730156716727
4 3 -0.02179572678762428
5 3 -0.26740332979691767
6 3 0.0685821295576131
7 3 -0.1409576470514102
8 3 -0.10172536504972751
9 3 0.13602916484805266
10 3 -0.99948886100383294
11 3 0.011301264434137736
12 3 -0.021469967823342682
13 3 -0.26938593624752138
14 3 0.067393943169519688
15 3 -0.13924165400558827
16 3 -0.10011945790835748
1 4 0.71500756316182745
2 4 -0.98289592661179603
3 4 0.084176873971793603
4 4 -0.52373840330034382
5 4 0.23504452485043911
6 4 0.081617220765561091
7 4 0.023679465778002409
8 4 -0.26578834404764967
9 4 0.7175801891509509
10 4 -0.998412759208536
11 4 0.083750948474885303
12 4 -0.51592073280158723
13 4 0.23678431425947211
14 4 0.080202779551364178
15 4 0.02339395997967568
16 4 -0.26158897270698506
1 5 0.33288273003917213
2 5 -0.9828351308871951
3 5 -0.031296108313917374
4 5 -0.45494139248714655
5 5 0.52682938307449922
6 5 -0.19508922275302856
7 5 0.38780734060403793
8 5 -0.42879357646209459
9 5 0.33407666510895301
10 5 -0.99827093811784795
11 5 -0.031132650051618697
12 5 -0.44815439843536276
13 5 0.53073774906986659
14 5 -0.1917163687660339
15 5 0.38309047559944137
16 5 -0.42201991988343157
1 6 0.99644757110232185
2 6 -0.88554216795487894
3 6 -0.54276895018698379
4 6 0.99616472775656129
5 6 -0.99114756777531254
6 6 0.99720565468241629
7 6 0.12207338593194168
8 6 -0.08657001587014107
9 6 1.0000000000000002
10 6 -0.89955300208280353
11 6 -0.54001463320575283
12 6 0.9812585774282685
13 6 -0.99845254183713994
14 6 0.97992782823927382
15 6 0.12060718887707764
16 6 -0.085194044093832896
1 7 -0.022338713544448455
2 7 -0.98443384970796355
3 7 0.020057862275504375
4 7 -0.023882856495207157
5 7 0.11456151569243032
6 7 0.00041835601042277716
7 7 -0.030123881945015255
8 7 0.010755905818152653
9 7 -0.02242003361665516
10 7 -1.0000000000000002
11 7 0.019955995383545658
12 7 -0.023521317906666082
13 7 0.11540744355923202
14 7 0.00041166490767460936
15 7 -0.029756436847733651
16 7 0.010586373139341729
1 8 0.35605347869228327
2 8 0.98315896324790775
3 8 -0.0033206388308455255
4 8 -0.23036101649095275
5 8 -0.13186681886478788
6 8 0.24968614863139468
7 8 0.045262872425403632
8 8 0.2278722981189677
9 8 0.35733079005517726
10 8 0.99873668642730873
11 8 -0.0033008704257321986
12 8 -0.22692016004773524
13 8 -0.13284203498161332
14 8 0.24536390333953684
15 8 0.044716476836836098
16 8 0.22427750731338447
1 9 -0.090121630688185891
2 9 -0.98368028153271592
3 9 -0.064287817700780736
4 9 -0.11572315698012543
5 9 -0.17133555296127087
6 9 0.016133126511136509
7 9 -0.13780462506095179
8 9 0.061011275581770295
9 9 -0.090443977708585657
10 9 -0.99924089735340815
11 9 -0.063963053280999133
12 9 -0.11399341734849593
13 9 -0.1725982667163822
14 9 0.015855445284602594
15 9 -0.13612689125847785
16 9 0.060046523474969624
1 10 0.082424388198471712
2 10 0.98325086077625912
3 10 0.20003612364649506
4 10 -0.07794378923742605
5 10 -0.073881557364551736
6 10 0.010429908264729622
7 10 -0.022157049858725106
8 10 -0.045703531844916927
9 10 0.082716721159434417
10 10 0.99880588331655384
11 10 0.19903016945561003
12 10 -0.076779378302214055
13 10 -0.074425871786151829
14 10 0.010244221837928082
15 10 -0.02189124300715288
16 10 -0.044976297549705765
1 11 -0.015029375294639959
2 11 -0.98273806949220843
3 11 0.39148640139175811
4 11 0.083809015427983621
5 11 -0.21972154923988715
6 11 0.10088912398790294
7 11 -0.113482842025841
8 11 -0.044108163517891673
9 11 -0.015081352393635913
10 11 -0.99832179481700623
11 11 0.38950914320228497
12 11 0.08255251649301111
13 11 -0.22135670442731131
14 11 0.099137602835624811
15 11 -0.11209874192693654
16 11 -0.043409508882589799
1 12 0.84826145468768654
2 12 -0.9824494437382344
3 12 0.34106129366165699
4 12 -0.51489399059664198
5 12 0.018077842169674917
6 12 -0.092359437538009667
7 12 0.20219834811822693
8 12 -0.35920469688581519
9 12 0.85130627209313914
10 12 -0.99789712847101308
11 12 0.33934479098368642
12 12 -0.507195433210335
13 12 0.018220130100308131
14 12 -0.09076141295863592
15 12 0.19974977116231021
16 12 -0.35353856306629644
1 13 -0.11697679882959784
2 13 0.90961547037283097
3 13 0.24806365626686444
4 13 0.56134126118986327
5 13 0.99264363924213128
6 13 -0.33243549103792225
7 13 0.12898883323661217
8 13 0.029261557111208675
9 13 -0.11739709196010063
10 13 0.92394020849192826
11 13 0.24681257434687112
12 13 0.55296596708593648
13 13 1.0000000000000002
14 13 -0.32666856030453445
15 13 0.12740523500059925
16 13 0.028803212278990388
1 14 0.61142685276256259
2 14 0.98275409164937466
3 14 -0.26953166161058789
4 14 -0.21613704603281514
5 14 -0.38635555228247026
6 14 0.10218272191858084
7 14 -0.086066540590133522
8 14 0.013604849541317561
9 14 0.61361358122052512
10 14 0.99828309891392342
11 14 -0.2681728437500368
12 14 -0.21290988790405613
13 14 -0.38919782551338605
14 14 0.10041284583909069
15 14 -0.08502360892051776
16 14 0.013394514236193509
1 15 0.074820820416577297
2 15 -0.9263581646695318
3 15 -0.99975594021256198
4 15 0.62558101402229083
5 15 -0.97639468571504251
6 15 0.59058906781831377
7 15 0.99947658256685767
8 15 -1.0000000000000002
9 15 0.075080959447445542
10 15 -0.94117510763158685
11 15 -0.99473532874386428
12 15 0.61623237067364467
13 15 -0.98363760013574075
14 15 0.58033472107740125
15 15 0.98733002840214812
16 15 -0.98421196462456428
1 16 -0.13157292155977082
2 16 -0.98371374442023807
3 16 -0.044576083277053466
4 16 0.028003463965437833
5 16 -0.052698678917249532
6 16 -0.016557083401370843
7 16 -0.00096869365564456464
8 16 -0.043101427372804466
9 16 -0.13204276645411031
10 16 -0.99927868804332642
11 16 -0.044345948226316163
12 16 0.027589957962662389
13 16 -0.053086720584368197
14 16 -0.016270920537755376
15 16 -0.0009573232088574379
16 16 -0.042421759201626545
1 17 0.064361739877317789
2 17 -0.98415576755034229
3 17 -0.019296312594109695
4 17 -0.047196010593218672
5 17 0.16974173601696627
6 17 -0.021154597868840153
7 17 -0.08675745876966294
8 17 0.046416415014827919
9 17 0.064594035257235463
10 17 -0.99974601950312902
11 17 -0.019198320705902445
12 17 -0.046489264554559311
13 17 0.17099424971002716
14 17 -0.020789329556361501
15 17 -0.085699408733405966
16 17 0.045683149748142061
1 18 -0.11984293312842173
2 18 0.98254196823036244
3 18 0.37208084528556079
4 18 0.1976129117905292
5 18 -0.55331800119059926
6 18 -0.39618479105395216
7 18 -0.01660380863153289
8 18 0.23786168416365944
9 18 -0.1202889554126919
10 18 0.99804276466007324
11 18 0.37020067113208222
12 18 0.19467873155265186
13 18 -0.55742351213584851
14 18 -0.38932834233521874
15 18 -0.016410632106305577
16 18 0.23410656349376685
1 19 -0.1090036660494397
2 19 -0.98396834059558091
3 19 0.011328722446470731
4 19 0.079382991614247805
5 19 -0.2105761379512299
6 19 0.11115618823743725
7 19 -0.029604720407679135
8 19 0.020536758352156501
9 19 -0.1093917328900189
10 19 -0.99953808578387471
11 19 0.011272369352390755
12 19 0.078195055107729866
13 19 -0.21213508515950089
14 19 0.10923142161099439
15 19 -0.029243085704182874
16 19 0.020211087923150114
1 20 0.0044364740212534774
2 20 0.98392488556344515
3 20 0.019615224146724543
4 20 -0.031175295504678208
5 20 -0.099809425546446881
6 20 0.10099084420590464
7 20 0.077758240029411785
8 20 0.050324470290411837
9 20 0.0044533234753315245
10 20 0.99948392394005792
11 20 0.019515067381550486
12 20 -0.03071078066197018
13 20 -0.10054479012792346
14 20 0.099242336635365455
15 20 0.076811800103338934
16 20 0.049528996435477195
