%%MatrixMarket matrix coordinate real general
50 50 50
1 1 0.00029739352115069987
2 2 0.00029739352113756427
3 3 0.31169726357106753
4 4 153.61885024518648
5 5 0.28435562032157069
6 6 151.3235476103394
7 7 1.4299031271663822
8 8 55.309995752752563
9 9 0.32450615147313894
10 10 26.675420983191515
11 11 0.22306139623109789
12 12 96.162703470146553
13 13 0.32549848368867568
14 14 66.291245149992278
15 15 0.57147413118573764
16 16 233.85548646479248
17 17 0.1421070215248055
18 18 86.378973366817121
19 19 0.24639870357736138
20 20 564.5360825811083
21 21 0.520142128958754
22 22 4.7632335305198232
23 23 0.24507483630475993
24 24 92.726834523206733
25 25 0.64885081595677074
26 26 183.63062193634065
27 27 0.17219350856777299
28 28 141.73425087733042
29 29 0.33343094726937778
30 30 64.753967839457687
31 31 0.45144054527887961
32 32 429.47029502896498
33 33 1.3203470207894012
34 34 589.59138821341196
35 35 0.83628977883432176
36 36 209.40005487716647
37 37 0.15388698915489668
38 38 103.95068112738701
39 39 2.2004913149290486
40 40 20.324535006069301
41 41 2.3589510240184159
42 42 80.261121415581513
43 43 0.68670236067101031
44 44 150.61405223496834
45 45 0.52278778467873721
46 46 161.63701637492207
47 47 1.041190615114159
48 48 76.665824189838261
49 49 0.6724563277995742
50 50 108.9890659324884
