%%MatrixMarket matrix coordinate real general
25 50 1250
1 1 -0.056607332653896898
2 1 0.41473385653794664
3 1 -0.3103402934880316
4 1 -0.53548186175521384
5 1 -0.92363583532495774
6 1 0.39983912865777366
7 1 0.34000297789033357
8 1 -0.0239631088294209
9 1 0.095990219936614635
10 1 -0.240779329757218
11 1 0.15106684488461236
12 1 0.81944591710179759
13 1 0.20869385933200049
14 1 1
15 1 -0.63407780205527908
16 1 -0.95171970582149668
17 1 0.51743534089050669
18 1 -0.61627231585347297
19 1 0.060120663462938588
20 1 -0.07361264001734219
21 1 -0.89925889327226227
22 1 0.39746570367201223
23 1 -0.72958162242213731
24 1 -0.719974597221271
25 1 0.88175367627176304
1 2 -0.056607332653896898
2 2 0.41473385653794664
3 2 -0.3103402934880316
4 2 -0.53548186175521384
5 2 -0.92363583532495774
6 2 0.39983912865777366
7 2 0.34000297789033357
8 2 -0.0239631088294209
9 2 0.095990219936614635
10 2 -0.240779329757218
11 2 0.15106684488461236
12 2 0.81944591710179759
13 2 0.20869385933200049
14 2 1
15 2 -0.63407780205527908
16 2 -0.95171970582149668
17 2 0.51743534089050669
18 2 -0.61627231585347297
19 2 0.060120663462938588
20 2 -0.07361264001734219
21 2 -0.89925889327226227
22 2 0.39746570367201223
23 2 -0.72958162242213731
24 2 -0.719974597221271
25 2 0.88175367627176304
1 3 0.26402812093938699
2 3 -0.18432347005263752
3 3 0.8080499899353174
4 3 0.0051484787864366629
5 3 -0.35740966781008648
6 3 0.17742485553671405
7 3 0.87254826396723972
8 3 0.34546464898384288
9 3 -0.010854000938084829
10 3 -0.42934746491188874
11 3 -0.24239888571923007
12 3 0.82062006744843163
13 3 0.1419664333279381
14 3 0.99973544008385973
15 3 -0.34651864679960548
16 3 -0.62046807619115452
17 3 -0.36197000161033965
18 3 -0.37281294379703706
19 3 -0.4997127958926379
20 3 0.095431732300261585
21 3 -0.77769705733084393
22 3 0.50531741094331994
23 3 0.21431935142321404
24 3 0.37038321705025762
25 3 0.70151027676631905
1 4 -0.20912824598670066
2 4 -0.2000031300715488
3 4 0.047656441035982253
4 4 -0.091640348824790552
5 4 -0.29914620149478416
6 4 -0.027847221961364039
7 4 -0.31240010270465868
8 4 0.99951115854668493
9 4 0.12392723047965737
10 4 -0.31880204948070717
11 4 0.26663873064437149
12 4 -0.27820307310459508
13 4 -0.16938816393862835
14 4 0.98580528882805774
15 4 -0.18920743409684648
16 4 0.60355973723011602
17 4 -0.50640824341192137
18 4 0.017506409768855619
19 4 -0.14954410780738558
20 4 0.3444824985466769
21 4 -0.958385969999486
22 4 -0.21846767620723268
23 4 0.26384992224241993
24 4 0.58389602220469072
25 4 0.7658693378477528
1 5 1
2 5 -0.62404922392385775
3 5 0.21203335720398242
4 5 0.071469324377455554
5 5 0.82263313680847983
6 5 0.19475889440627123
7 5 -0.51331812886817041
8 5 -0.20583551044048023
9 5 -0.36671107744620152
10 5 0.17576080864657925
11 5 -0.13989738490844464
12 5 0.033671178518073525
13 5 0.035252884914867777
14 5 -0.064681452527867583
15 5 -0.64796766082636104
16 5 0.23196338394322144
17 5 -0.34625586888697102
18 5 0.38085525532309317
19 5 0.55909414482156994
20 5 -0.9661628645071153
21 5 -0.50765385872080926
22 5 -0.59014135044110072
23 5 -0.23264451722750643
24 5 0.073840157181320365
25 5 -0.13860428848005965
1 6 -0.090099917514913183
2 6 -0.0050960312805430836
3 6 -0.32592252858736409
4 6 0.39005546255947887
5 6 -1.0000000000000002
6 6 -0.16176820479070639
7 6 -0.23673648834644495
8 6 0.7326618337060391
9 6 -0.16807407986948236
10 6 -0.64805331841999547
11 6 0.53782708889654152
12 6 -0.12353337907977752
13 6 0.16808695292323708
14 6 0.5283731914607096
15 6 0.16217876295986453
16 6 -0.44706507706865095
17 6 -0.56541179398458741
18 6 -0.022355162966801571
19 6 0.4560042283859278
20 6 -0.55815029984583497
21 6 -0.83594692068548748
22 6 0.083821722416224001
23 6 0.31814376172233477
24 6 -0.73372917788250192
25 6 0.71349612542528029
1 7 -0.20027304249398625
2 7 0.22046263042682712
3 7 0.021653096336974396
4 7 0.75594955676693587
5 7 0.14153167610520509
6 7 -0.11555010183763735
7 7 -0.38090188646361639
8 7 0.61251093281062508
9 7 0.4503597280895239
10 7 0.44981794148913823
11 7 1.0000000000000002
12 7 0.057282657171297095
13 7 0.87163161910975773
14 7 0.51435026651114357
15 7 0.0078287564316931058
16 7 -0.49128330951788707
17 7 -0.38844382800876487
18 7 0.038249716535157248
19 7 0.11994950110678473
20 7 -0.33541965864619222
21 7 0.12419063483765348
22 7 0.11175947318696924
23 7 -0.043887441948103526
24 7 -0.31208771813681918
25 7 -0.16031462733477439
1 8 0.35306493174730297
2 8 0.43943624856076463
3 8 -0.7974586072999964
4 8 0.63203746418028695
5 8 0.20576067179898808
6 8 -0.28335256225057892
7 8 -0.22374469657243359
8 8 -0.66439948132773874
9 8 0.013817669636369136
10 8 0.32183306193341954
11 8 0.99993715571631536
12 8 -0.0085625320708617517
13 8 0.3696432909707057
14 8 0.34203375204431624
15 8 0.010011505730623651
16 8 0.012014975533294281
17 8 -0.3506102234405461
18 8 0.57774702735643824
19 8 -0.53215082055085372
20 8 -0.16936844113352137
21 8 -0.59426093797690904
22 8 -0.090874359410656858
23 8 -0.90938028452672004
24 8 -0.27859532684984956
25 8 -0.13078116152239311
1 9 -0.15616133647339286
2 9 0.047585257566350653
3 9 0.95376426225065047
4 9 0.30564379046961115
5 9 -0.42852874258087281
6 9 -0.28477319464012102
7 9 -0.13217389657932396
8 9 0.3687914655043501
9 9 0.51146851712612607
10 9 -0.29980355198895242
11 9 0.33896228892610381
12 9 0.12692326265883264
13 9 0.30729756436690986
14 9 -0.25688279848029005
15 9 0.13304853459933963
16 9 -0.036250399491483953
17 9 0.0033087079842751381
18 9 -0.50044746854624977
19 9 0.99995566247646051
20 9 0.2420949756603071
21 9 -0.27037580764516772
22 9 0.20665611839938341
23 9 -0.31685919284527109
24 9 -0.54891283909498723
25 9 -0.10808576777874644
1 10 0.1416421166482818
2 10 0.27324995672112218
3 10 0.032535961469759664
4 10 -0.12707688127241359
5 10 -0.22722345398953939
6 10 -0.39750036111806047
7 10 0.95154281018143405
8 10 0.040363690440030062
9 10 0.1342597760610513
10 10 0.025018521893608231
11 10 -0.16546179924680915
12 10 0.20707070260484595
13 10 0.23137989720323834
14 10 -0.013448611041680662
15 10 -0.077244737580477521
16 10 0.41460145930722431
17 10 0.27823534005595035
18 10 0.42430367464381158
19 10 -0.27399449670719728
20 10 -0.12133088392207317
21 10 -0.085642995743106173
22 10 0.085646839589096177
23 10 0.24841910605699011
24 10 -0.37624842951718079
25 10 -1
1 11 0.14004454591165902
2 11 0.86619409875486941
3 11 0.61937271079368894
4 11 -0.40337106686768015
5 11 -0.022201138633375302
6 11 0.64944152954860912
7 11 0.21068486347853393
8 11 -0.61891441293662786
9 11 0.33717316879944348
10 11 0.95931245478198146
11 11 0.86627160960194993
12 11 -0.51879669945601559
13 11 0.27702171581388557
14 11 -0.64888513296917061
15 11 -0.66417371240868306
16 11 -0.4322489946602342
17 11 0.53272563693477082
18 11 0.0333463199649787
19 11 -0.1931101993098126
20 11 -1
21 11 -0.83111773760106089
22 11 0.019356141148066375
23 11 -0.039356805785239299
24 11 -0.62388379447599795
25 11 -0.015432225802390209
1 12 0.39273016872107747
2 12 0.7626812542221999
3 12 0.58921186024369709
4 12 -1.0000000000000002
5 12 -0.45026218375010069
6 12 -0.16452167384349775
7 12 0.82786977758079872
8 12 0.055875330065611732
9 12 -0.87531728515164697
10 12 -0.21756722837226555
11 12 -0.63940151038310811
12 12 -0.69591883957191769
13 12 0.47215923639278518
14 12 0.46197338580680619
15 12 -0.0043703825804153494
16 12 0.20198780734304816
17 12 -0.2598685359204061
18 12 0.00014200958945895237
19 12 0.26631811901386127
20 12 0.40090647273892238
21 12 0.82134054259272982
22 12 0.40064474256532118
23 12 0.67950366327041067
24 12 0.027819293239314508
25 12 -0.57611261957743554
1 13 0.21237321743134616
2 13 0.72044300164968844
3 13 -1
4 13 -0.36930937242960138
5 13 0.60543237072171241
6 13 -0.085441603087909324
7 13 0.65461954433613156
8 13 -0.48543815379692357
9 13 0.31888727889990376
10 13 0.043449507221378351
11 13 -0.041888583143790688
12 13 0.052430352841158122
13 13 0.32827917513374116
14 13 0.030130951304913962
15 13 0.38016597708227867
16 13 0.43737484229479612
17 13 0.35480997293112654
18 13 0.13741969632558029
19 13 0.3211770579680151
20 13 -0.43181606927740163
21 13 0.99996672557532562
22 13 0.242267679747002
23 13 -0.26521957266186502
24 13 0.29196063133648431
25 13 0.38940205331049527
1 14 0.07745627895478803
2 14 -0.19005077857813368
3 14 -0.22205347757860713
4 14 -0.021194822950204816
5 14 -0.49387351518492006
6 14 -0.30760486899310363
7 14 0.026137540250260501
8 14 -0.230724759974681
9 14 -0.66307192107401502
10 14 -0.48073756690973585
11 14 -0.25162621007440422
12 14 -1
13 14 0.31189837973371665
14 14 -0.079764603508139714
15 14 -0.49398204126042145
16 14 0.79308982950326201
17 14 0.38653248862353923
18 14 0.142330461966307
19 14 -0.068908188492926931
20 14 -0.10661266349621092
21 14 0.79826353042318987
22 14 -0.62117784157893385
23 14 -0.37283758181160631
24 14 0.17053863872489086
25 14 -0.320312952476694
1 15 -0.53223599218831297
2 15 0.11267800305055752
3 15 -0.61059047261855659
4 15 -0.23368333065073382
5 15 0.43082782246542778
6 15 0.99976072618576683
7 15 -0.32769001809217307
8 15 -0.38699239050648532
9 15 0.88129731366612141
10 15 -0.026848041011941725
11 15 -0.557094241807635
12 15 -0.8957869239994376
13 15 -0.38473063457637646
14 15 -0.26501075378898947
15 15 -0.11321573871518574
16 15 -0.054994509031432583
17 15 0.080317586686276768
18 15 -0.87384501070970688
19 15 -0.48183060532125715
20 15 0.50037630694466817
21 15 0.47454168550664411
22 15 0.47786972281145818
23 15 0.33074768305472191
24 15 0.96865015284052736
25 15 -0.10519162221784181
1 16 -0.33208732687195897
2 16 -0.49108962737782264
3 16 0.36123524337463631
4 16 0.13875709443692263
5 16 -0.90118767480909623
6 16 0.31357043087599507
7 16 0.13192065062888145
8 16 -0.11862672492829597
9 16 0.69876330011301691
10 16 0.11606931801717094
11 16 -0.27253065318932357
12 16 -0.69969037166997472
13 16 1.0000000000000002
14 16 -0.1147285805328344
15 16 0.080619578100436393
16 16 0.77503549893413681
17 16 0.13574444590100609
18 16 0.05207354810525007
19 16 0.042304704332154094
20 16 -0.19242460300842759
21 16 -0.037967459087859944
22 16 0.12376832171447714
23 16 0.3395034971488165
24 16 -0.18180057610202341
25 16 0.55635647890720807
1 17 -0.23953670940050215
2 17 0.045937824754402445
3 17 0.058099569999523482
4 17 -0.19968420615822521
5 17 -0.38384169004557978
6 17 1.0000000000000002
7 17 -0.12064948985320499
8 17 0.086197771170984108
9 17 -0.42835288110321706
10 17 -0.54774707262068789
11 17 0.21532287816090376
12 17 -0.58320064387267478
13 17 0.58572462925788427
14 17 0.13380911472750207
15 17 -0.64919257646815898
16 17 0.019675153680185027
17 17 0.34447231673041773
18 17 0.61511767482304558
19 17 0.51965441398119017
20 17 -0.023285240329360631
21 17 -0.0058796770916118117
22 17 0.36941832635754945
23 17 -0.95719818814400126
24 17 -0.021148537519933237
25 17 -0.048850339327586895
1 18 -0.59854931078439289
2 18 0.54037867430085484
3 18 0.10413277105772339
4 18 0.73762203711771435
5 18 0.36076631883675381
6 18 0.020489143773837686
7 18 -0.14711417842110874
8 18 -0.0069380101378956269
9 18 -0.021618219840916685
10 18 0.46745719655110818
11 18 -0.35996029134545166
12 18 0.36634022402407845
13 18 -0.54144898417105547
14 18 0.37168828891241346
15 18 -0.35488788890150003
16 18 -0.13071985540628556
17 18 -0.21040234429992424
18 18 0.034841141012342633
19 18 0.99996620740147601
20 18 -0.30572212803166543
21 18 0.28089551640591121
22 18 0.65783475260222823
23 18 -0.43368080615123222
24 18 0.095441249514773008
25 18 -0.18065244640235906
1 19 0.30920841869565602
2 19 -0.28517766074063683
3 19 -0.36937606528646871
4 19 0.24863790778541198
5 19 0.22707062782313239
6 19 0.075847215438152607
7 19 -0.25291722331602096
8 19 0.66156273142541955
9 19 -0.99987269489742081
10 19 0.40092163646669232
11 19 0.36993803057258018
12 19 -0.82811692476697918
13 19 0.68734117148452012
14 19 0.33344965765478096
15 19 0.047701263476539746
16 19 -0.29746401903743752
17 19 -0.49518736220868143
18 19 0.058664010927901314
19 19 0.28309910550953477
20 19 -0.060506283213294126
21 19 -0.87321100393612328
22 19 0.056012987822448068
23 19 0.27868964246407646
24 19 -0.11509869556017853
25 19 -0.022005934626450174
1 20 -0.99993208173342918
2 20 0.21533227952311126
3 20 -0.25079607449611924
4 20 0.15180019153308005
5 20 0.59134969913535296
6 20 0.10804461324514483
7 20 0.85218556425334879
8 20 -0.1990262684776134
9 20 0.053899727975182464
10 20 0.57413232553862392
11 20 0.70778941045800159
12 20 -0.22467555272921882
13 20 0.5036744693758225
14 20 0.38473014962618174
15 20 0.20033901842961138
16 20 0.10692539309876105
17 20 0.026483674202923007
18 20 -0.11585346972982354
19 20 -0.25853392274498516
20 20 -0.15001044139246586
21 20 -0.20939336648732532
22 20 -0.24803265718919537
23 20 -0.11262404160259258
24 20 -0.0077444939809916905
25 20 -0.097871911471524506
1 21 0.28196585973072058
2 21 -0.43579443625259506
3 21 -0.34345801146432697
4 21 0.65347490258310759
5 21 -0.18075662904741122
6 21 -0.20090442051171556
7 21 -0.086064356319496618
8 21 0.10211693282189056
9 21 -0.20680383502109081
10 21 -0.3412110870156802
11 21 0.99699902910302407
12 21 -0.61213575169144974
13 21 0.99470574021250058
14 21 0.064602874400967833
15 21 -0.57459053565455409
16 21 0.65488518572609455
17 21 -0.20745973835021109
18 21 -0.3117858428736236
19 21 -1.0000000000000002
20 21 0.54708854020655118
21 21 -0.2610141257730762
22 21 -0.39310496719444887
23 21 0.50041136823903443
24 21 -0.29254437765533609
25 21 -0.5967067962759468
1 22 0.02255552303397159
2 22 -0.64426316601142453
3 22 0.5170708027525005
4 22 0.076321992244808484
5 22 -0.012161177224674507
6 22 -0.50426539932581826
7 22 -0.0037446179933698929
8 22 -0.054925740398917663
9 22 -0.5876408997475383
10 22 -0.12656199063710788
11 22 0.65953380365030723
12 22 -0.14647268902617366
13 22 0.10319757683132783
14 22 0.13017836527644364
15 22 0.53409856826735791
16 22 0.55383314788143356
17 22 -0.0012318140932163395
18 22 -0.18355265350130057
19 22 -0.49793453649080893
20 22 0.60717469748203412
21 22 -0.040862677199856708
22 22 -0.17543473658089201
23 22 -0.062302870057895143
24 22 1.0000000000000002
25 22 0.14049776664904468
1 23 0.46190412630176264
2 23 -9.0571314134523463e-07
3 23 -0.49845183658522041
4 23 -0.13332855808686006
5 23 -0.25550286639346736
6 23 -0.23578522765871612
7 23 -0.24343071796282359
8 23 -0.21993930444524964
9 23 -0.99986461204822774
10 23 -0.14056693649527799
11 23 -0.28791917316250193
12 23 0.0071423396512083947
13 23 0.005532202458600503
14 23 0.63852959764944039
15 23 -0.2373437442182475
16 23 -0.15600410626331199
17 23 0.38308020833375672
18 23 0.38940057755716162
19 23 -0.71974923795748114
20 23 0.25639335302820848
21 23 -0.22369735278159633
22 23 0.13639122290728509
23 23 -0.1083254679359149
24 23 -0.29982795868243267
25 23 0.051181863276814996
1 24 0.56245604318071907
2 24 0.20109661511647314
3 24 0.55514521911246306
4 24 0.26378898271413892
5 24 -0.29777402340211223
6 24 0.39818415875809549
7 24 -0.69496106609140573
8 24 -0.027331841936429145
9 24 -0.10861654764324999
10 24 -0.46065099392598896
11 24 -0.11614419202701727
12 24 0.25945915818479898
13 24 0.021363197541804119
14 24 0.18916752978907941
15 24 -0.10659345050826602
16 24 -0.43274737592700097
17 24 -1.0000000000000002
18 24 -0.68669584069646472
19 24 -0.14768227836651163
20 24 -0.26641733903341347
21 24 -0.070039828936574081
22 24 0.130445011787542
23 24 0.49497075390736633
24 24 0.25829687549871561
25 24 0.088559661302220982
1 25 0.28341505087982832
2 25 -0.63406887236766263
3 25 0.4401932904913452
4 25 0.72637123889232758
5 25 0.4409121939054923
6 25 -0.57248821128427596
7 25 1.0000000000000002
8 25 0.56966350195601567
9 25 -0.03624178509758999
10 25 -0.9254333202788716
11 25 0.40573932074105368
12 25 0.024096668352452107
13 25 0.28030545777391969
14 25 -0.15222499229534217
15 25 0.66339086917381318
16 25 -0.013517361742503982
17 25 -0.15576494298700178
18 25 0.24101967168261079
19 25 0.015006959357983945
20 25 -0.25141187681710381
21 25 0.30652131519762216
22 25 -0.1449458436553418
23 25 0.24657583972322511
24 25 0.10848148653749069
25 25 0.16669992143173293
1 26 -0.63397371891791487
2 26 -0.78213106455404646
3 26 -0.53682047590369986
4 26 0.17163040312491126
5 26 0.25239024785645348
6 26 -0.99944407970742255
7 26 0.96697318493225515
8 26 -0.23006294179948419
9 26 -0.023296198970176447
10 26 0.20609476831553927
11 26 -0.81795298935065597
12 26 -0.54458353440105889
13 26 0.38747261366691099
14 26 0.69760453270465295
15 26 0.0067009255907524547
16 26 0.87036637255147564
17 26 0.25627302597068202
18 26 0.51260350430725565
19 26 0.47044759885968862
20 26 -0.51888297796477778
21 26 -0.18215763509695287
22 26 -0.2607244019367414
23 26 -0.22633087501228713
24 26 -0.34356731263422063
25 26 -0.66512674613044054
1 27 -0.33544233543023216
2 27 0.38939635326815647
3 27 -0.15741489699301789
4 27 0.20851593986525579
5 27 0.34876207653763563
6 27 0.19939164481790331
7 27 -0.12048030404002989
8 27 0.40985550740321725
9 27 -0.075966314902742582
10 27 -0.37777221993768151
11 27 0.20351073736041886
12 27 -0.13968139181657246
13 27 -0.045074921663589979
14 27 -0.40437687344764134
15 27 -0.27502069121048828
16 27 -0.34262637412978969
17 27 -0.50748375856728822
18 27 -0.018418281409285552
19 27 0.24482683718871417
20 27 -0.10943444673994425
21 27 -0.010192774044629911
22 27 -1.0000000000000002
23 27 -0.014246516932486318
24 27 0.14393088983122884
25 27 0.17819787188039951
1 28 -0.20249276090165774
2 28 0.11060589454106241
3 28 -0.44428278996502468
4 28 -0.7343104310202756
5 28 -0.066088759780977405
6 28 0.81043973659919655
7 28 -0.051815650274260355
8 28 -0.056610588631057536
9 28 -0.22798257684252798
10 28 0.098198837170401065
11 28 -0.36623641298496978
12 28 0.13474504763566633
13 28 -0.3563468043942527
14 28 0.12230109203571703
15 28 0.19100294476207644
16 28 -0.028191424391908179
17 28 0.23430954091052814
18 28 -0.99983467702042983
19 28 -0.76584362692383678
20 28 0.29198745475302368
21 28 -0.34410020561925092
22 28 0.013396350005848962
23 28 -0.38256230185456336
24 28 -0.20283217093768921
25 28 -0.04709119443604573
1 29 -0.28401547859077386
2 29 -0.38438748323015587
3 29 0.18791023222930747
4 29 -0.99936504416601557
5 29 -0.56893435026796657
6 29 0.50158425823738806
7 29 -0.53924962740243243
8 29 0.068319238294608356
9 29 -0.46705431682483389
10 29 -0.020103942763356961
11 29 -0.1683992359148587
12 29 -0.37083305313107884
13 29 -0.69171726416804824
14 29 -0.17955848764338428
15 29 1.0000000000000002
16 29 -0.069557271569562873
17 29 0.027582030825641334
18 29 0.35713397847710809
19 29 0.1532419869759433
20 29 0.29736759890740544
21 29 -0.38903435027759958
22 29 -0.029840765964432234
23 29 0.38243339708752677
24 29 -0.33217865944035574
25 29 0.39963416551216097
1 30 -0.51410520950937566
2 30 -0.68200805396848518
3 30 -0.21047369594889601
4 30 0.32631364807262042
5 30 0.99994188220619662
6 30 0.48498779728742136
7 30 -0.25912110821448398
8 30 -0.24391488714274462
9 30 0.36577547125569226
10 30 -0.44635826283837449
11 30 0.38694556978651307
12 30 -0.0034967174056785293
13 30 0.49307785798612974
14 30 0.61099351420083148
15 30 0.39271005792355612
16 30 -0.5703788338831276
17 30 -0.60001798188107691
18 30 0.71778289521325589
19 30 0.51085254247193301
20 30 0.18993095331012755
21 30 -0.44961864616548253
22 30 0.11978626710271113
23 30 -0.27981543921053731
24 30 0.29381889099236941
25 30 0.35034858563729593
1 31 -0.36628267516280422
2 31 0.25568979235616707
3 31 -0.26492691284352882
4 31 0.12308961755965771
5 31 0.32934029967876538
6 31 0.20680640689630364
7 31 0.8431179254598401
8 31 -0.13495556810557188
9 31 0.34976299592827248
10 31 0.33511743984587933
11 31 -0.99990930441294024
12 31 0.021340176546431722
13 31 0.85257673103904352
14 31 -0.037686359765449859
15 31 0.10096804910402185
16 31 0.5612395893304637
17 31 -0.55195126599062327
18 31 -0.54170222251803468
19 31 0.1570938196587286
20 31 -0.44080941478146995
21 31 0.93247452982376855
22 31 -0.78353041930928358
23 31 -0.63538525146179159
24 31 0.63214051199948151
25 31 0.53877902547666767
1 32 -0.58678406871729127
2 32 0.11723501906751517
3 32 0.37699945983557676
4 32 0.54187913884144057
5 32 -0.18162697597353764
6 32 0.68112417735156994
7 32 -0.52154246188116571
8 32 0.74723071498746985
9 32 -0.78579500119612522
10 32 0.86950447805572895
11 32 0.17004025416725446
12 32 -0.45187863273639789
13 32 0.33169872869535572
14 32 0.34367929959544369
15 32 -0.88270058670515761
16 32 -0.24492911754612925
17 32 0.55385965598720532
18 32 -0.1672824237003212
19 32 -0.071468469467747847
20 32 0.88208195000971734
21 32 0.26815272860613643
22 32 -0.26605427171169138
23 32 0.99974292880429361
24 32 0.57399496724737953
25 32 0.212994713098516
1 33 0.15444962210971241
2 33 0.80996425839084041
3 33 -0.43578892781178036
4 33 0.23774240255561957
5 33 -0.27132009052665779
6 33 0.17723736368305895
7 33 -0.74655745775785187
8 33 -0.17172195820041514
9 33 0.3496602720319657
10 33 0.72121687088511932
11 33 0.37832010603833205
12 33 0.53321014255914212
13 33 -0.72572080028872299
14 33 -0.40730034431309065
15 33 0.30287020004024501
16 33 -0.25283553887781246
17 33 0.308775515191758
18 33 0.99983873767728193
19 33 0.11307096689442038
20 33 -0.030551043004387778
21 33 0.32643881645222039
22 33 0.013880544153371043
23 33 0.53382209052518781
24 33 -0.35298878985676085
25 33 -0.4821575965286149
1 34 0.013883208428983324
2 34 0.44846479475348267
3 34 0.41240729082295136
4 34 -0.53766581040890427
5 34 0.45351642634853151
6 34 -0.047626865232661103
7 34 0.3178678596974856
8 34 0.28056885062408488
9 34 -0.12113177089148518
10 34 -0.50382406600128071
11 34 -0.3204960577125327
12 34 -0.65755180420751214
13 34 0.30992157330654568
14 34 0.17916353138254487
15 34 -0.49678487008664929
16 34 -0.46254733212972232
17 34 0.56572164154961047
18 34 -0.73608179324322154
19 34 -0.2503972375944572
20 34 0.10088178239442373
21 34 0.093853191530127195
22 34 -0.99941377297089529
23 34 -0.57829812979423212
24 34 0.46630755867766255
25 34 -0.72249581371595406
1 35 -0.31040226719932729
2 35 0.11259869393689279
3 35 0.94165647113234008
4 35 0.37679587840006568
5 35 -0.1348104049987294
6 35 0.18078258275728665
7 35 -0.046043192103156161
8 35 -0.84306539858993257
9 35 0.52737419447088196
10 35 -0.038518350704483652
11 35 0.4168081481707388
12 35 -0.20502052490065736
13 35 0.15079501748592872
14 35 -0.18959686341345419
15 35 -0.69632456923096209
16 35 0.52533549337927277
17 35 0.21004814429987942
18 35 0.094627153378943674
19 35 0.99995590954722169
20 35 -0.94788978364089305
21 35 0.17308089651144659
22 35 0.41633971904294115
23 35 -0.17041051725616926
24 35 0.056562374981410909
25 35 -0.24925474952240542
1 36 -0.99380635065481016
2 36 0.13096795486562815
3 36 0.15404963777909414
4 36 0.27383954708195574
5 36 0.30584355268218494
6 36 0.66256999857313925
7 36 0.078743536000076442
8 36 -0.42352262110200373
9 36 0.049280869402294418
10 36 -0.48893195269211287
11 36 -0.94757075941676094
12 36 -0.39091862756246909
13 36 0.78914548676538188
14 36 -0.25436277369710286
15 36 0.24527519448708865
16 36 0.99986092209344279
17 36 -0.30584300494703598
18 36 0.82598466415363569
19 36 -0.44487468739796898
20 36 0.23388986510032278
21 36 -0.088401501257964546
22 36 -0.46556448110429932
23 36 0.25477970601326194
24 36 0.26430900995375972
25 36 0.18617555926375845
1 37 -0.52136137711325281
2 37 0.053251328121700504
3 37 0.66247779247864191
4 37 0.60916491744928447
5 37 0.5685700010465039
6 37 0.23199949721852714
7 37 -0.55810222644679297
8 37 -0.053749414911761821
9 37 0.83059752026813116
10 37 -1
11 37 0.24009945200275334
12 37 0.11650505152333415
13 37 -0.50645580108779276
14 37 -0.04087790325897122
15 37 -0.0091045521982961886
16 37 0.15372934181288164
17 37 0.36676616753151425
18 37 0.61210065997173202
19 37 0.041793291733448194
20 37 0.87660602294332668
21 37 0.12241089324857864
22 37 -0.21023204841509197
23 37 -0.2243403910438683
24 37 0.18276427657289618
25 37 0.0055189646081263742
1 38 -0.21116727438707375
2 38 0.063845843803711264
3 38 0.66183894535206655
4 38 0.20992315521310911
5 38 0.81359387066182343
6 38 -0.46040054171088285
7 38 0.17781468469230824
8 38 0.20862612877746958
9 38 1.0000000000000002
10 38 0.26174362959331027
11 38 -0.64187655534344101
12 38 -0.022907442192620718
13 38 0.026097163835188116
14 38 0.69203348321993918
15 38 -0.75784863997488761
16 38 -0.21216341681283224
17 38 -0.37364883428090906
18 38 -0.033987903128517079
19 38 -0.077567339443982475
20 38 -0.84432791372052041
21 38 0.19610720662544998
22 38 0.081196883919722559
23 38 0.99015671880212641
24 38 0.23924738730094056
25 38 0.15515540779800011
1 39 0.93593890950425818
2 39 1.0000000000000002
3 39 0.014936426143237836
4 39 0.00039760008081216074
5 39 0.39399651792382323
6 39 0.52144291360604211
7 39 0.13931730278335888
8 39 0.39087556557002801
9 39 -0.024951723671566131
10 39 0.37701412014243996
11 39 -0.23275498378234075
12 39 0.28620674416335912
13 39 0.0010597555898301482
14 39 0.094721415983304122
15 39 -0.10939758800139028
16 39 0.26668986924339672
17 39 -0.063167075716443519
18 39 -0.24254985878093324
19 39 0.37334135894744197
20 39 -0.30559923966368741
21 39 -0.12089335760444678
22 39 -0.32239365607389692
23 39 -0.34409746683811671
24 39 0.76629759840595957
25 39 0.23069679874977747
1 40 0.088547654443846963
2 40 0.4795930956091734
3 40 0.59165380600399242
4 40 -0.29302412089518581
5 40 -0.42744248199675294
6 40 -0.51246649070008754
7 40 0.55350120358548938
8 40 0.019116143642336998
9 40 0.39998096045118986
10 40 -0.23697257694176854
11 40 -0.23232712845693054
12 40 0.0080617405480406697
13 40 -0.15018538812208676
14 40 -0.11322145074224242
15 40 -0.47087424594095306
16 40 -1.0000000000000002
17 40 -0.13684020390545576
18 40 0.57516158192294686
19 40 0.21249142776756388
20 40 -0.58010449956665477
21 40 0.56082325105849773
22 40 -0.16249552163504999
23 40 0.23153319593297828
24 40 0.83542519118395286
25 40 -0.29822867639980816
1 41 0.39079231234523837
2 41 -0.62094977768393855
3 41 -0.36517434696943479
4 41 -0.56363753077196388
5 41 -0.26827871709346063
6 41 -0.3472307116454228
7 41 0.14801469067260475
8 41 0.72458449694348825
9 41 0.51717602150007713
10 41 -0.34479441436873437
11 41 -0.58702189059764298
12 41 -0.57319346442218455
13 41 0.395271547899748
14 41 -0.017224104350127407
15 41 -0.87232232289614076
16 41 -0.99789158758022511
17 41 0.31327847206079573
18 41 0.6428646987734864
19 41 0.77205137943593971
20 41 -0.41530991281373719
21 41 -1
22 41 -0.3068828739803024
23 41 -0.08137959494671565
24 41 -0.59499529204624002
25 41 0.73505357425522977
1 42 -0.083446773739798336
2 42 0.2969190992613297
3 42 0.38111315334531598
4 42 -0.29823784024134325
5 42 -0.027196401821980919
6 42 -0.99998331105856753
7 42 -0.089408591545184837
8 42 0.0069025127617872127
9 42 0.16895429785787341
10 42 -0.78997358113515215
11 42 0.14484012910989882
12 42 0.36034015842995676
13 42 0.28523854756177275
14 42 0.2197557963466063
15 42 0.47962717030954277
16 42 0.06873374605524131
17 42 -0.1550511844308598
18 42 -0.25391457482993968
19 42 -0.27412183323331918
20 42 -0.25310942534215247
21 42 -0.24111028621586827
22 42 0.084946586242766006
23 42 -0.024903274135003053
24 42 -0.24121841025846191
25 42 0.0094831859732995225
1 43 0.041380281766962068
2 43 0.40466182919292781
3 43 0.26334758951628356
4 43 0.085329229765090872
5 43 0.072847359349684712
6 43 0.010072137142524225
7 43 -0.26083364943385051
8 43 -0.62686564058083138
9 43 -0.99997989439667034
10 43 -0.26746050267989124
11 43 0.37558194501784875
12 43 -0.44419165672908451
13 43 0.34772623672709496
14 43 -0.26202701491912561
15 43 0.18647539646465999
16 43 0.25472292405879349
17 43 -0.21479396893831074
18 43 0.45513268715826721
19 43 -0.16662699024996819
20 43 0.45536625719445367
21 43 -0.18410271968475156
22 43 -0.43515077521571921
23 43 0.3269702923870238
24 43 -0.0048940678131547755
25 43 0.0015077240813444952
1 44 0.67592813689588316
2 44 0.077032006778539094
3 44 -0.279038007061017
4 44 -0.65896168425151003
5 44 -0.3548610855390581
6 44 0.37792766715050308
7 44 -0.96664055939818949
8 44 0.24724955546097999
9 44 -0.59897182227433621
10 44 -0.67108062813289071
11 44 -0.34281629110447431
12 44 0.22777660475578984
13 44 -0.30356007017193731
14 44 0.25891809779874481
15 44 0.29156785780396732
16 44 -0.72572040863597931
17 44 -0.25424065215089442
18 44 0.041866913658916337
19 44 -0.066696624087370537
20 44 0.016229128994080948
21 44 -0.089764004794658556
22 44 0.73907832074656354
23 44 -1
24 44 0.12422193768427225
25 44 0.53324023596844961
1 45 -0.11918458150662321
2 45 -0.78318375145595731
3 45 0.84219999477502283
4 45 0.99965160184254409
5 45 0.24430093052910215
6 45 0.073624638726905334
7 45 0.50409276973659722
8 45 -0.84257497033380335
9 45 0.41564515276468916
10 45 0.74633781673381128
11 45 -0.026640967635745985
12 45 0.4703356836173922
13 45 0.75863364029960279
14 45 -0.18345366689780818
15 45 -0.66493168520169021
16 45 0.46394932844038861
17 45 -0.7690763276207695
18 45 -0.38147242552042032
19 45 0.27826547842353155
20 45 0.34209200961138059
21 45 0.068436805001012235
22 45 -0.0025883184309672554
23 45 0.7591836527127811
24 45 0.12766903344452313
25 45 -0.24577359162180337
1 46 0.13110293161597669
2 46 -0.34518892634466147
3 46 0.041427091365274865
4 46 0.090857259919841699
5 46 -0.016455067856949269
6 46 0.10447188154186623
7 46 -0.3479494499226044
8 46 -0.3121795610976687
9 46 0.19069514697946757
10 46 0.31296195984384895
11 46 0.62252125747600251
12 46 0.25412408544518189
13 46 -0.65305000677009095
14 46 -0.072326353379705596
15 46 0.019540865840422385
16 46 -0.028097932667740907
17 46 0.27518295597253351
18 46 -1
19 46 -0.17562955292056812
20 46 -0.31612419884145787
21 46 0.2926778457152559
22 46 -0.014064716012331849
23 46 0.23618315432665418
24 46 -0.19349444445446559
25 46 0.69696926752760135
1 47 0.22524333198192625
2 47 0.16379183976979936
3 47 -0.72431193645916125
4 47 -0.62431522591987854
5 47 -0.13736549901010467
6 47 -0.57767777510327112
7 47 -0.99977577868181744
8 47 -0.072924314308336541
9 47 0.059130441693703607
10 47 -0.2903448096656745
11 47 -0.49822798347267677
12 47 0.51545381657339395
13 47 0.74584885928091293
14 47 -0.73391253597224948
15 47 -0.89184780880047942
16 47 -0.17797096100117449
17 47 0.44240458394660909
18 47 -0.56762517119886458
19 47 -0.011644270431029171
20 47 0.56615154946274959
21 47 0.18085331910683336
22 47 0.56015166375620007
23 47 0.0657348950370331
24 47 0.50474191551904923
25 47 0.025333161916274209
1 48 0.74731867382342454
2 48 -0.86240689504275081
3 48 0.040804192644467711
4 48 -0.24364859832397942
5 48 -0.11405449373826707
6 48 0.32736032062275838
7 48 0.86683229633644121
8 48 1.0000000000000002
9 48 -0.24660365955529256
10 48 -0.5359863010354684
11 48 -0.23940773646569305
12 48 -0.025332968151237107
13 48 0.30837208071874012
14 48 -0.21244323576949745
15 48 -0.86587069512157844
16 48 0.035329457260878439
17 48 -0.18202275933656126
18 48 0.10181279083423632
19 48 0.34243414296360059
20 48 0.060504692485185065
21 48 -0.19954162296489891
22 48 0.28074799141892398
23 48 -0.27610909118963334
24 48 -0.22848115366031463
25 48 0.65754749449070005
1 49 0.40266361758639074
2 49 -0.45816774614573813
3 49 -0.18635115552486117
4 49 0.79378633729408343
5 49 0.41687545327988479
6 49 -0.5156373199926978
7 49 -0.066898236824634388
8 49 0.52068033529314317
9 49 -0.018966455447808641
10 49 0.55144266087987581
11 49 0.99994574795807445
12 49 0.23486466103192807
13 49 0.31537700856329426
14 49 -0.023977940694302067
15 49 0.022485038691727129
16 49 -0.807345094738387
17 49 0.28508125731247108
18 49 -0.47177738521852797
19 49 0.20108693996377242
20 49 0.59632527038731553
21 49 0.93164172467954465
22 49 0.78476940694511066
23 49 -0.28305565455231974
24 49 -0.18022439465505655
25 49 0.53050734035354008
1 50 -0.54903037977113134
2 50 0.18598561992178081
3 50 0.023286302264658595
4 50 0.37236567556115618
5 50 0.26795198087913563
6 50 -0.99980913245663305
7 50 -0.47621797088175616
8 50 0.60295955966810821
9 50 -0.29104003858830263
10 50 -0.99728229709420502
11 50 0.39752162777481137
12 50 0.40202174151313486
13 50 -0.14424068418455074
14 50 0.32554087178490809
15 50 -0.3322146592978365
16 50 0.89497430508452591
17 50 0.34592640782757422
18 50 0.46859240050915268
19 50 -0.52487106887740653
20 50 0.22117181542218342
21 50 0.69496168639697709
22 50 0.0049345449236456998
23 50 -0.23814261793518443
24 50 -0.34421839741352678
25 50 0.072255156607046081
