%%MatrixMarket matrix coordinate real general
360 360 2244
1 1 19853.223270535495
2 2 12369.945190900358
3 2 6614.8771357775022
5 2 868.40094398055169
2 3 6614.8771357775022
3 3 6618.4246573312339
5 3 6619.9214774660368
4 4 12364.900849250487
6 4 6619.9214775435639
7 4 868.40094392898186
2 5 868.40094398055169
3 5 6619.9214774660368
5 5 12364.900849046797
4 6 6619.9214775435639
6 6 6618.4246573760702
7 6 6614.8771357868072
4 7 868.40094392898186
6 7 6614.8771357868072
7 7 12369.945190968074
8 8 19853.223270834893
9 9 7707.3401100049414
10 9 5828.7245004613906
12 9 765.19484103891818
16 9 2204.0048069360146
18 9 409.19096894035891
27 9 37.98477402032514
9 10 5828.7245004613906
10 10 6327.7457806649418
12 10 4414.0153061895053
16 10 3118.6050834744055
18 10 2495.1824077626761
27 10 409.5030078521678
11 11 7704.197132721969
13 11 4124.6735972997876
14 11 541.07446099544973
17 11 4119.8499004063342
19 11 2205.6855265128147
20 11 289.34170892083921
23 11 540.8538161987384
28 11 289.56235377194696
29 11 37.984774018069423
9 12 765.19484103891818
10 12 4414.0153061895053
12 12 7742.1819066153803
16 12 3119.3103858879331
18 12 4409.4122541070228
27 12 764.88280211690085
11 13 4124.6735972997876
13 13 4123.7409737568632
14 13 4121.5306199502174
17 13 2205.6855265128152
19 13 2205.18680238253
20 13 2204.004806939115
23 13 289.56235377194702
28 13 289.49688127765336
29 13 289.34170893842867
11 14 541.07446099544973
13 14 4121.5306199502174
14 14 7707.3401100471328
17 14 289.34170892083893
19 14 2204.004806939115
20 14 4121.5306199669831
23 14 37.984774018069388
28 14 289.34170893842867
29 14 541.07446103054326
15 15 12369.945191086903
21 15 6614.8771358772583
30 15 868.40094399364762
9 16 2204.0048069360146
10 16 3118.6050834744055
12 16 3119.3103858879331
16 16 2206.3694316976962
18 16 3120.9832545741474
27 16 2207.3675277131101
11 17 4119.8499004063342
13 17 2205.6855265128152
14 17 289.34170892083893
17 17 4122.059352830368
19 17 2206.8684233048853
20 17 289.49688125850048
23 17 4122.9915960382486
28 17 2207.3675277389611
29 17 289.56235375136026
9 18 409.19096894035891
10 18 2495.1824077626761
12 18 4409.4122541070228
16 18 3120.9832545741474
18 18 6329.4268804755739
27 18 5830.790632571533
11 19 2205.6855265128147
13 19 2205.18680238253
14 19 2204.004806939115
17 19 2206.8684233048853
19 19 2206.3694317126433
20 19 2205.1868023706929
23 19 2207.3675277389616
28 19 2206.8684232939904
29 19 2205.685526490086
11 20 289.34170892083921
13 20 2204.004806939115
14 20 4121.5306199669831
17 20 289.49688125850048
19 20 2205.1868023706929
20 20 4123.7409737515018
23 20 289.56235375135998
28 20 2205.685526490086
29 20 4124.6735972740626
15 21 6614.8771358772583
21 21 6618.4246574310437
30 21 6619.9214775658684
22 22 7701.0554371141352
24 22 5830.7906327358705
25 22 764.88280208407855
31 22 2207.3675277648122
32 22 409.50300783264527
34 22 37.984774015813706
11 23 540.8538161987384
13 23 289.56235377194702
14 23 37.984774018069388
17 23 4122.9915960382486
19 23 2207.3675277389616
20 23 289.56235375135998
23 23 7701.0554369872734
28 23 4122.9915960186145
29 23 540.8538161577103
22 24 5830.7906327358705
24 24 6329.4268806231048
25 24 4409.4122541668812
31 24 3120.9832546318403
32 24 2495.182407776379
34 24 409.19096891663474
22 25 764.88280208407855
24 25 4409.4122541668812
25 25 7742.1819067799579
31 25 3119.3103859288512
32 25 4414.0153062436138
34 25 765.19484099766623
26 26 12364.900849436957
33 26 6619.9214776433964
35 26 868.40094394207779
9 27 37.98477402032514
10 27 409.5030078521678
12 27 764.88280211690085
16 27 2207.3675277131101
18 27 5830.790632571533
27 27 7701.0554368604116
11 28 289.56235377194696
13 28 289.49688127765336
14 28 289.34170893842867
17 28 2207.3675277389611
19 28 2206.8684232939904
20 28 2205.685526490086
23 28 4122.9915960186145
28 28 4122.0593527903884
29 28 4119.8499003442621
11 29 37.984774018069423
13 29 289.34170893842867
14 29 541.07446103054326
17 29 289.56235375136026
19 29 2205.685526490086
20 29 4124.6735972740626
23 29 540.8538161577103
28 29 4119.8499003442621
29 29 7704.1971326372304
15 30 868.40094399364762
21 30 6619.9214775658684
30 30 12364.900849233265
22 31 2207.3675277648122
24 31 3120.9832546318403
25 31 3119.3103859288512
31 31 2206.3694317275904
32 31 3118.6050834999191
34 31 2204.0048069422151
22 32 409.50300783264527
24 32 2495.182407776379
25 32 4414.0153062436138
31 32 3118.6050834999191
32 32 6327.7457807216524
34 32 5828.7245005014975
26 33 6619.9214776433964
33 33 6618.4246574758799
35 33 6614.8771358865633
22 34 37.984774015813706
24 34 409.19096891663474
25 34 765.19484099766623
31 34 2204.0048069422151
32 34 5828.7245005014975
34 34 7707.3401100893252
26 35 868.40094394207779
33 35 6614.8771358865633
35 35 12369.945191154618
36 36 19853.223271134288
37 37 23192.21500660148
38 38 14299.591224673157
39 38 7729.7279721137784
41 38 1162.895809941891
38 39 7729.7279721137784
39 39 7731.6031175744365
41 39 7730.8839169219546
40 40 14298.435279712245
42 40 7730.8839169430657
43 40 1162.8958099032288
38 41 1162.895809941891
39 41 7730.8839169219546
41 41 14298.435279633359
40 42 7730.8839169430657
42 42 7731.6031175809094
43 42 7729.7279720976612
40 43 1162.8958099032288
42 43 7729.7279720976612
43 43 14299.591224676406
44 44 23192.215006571103
45 45 8816.6787490780789
46 45 6740.0109526331426
48 45 1013.9982317691015
52 45 2576.2392469142674
54 45 548.12269614086347
63 45 58.309508789718265
45 46 6740.0109526331426
46 46 7343.302852579327
48 46 5154.201444498417
52 46 3644.2363194233367
54 46 2964.2998097331447
63 46 548.20466533656258
47 47 8815.966029727444
49 47 4766.6201691479746
50 47 717.00502577126224
53 47 4765.5221852499972
55 47 2576.6245114988969
56 47 387.58127535057224
59 47 716.94706481331434
64 47 387.6392363386438
65 47 58.309508787779677
45 48 1013.9982317691015
46 48 5154.201444498417
48 48 8874.2755384685242
52 48 3643.8973292947408
54 48 5153.1614215612908
63 48 1013.9162625569777
47 49 4766.6201691479746
49 49 4767.063605669051
50 49 4765.9074498685595
53 49 2576.624511498896
55 49 2576.864213712704
56 49 2576.2392469088954
59 49 387.63923633864368
64 49 387.675298241608
65 49 387.58127536264982
47 50 717.00502577126224
49 50 4765.9074498685595
50 50 8816.6787490800816
53 50 387.58127535057321
55 50 2576.2392469088959
56 50 4765.9074498795799
59 50 58.309508787779819
64 50 387.58127536264988
65 50 717.00502579526301
51 51 14299.591224654429
57 51 7729.7279721036548
66 51 1162.8958099403678
45 52 2576.2392469142674
46 52 3644.2363194233367
48 52 3643.8973292947408
52 52 2577.4893321177733
54 52 3644.7812979877058
63 52 2577.0098336839774
47 53 4765.5221852499972
49 53 2576.624511498896
50 53 387.58127535057321
53 53 4766.6782475756754
55 53 2577.249571756051
56 53 387.67529822839458
59 53 4766.234846891929
64 53 2577.0098336910146
65 53 387.63923632469761
45 54 548.12269614086347
46 54 2964.2998097331447
48 54 5153.1614215612908
52 54 3644.7812979877058
54 54 7343.6880812333548
63 54 6740.4739618926305
47 55 2576.6245114988969
49 55 2576.864213712704
50 55 2576.2392469088959
53 55 2577.249571756051
55 55 2577.4893321199311
56 55 2576.8642137051734
59 55 2577.0098336910137
64 55 2577.2495717511711
65 55 2576.6245114864882
47 56 387.58127535057224
49 56 2576.2392469088954
50 56 4765.9074498795799
53 56 387.67529822839458
55 56 2576.8642137051734
56 56 4767.0636056661433
59 56 387.63923632469857
64 56 2576.6245114864887
65 56 4766.6201691360411
51 57 7729.7279721036548
57 57 7731.6031175643102
66 57 7730.8839169118291
58 58 8815.2533679913467
60 58 6740.4739619482243
61 58 1013.9162625288624
67 58 2577.0098336980514
68 58 548.20466531983368
70 58 58.309508785841089
47 59 716.94706481331434
49 59 387.63923633864368
50 59 58.309508787779819
53 59 4766.234846891929
55 59 2577.0098336910137
56 59 387.63923632469857
59 59 8815.2533679427124
64 59 4766.2348468786477
65 59 716.9470647855228
58 60 6740.4739619482243
60 60 7343.6880812777163
61 60 5153.1614215658174
67 60 3644.7812980007097
68 60 2964.2998097222435
70 60 548.12269612149737
58 61 1013.9162625288624
60 61 5153.1614215658174
61 61 8874.2755385152886
67 61 3643.8973292970936
68 61 5154.2014444988217
70 61 1013.9982317356199
62 62 14298.435279693516
69 62 7730.8839169329394
71 62 1162.8958099017057
45 63 58.309508789718265
46 63 548.20466533656258
48 63 1013.9162625569777
52 63 2577.0098336839774
54 63 6740.4739618926305
63 63 8815.2533678940781
47 64 387.6392363386438
49 64 387.675298241608
50 64 387.58127536264988
53 64 2577.0098336910146
55 64 2577.2495717511711
56 64 2576.6245114864887
59 64 4766.2348468786477
64 64 4766.6782475533682
65 64 4765.5221852137684
47 65 58.309508787779677
49 65 387.58127536264982
50 65 717.00502579526301
53 65 387.63923632469761
55 65 2576.6245114864882
56 65 4766.6201691360411
59 65 716.9470647855228
64 65 4765.5221852137684
65 65 8815.9660296808088
51 66 1162.8958099403678
57 66 7730.8839169118291
66 66 14298.43527961463
58 67 2577.0098336980514
60 67 3644.7812980007097
61 67 3643.8973292970936
67 67 2577.4893321220889
68 67 3644.2363194187892
70 67 2576.2392469035235
58 68 548.20466531983368
60 68 2964.2998097222435
61 68 5154.2014444988217
67 68 3644.2363194187892
68 68 7343.3028525736581
70 68 6740.0109526206197
62 69 7730.8839169329394
69 69 7731.6031175707831
71 69 7729.7279720875367
58 70 58.309508785841089
60 70 548.12269612149737
61 70 1013.9982317356199
67 70 2576.2392469035235
68 70 6740.0109526206197
70 70 8816.6787490820843
62 71 1162.8958099017057
69 71 7729.7279720875367
71 71 14299.591224657677
72 72 23192.215006540726
73 73 22458.209818582931
74 74 13872.504220845409
75 74 7484.9401663026192
77 74 1100.765431543259
74 75 7484.9401663026192
75 75 7486.8646685202102
77 75 7486.4049837609737
76 76 13871.039403241664
78 76 7486.4049837918992
79 76 1100.7654315307025
74 77 1100.765431543259
75 77 7486.4049837609737
77 77 13871.039403171764
76 78 7486.4049837918992
78 78 7486.8646685246586
79 78 7484.9401662788241
76 79 1100.7654315307025
78 79 7484.9401662788241
79 79 13872.50422081639
80 80 22458.209818468327
81 81 8569.087870847934
82 81 6538.5742751809039
84 81 961.58905399139883
88 81 2494.6035211932044
90 81 518.82748919135361
99 81 53.952854883298357
81 82 6538.5742751809039
82 82 7119.2625013141851
84 82 4991.2414673258336
88 82 3528.8092145457463
90 82 2862.052483307315
99 82 518.92902474770494
83 83 8568.183048577821
85 83 4624.375031471739
86 83 679.94614078431914
89 83 4622.9820104262462
91 83 2495.0917200011409
92 83 366.86643586901147
95 83 679.87434430452163
100 83 366.93823235513963
101 83 53.952854882682921
81 84 961.58905399139883
82 84 4991.2414673258336
84 84 8622.1359034179441
88 84 3528.5925497758508
90 84 4989.9202427565742
99 84 961.48751842012462
83 85 4624.375031471739
85 85 4624.6589801237269
86 85 4623.4702092576335
89 85 2495.0917200011418
91 85 2495.2449251203543
92 85 2494.6035211852741
95 85 366.9382323551398
100 85 366.96076331669963
101 85 366.86643587203002
83 86 679.94614078431914
85 86 4623.4702092576335
86 86 8569.0878708300097
89 86 366.86643586901221
91 86 2494.6035211852745
92 86 4623.4702092626603
95 86 53.952854882683027
100 86 366.86643587203014
101 86 679.94614079065298
87 87 13872.504220774619
93 87 7484.9401662644241
102 87 1100.7654315376419
81 88 2494.6035211932044
82 88 3528.8092145457463
84 88 3528.5925497758508
88 88 2495.8864939611231
90 88 3529.4998094242387
99 88 2495.5800143299243
83 89 4622.9820104262462
85 89 2495.0917200011418
86 89 366.86643586901221
89 89 4624.1706557508769
91 89 2495.7332494508159
92 89 366.96076331229568
95 89 4623.8867370650805
100 89 2495.5800143402334
101 89 366.93823234943818
81 90 518.82748919135361
82 90 2862.052483307315
84 90 4989.9202427565742
88 90 3529.4998094242387
90 90 7119.7506700574995
99 90 6539.1633344015618
83 91 2495.0917200011409
85 91 2495.2449251203543
86 91 2494.6035211852745
89 91 2495.7332494508159
91 91 2495.886493962606
92 91 2495.2449251109397
95 91 2495.5800143402344
100 91 2495.7332494419888
101 91 2495.0917199829019
83 92 366.86643586901147
85 92 2494.6035211852741
86 92 4623.4702092626603
89 92 366.96076331229568
91 92 2495.2449251109397
92 92 4624.6589801113059
95 92 366.93823234943898
100 92 2495.0917199829023
101 92 4624.3750314429635
87 93 7484.9401662644241
93 93 7486.864668482006
102 93 7486.4049837227712
94 94 8567.2783218491895
96 94 6539.1633344615275
97 94 961.48751841400212
103 94 2495.5800143505426
104 94 518.92902474392918
106 94 53.952854882067477
83 95 679.87434430452163
85 95 366.9382323551398
86 95 53.952854882683027
89 95 4623.8867370650805
91 95 2495.5800143402344
92 95 366.93823234943898
95 95 8567.2783218060176
100 95 4623.8867370608805
101 95 679.8743442933403
94 96 6539.1633344615275
96 96 7119.7506701041675
97 96 4989.9202427625041
103 96 3529.4998094409157
104 96 2862.0524833057225
106 96 518.82748918378593
94 97 961.48751841400212
96 97 4989.9202427625041
97 97 8622.1359034419656
103 97 3528.5925497792105
104 97 4991.2414673299108
106 97 961.58905397841875
98 98 13871.039403170882
105 98 7486.4049837536968
107 98 1100.7654315250854
81 99 53.952854883298357
82 99 518.92902474770494
84 99 961.48751842012462
88 99 2495.5800143299243
90 99 6539.1633344015618
99 99 8567.2783217628439
83 100 366.93823235513963
85 100 366.96076331669963
86 100 366.86643587203014
89 100 2495.5800143402334
91 100 2495.7332494419888
92 100 2495.0917199829023
95 100 4623.8867370608805
100 100 4624.1706557303214
101 100 4622.9820103882539
83 101 53.952854882682921
85 101 366.86643587203002
86 101 679.94614079065298
89 101 366.93823234943818
91 101 2495.0917199829019
92 101 4624.3750314429635
95 101 679.8743442933403
100 101 4622.9820103882539
101 101 8568.1830485167211
87 102 1100.7654315376419
93 102 7486.4049837227712
102 102 13871.039403100984
94 103 2495.5800143505426
96 103 3529.4998094409157
97 103 3528.5925497792105
103 103 2495.8864939640885
104 103 3528.8092145366249
106 103 2494.6035211773437
94 104 518.92902474392918
96 104 2862.0524833057225
97 104 4991.2414673299108
103 104 3528.8092145366249
104 104 7119.2625012913977
106 104 6538.5742751464413
98 105 7486.4049837536968
105 105 7486.8646684864543
107 105 7484.9401662406299
94 106 53.952854882067477
96 106 518.82748918378593
97 106 961.58905397841875
103 106 2494.6035211773437
104 106 6538.5742751464413
106 106 8569.0878708120854
98 107 1100.7654315250854
105 107 7484.9401662406299
107 107 13872.504220745601
108 108 22458.209818353727
109 109 24381.24580774059
110 110 15000.016052550916
111 110 8126.6023032564253
113 110 1254.6274520036209
110 111 8126.6023032564253
111 111 8128.0117651228957
113 111 8126.6317394324587
112 112 14999.986616536844
114 112 8126.6317394923453
115 112 1254.6274519586996
110 113 1254.6274520036209
111 113 8126.6317394324587
113 113 14999.98661636862
112 114 8126.6317394923453
114 114 8128.011765151552
115 114 8126.6023032600779
112 115 1254.6274519586996
114 115 8126.6023032600779
115 115 15000.016052605373
116 116 24381.245807944415
117 117 9228.424312319401
118 117 7070.6580683585598
120 117 1091.6052472186086
124 117 2708.7075663019791
126 117 591.40214818540267
135 117 64.561509929956827
117 118 7070.6580683585598
118 118 7709.2849737724764
120 118 5417.9128469266916
124 118 3831.355364249946
126 118 3126.9743762608477
135 118 591.40429036205785
119 119 9228.4062024702544
121 119 4999.7283775733467
122 119 771.88147265945872
125 119 4999.7004561620925
127 119 2708.717377801544
128 119 418.18446937521674
131 119 771.87995794779056
136 119 418.18598414091076
137 119 64.561509927645247
117 120 1091.6052472186086
118 120 5417.9128469266916
120 120 9292.9677122967169
124 120 3830.7048522944006
126 120 5417.8864402438503
135 120 1091.6031050414974
119 121 4999.7283775733467
121 121 5000.5774074881283
122 121 4999.7102675899587
125 121 2708.717377801544
127 121 2709.1773592061431
128 121 2708.7075663031965
131 121 418.18598414091082
136 121 418.25699848074015
137 121 418.18446939037756
119 122 771.88147265945872
121 122 4999.7102675899587
122 122 9228.424312352905
125 122 418.18446937521662
127 122 2708.7075663031965
128 122 4999.7102676058639
131 122 64.561509927645233
136 122 418.18446939037756
137 122 771.88147268989792
123 123 15000.016052676314
129 123 8126.6023033243628
138 123 1254.6274520141094
117 124 2708.7075663019791
118 124 3831.355364249946
120 124 3830.7048522944006
124 124 2709.6472335721569
126 124 3831.3692421840124
135 124 2708.7271892967251
119 125 4999.7004561620925
121 125 2708.717377801544
122 125 418.18446937521662
125 125 5000.5675943432043
127 125 2709.1871723978434
128 125 418.25699846429001
131 125 4999.7185660753439
136 125 2708.7271893166867
137 125 418.1859841228561
117 126 591.40214818540267
118 126 3126.9743762608477
120 126 5417.8864402438503
124 126 3831.3692421840124
126 126 7709.2947835838477
135 126 7070.6698041130176
119 127 2708.717377801544
121 127 2709.1773592061431
122 127 2708.7075663031965
125 127 2709.1871723978434
127 127 2709.6472335817102
128 127 2709.1773591978094
131 127 2708.7271893166867
136 127 2709.1871723874306
137 127 2708.7173777827998
119 128 418.18446937521674
121 128 2708.7075663031965
122 128 4999.7102676058639
125 128 418.25699846429001
127 128 2709.1773591978094
128 128 5000.5774074886531
131 128 418.18598412285598
136 128 2708.7173777827998
137 128 4999.7283775546539
123 129 8126.6023033243628
129 129 8128.0117651908449
138 129 8126.6317395003962
130 130 9228.3880926566453
132 130 7070.6698042444204
133 130 1091.6031050146555
139 130 2708.7271893366478
140 130 591.40429034524118
142 130 64.561509925333652
119 131 771.87995794779056
121 131 418.18598414091082
122 131 64.561509927645233
125 131 4999.7185660753439
127 131 2708.7271893166867
128 131 418.18598412285598
131 131 9228.3880925531503
136 131 4999.7185660561172
137 131 771.87995791149717
130 132 7070.6698042444204
132 132 7709.2947836974836
133 132 5417.8864402902773
139 132 3831.369242225755
140 132 3126.9743762685262
142 132 591.4021481644935
130 133 1091.6031050146555
132 133 5417.8864402902773
133 133 9292.967712429092
139 133 3830.7048523243516
140 133 5417.9128469669031
142 133 1091.6052471834871
134 134 14999.986616662241
141 134 8126.6317395602837
143 134 1254.6274519691881
117 135 64.561509929956827
118 135 591.40429036205785
120 135 1091.6031050414974
124 135 2708.7271892967251
126 135 7070.6698041130176
135 135 9228.3880924496552
119 136 418.18598414091076
121 136 418.25699848074015
122 136 418.18446939037756
125 136 2708.7271893166867
127 136 2709.1871723874306
128 136 2708.7173777827998
131 136 4999.7185660561172
136 136 5000.5675943047536
137 136 4999.7004561082686
119 137 64.561509927645247
121 137 418.18446939037756
122 137 771.88147268989792
125 137 418.1859841228561
127 137 2708.7173777827998
128 137 4999.7283775546539
131 137 771.87995791149717
136 137 4999.7004561082686
137 137 9228.4062024002633
123 138 1254.6274520141094
129 138 8126.6317395003962
138 138 14999.986616494018
130 139 2708.7271893366478
132 139 3831.369242225755
133 139 3830.7048523243516
139 139 2709.6472335912636
140 139 3831.3553642651759
142 139 2708.7075663044138
130 140 591.40429034524118
132 140 3126.9743762685262
133 140 5417.9128469669031
139 140 3831.3553642651759
140 140 7709.2849738106961
142 140 7070.6580683874072
134 141 8126.6317395602837
141 141 8128.0117652195013
143 141 8126.6023033280153
130 142 64.561509925333652
132 142 591.4021481644935
133 142 1091.6052471834871
139 142 2708.7075663044138
140 142 7070.6580683874072
142 142 9228.4243123864089
134 143 1254.6274519691881
141 143 8126.6023033280153
143 143 15000.016052730771
144 144 24381.24580814824
145 145 24824.192057031614
146 146 15280.995592553676
147 146 8274.0905585875098
149 146 1269.1059059387921
146 147 8274.0905585875098
147 147 8275.6585317162062
149 147 8274.4429666842789
148 148 15280.643184260549
150 148 8274.442966673445
151 148 1269.1059059256281
146 149 1269.1059059387921
147 149 8274.4429666842789
149 149 15280.643184270419
148 150 8274.442966673445
150 150 8275.6585317145746
151 150 8274.0905585939454
148 151 1269.1059059256281
150 151 8274.0905585939454
151 151 15280.995592583118
152 152 24824.192056889704
153 153 9406.5025666567726
154 153 7202.9731446949227
156 153 1104.8145646367427
160 153 2757.8168270059696
162 153 598.21598029293
171 153 64.881459053672046
153 154 7202.9731446949227
154 154 7852.0531775026302
156 154 5516.4906629910811
160 154 3900.8810517333814
162 154 3181.0170242370978
171 154 598.24145936565446
155 155 9406.285635142478
157 155 5093.4880867051243
158 155 781.22187060020053
161 155 5093.1536949746769
163 155 2757.9342872806042
164 155 423.00257627490117
167 155 781.20385417316345
172 155 423.02059270383688
173 155 64.881459052999048
153 156 1104.8145646367427
154 156 5516.4906629910811
156 156 9471.1670942022247
160 156 3900.308073211113
162 156 5516.1742876823573
171 156 1104.789085550535
155 157 5093.4880867051243
157 157 5094.2363504956566
158 157 5093.2711553223335
161 157 2757.9342872806042
163 157 2758.3394442822414
164 157 2757.8168270081151
167 157 423.02059270383688
172 157 423.08273695279922
173 157 423.00257627961793
155 158 781.22187060020053
157 158 5093.2711553223335
158 158 9406.5025666748952
161 158 423.00257627490146
163 158 2757.8168270081151
164 158 5093.2711553281833
167 158 64.881459052999091
172 158 423.00257627961793
173 158 781.221870609809
159 159 15280.995592466321
165 159 8274.0905585402106
174 159 1269.1059059315373
153 160 2757.8168270059696
154 160 3900.8810517333814
156 160 3900.308073211113
160 160 2758.8621605986573
162 160 3901.0471971311658
171 160 2758.0517525653013
155 161 5093.1536949746769
157 161 2757.9342872806042
158 161 423.00257627490146
161 161 5094.1188678937651
163 161 2758.4569268166101
164 161 423.08273694849413
167 161 5093.3706213652558
172 161 2758.0517525616901
173 161 423.02059270000285
153 162 598.21598029293
154 162 3181.0170242370978
156 162 5516.1742876823573
160 162 3901.0471971311658
162 162 7852.1706204623561
171 162 7203.1138109320764
155 163 2757.9342872806042
157 163 2758.3394442822414
158 163 2757.8168270081151
161 163 2758.4569268166101
163 163 2758.862160598113
164 163 2758.3394442849312
167 163 2758.0517525616901
172 163 2758.4569268196778
173 163 2757.9342872863608
155 164 423.00257627490117
157 164 2757.8168270081151
158 164 5093.2711553281833
161 164 423.08273694849413
163 164 2758.3394442849312
164 164 5094.2363505064768
167 164 423.02059270000314
172 164 2757.9342872863608
173 164 5093.4880867216061
159 165 8274.0905585402106
165 165 8275.6585316688979
174 165 8274.4429666369761
166 166 9406.0687086310299
168 166 7203.1138109179938
169 166 1104.7890855383616
175 166 2758.051752558079
176 166 598.24145935866591
178 166 64.881459052326051
155 167 781.20385417316345
157 167 423.02059270383688
158 167 64.881459052999091
161 167 5093.3706213652558
163 167 2758.0517525616901
164 167 423.02059270000314
167 167 9406.0687086371054
172 167 5093.3706213618771
173 167 781.20385416556485
166 168 7203.1138109179938
168 168 7852.1706204508391
169 168 5516.1742876780881
175 168 3901.0471971252891
176 168 3181.0170242311606
178 168 598.21598028719029
166 169 1104.7890855383616
168 169 5516.1742876780881
169 169 9471.1670942129258
175 169 3900.3080732090407
176 169 5516.490662990167
178 169 1104.8145646274113
170 170 15280.643184173196
177 170 8274.442966626144
179 170 1269.1059059183733
153 171 64.881459053672046
154 171 598.24145936565446
156 171 1104.789085550535
160 171 2758.0517525653013
162 171 7203.1138109320764
171 171 9406.0687086431808
155 172 423.02059270383688
157 172 423.08273695279922
158 172 423.00257627961793
161 172 2758.0517525616901
163 172 2758.4569268196778
164 172 2757.9342872863608
167 172 5093.3706213618771
172 172 5094.1188678960507
173 172 5093.1536949819292
155 173 64.881459052999048
157 173 423.00257627961793
158 173 781.221870609809
161 173 423.02059270000285
163 173 2757.9342872863608
164 173 5093.4880867216061
167 173 781.20385416556485
172 173 5093.1536949819292
173 173 9406.285635166676
159 174 1269.1059059315373
165 174 8274.4429666369761
174 174 15280.643184183065
166 175 2758.051752558079
168 175 3901.0471971252891
169 175 3900.3080732090407
175 175 2758.8621605975691
176 175 3900.8810517356465
178 175 2757.8168270102606
166 176 598.24145935866591
168 176 3181.0170242311606
169 176 5516.490662990167
175 176 3900.8810517356465
176 176 7852.0531775157324
178 176 7202.973144714404
170 177 8274.442966626144
177 177 8275.6585316672663
179 177 8274.0905585466462
166 178 64.881459052326051
168 178 598.21598028719029
169 178 1104.8145646274113
175 178 2757.8168270102606
176 178 7202.973144714404
178 178 9406.5025666930196
170 179 1269.1059059183733
177 179 8274.0905585466462
179 179 15280.995592495763
180 180 24824.192056747797
181 181 23191.334230685061
182 182 14297.700543519624
183 182 7730.5589518067809
185 182 1163.0747351279313
182 183 7730.5589518067809
183 183 7731.3095582077649
185 183 7729.465720526764
184 184 14298.793774984822
186 184 7729.4657205162093
187 184 1163.0747350932445
182 185 1163.0747351279313
183 185 7729.465720526764
185 185 14298.793774966827
184 186 7729.4657205162093
186 186 7731.309558220416
187 186 7730.5589518477827
184 187 1163.0747350932445
186 187 7730.5589518477827
187 187 14297.700543639245
188 188 23191.334230528435
189 189 8814.6821911473162
190 189 6740.1002487281539
192 189 1014.0586677361821
196 189 2576.8910539131666
198 189 548.28678833106858
207 189 58.329668575217916
189 190 6740.1002487281539
190 190 7343.3244023771485
192 190 5152.9939092780978
196 190 3644.6281216797456
198 190 2964.2615880266871
207 190 548.20925134167885
191 191 8815.3561798000901
193 191 4765.2966032076984
194 191 717.04776045586561
197 191 4766.335007624949
199 191 2576.5266380992402
200 191 387.69730605232934
203 191 717.10258741752784
208 191 387.64247913237222
209 191 58.329668573478322
189 192 1014.0586677361821
190 192 5152.9939092780978
192 192 8873.6858483642136
196 192 3643.758915420477
198 192 5153.9774867518527
207 192 1014.1362047374297
191 193 4765.2966032076984
193 193 4766.4333484717818
194 193 4765.9705917780911
197 193 2576.5266380992393
199 193 2577.1412597471549
200 193 2576.8910539268345
203 193 387.6424791323721
208 193 387.73494992456313
209 193 387.69730606594817
191 194 717.04776045586561
193 194 4765.9705917780911
194 194 8814.6821912210635
197 194 387.69730605232843
199 194 2576.891053926834
200 194 4765.9705917926867
203 194 58.32966857347818
208 194 387.69730606594811
209 194 717.04776048324959
195 195 14297.700543423061
201 195 7730.5589517545704
210 195 1163.0747351200764
189 196 2576.8910539131666
190 196 3644.6281216797456
192 196 3643.758915420477
196 196 2577.3914898676949
198 196 3644.1127098587522
207 196 2576.1622738268852
191 197 4766.335007624949
193 197 2576.5266380992393
194 197 387.69730605232843
197 197 4766.7977997194439
199 197 2576.776808545691
200 197 387.73494991236504
203 197 4765.6609675517984
208 197 2576.1622738233677
209 197 387.64247912134067
189 198 548.28678833106858
190 198 2964.2615880266871
192 198 5153.9774867518527
196 198 3644.1127098587522
198 198 7342.960073540331
207 198 6739.6623739753577
191 199 2576.5266380992402
193 199 2577.1412597471549
194 199 2576.891053926834
197 199 2576.776808545691
199 199 2577.3914898719127
200 199 2577.1412597566068
203 199 2576.1622738233668
208 199 2576.7768085534258
209 199 2576.5266381164242
191 200 387.69730605232934
193 200 2576.8910539268345
194 200 4765.9705917926867
197 200 387.73494991236504
199 200 2577.1412597566068
200 200 4766.4333485038596
203 200 387.64247912133976
208 200 2576.5266381164238
209 200 4765.2966032540735
195 201 7730.5589517545704
201 201 7731.3095581555499
210 201 7729.4657204745617
202 202 8816.0302199874168
204 202 6739.6623739746365
205 202 1014.1362047084608
211 202 2576.1622738198498
212 202 548.2092513245808
214 202 58.329668571738729
191 203 717.10258741752784
193 203 387.6424791323721
194 203 58.32966857347818
197 203 4765.6609675517984
199 203 2576.1622738233668
200 203 387.64247912133976
203 203 8816.030219976321
208 203 4765.6609675392929
209 203 717.10258739523886
202 204 6739.6623739746365
204 204 7342.960073547094
205 204 5153.9774867710403
211 204 3644.1127098597399
212 204 2964.2615880259054
214 204 548.28678831762488
202 205 1014.1362047084608
204 205 5153.9774867710403
205 205 8873.6858484455806
211 205 3643.758915434827
212 205 5152.993909301953
214 205 1014.0586677144234
206 206 14298.793774888252
213 206 7729.4657204640071
215 206 1163.0747350853894
189 207 58.329668575217916
190 207 548.20925134167885
192 207 1014.1362047374297
196 207 2576.1622738268852
198 207 6739.6623739753577
207 207 8816.0302199652269
191 208 387.64247913237222
193 208 387.73494992456313
194 208 387.69730606594811
197 208 2576.1622738233677
199 208 2576.7768085534258
200 208 2576.5266381164238
203 208 4765.6609675392929
208 208 4766.7977997212456
209 208 4766.3350076442312
191 209 58.329668573478322
193 209 387.69730606594817
194 209 717.04776048324959
197 209 387.64247912134067
199 209 2576.5266381164242
200 209 4765.2966032540735
203 209 717.10258739523886
208 209 4766.3350076442312
209 209 8815.3561798627488
195 210 1163.0747351200764
201 210 7729.4657204745617
210 210 14298.793774870257
202 211 2576.1622738198498
204 211 3644.1127098597399
205 211 3643.758915434827
211 211 2577.3914898761304
212 211 3644.6281217050405
214 211 2576.8910539405024
202 212 548.2092513245808
204 212 2964.2615880259054
205 212 5152.993909301953
211 212 3644.6281217050405
212 212 7343.3244024521609
214 212 6740.100248820293
206 213 7729.4657204640071
213 213 7731.3095581682019
215 213 7730.5589517955732
202 214 58.329668571738729
204 214 548.28678831762488
205 214 1014.0586677144234
211 214 2576.8910539405024
212 214 6740.100248820293
214 214 8814.6821912948108
206 215 1163.0747350853894
213 215 7730.5589517955732
215 215 14297.700543542682
216 216 23191.334230371805
217 217 19852.205795451304
218 218 12363.644920862884
219 218 6619.5433303021837
221 218 869.01754418286453
218 219 6619.5433303021837
219 219 6618.0854997686074
221 219 6614.5769654633559
220 220 12368.611286127925
222 220 6614.576965445156
223 220 869.01754408853481
218 221 869.01754418286453
219 221 6614.5769654633559
221 221 12368.611286073399
220 222 6614.576965445156
222 222 6618.0854997956194
223 222 6619.5433303750242
220 223 869.01754408853481
222 223 6619.5433303750242
223 223 12363.644921111034
224 224 19852.205795683167
225 225 7699.8857106451042
226 225 5830.1641463047526
228 225 765.38738033662139
232 225 2207.2284739154952
234 225 409.79136500885136
243 225 38.040684238256809
225 226 5830.1641463047526
226 226 6328.8691630223711
228 226 4409.2218815942824
232 226 3120.8049927751167
234 226 2495.2749207373436
243 226 409.48391578994239
227 227 7702.9786856684805
229 227 4119.4556285134968
230 227 541.2106068118851
233 227 4124.2045940781891
235 227 2205.5724832561241
236 227 289.76625303799705
239 227 541.42800631685031
244 227 289.54885364109276
245 227 38.040684234127582
225 228 765.38738033662139
226 228 4409.2218815942824
228 228 7741.0193698727799
232 228 3119.1505186263003
234 228 4413.753447701898
243 228 765.69482957854007
227 229 4119.4556285134968
229 229 4121.6406891236984
230 229 4122.5486033281331
233 229 2205.5724832561245
235 229 2206.7423731611261
236 229 2207.2284739397833
239 229 289.54885364109282
244 229 289.70243747633339
245 229 289.76625307263896
227 230 541.2106068118851
229 230 4122.5486033281331
230 230 7699.8857107996473
233 230 289.76625303799688
235 230 2207.2284739397833
236 230 4122.5486033655125
239 230 38.040684234127561
244 230 289.76625307263896
245 230 541.21060688149475
231 231 12363.644921007284
237 231 6619.5433303794953
246 231 869.01754419301403
225 232 2207.2284739154952
226 232 3120.8049927751167
228 232 3119.1505186263003
232 232 2206.2563794443386
234 232 3118.4635840990818
243 232 2203.9177350289997
227 233 4124.2045940781891
229 233 2205.5724832561245
230 233 289.76625303799688
233 233 4123.2963152013144
235 233 2205.086747193699
236 233 289.70243744370447
239 233 4121.1103769000338
244 233 2203.9177350229361
245 233 289.54885361045962
225 234 409.79136500885136
226 234 2495.2749207373436
228 234 4413.753447701898
232 234 3118.4635840990818
234 234 6327.2140502121383
243 234 5828.1301870228335
227 235 2205.5724832561241
229 235 2206.7423731611261
230 235 2207.2284739397833
233 235 2205.086747193699
235 235 2206.2563794533435
236 235 2206.7423731764015
239 235 2203.9177350229361
244 235 2205.0867472087662
245 235 2205.5724832864621
227 236 289.76625303799705
229 236 2207.2284739397833
230 236 4122.5486033655125
233 236 289.70243744370447
235 236 2206.7423731764015
236 236 4121.6406891896013
239 236 289.54885361045945
244 236 2205.5724832864621
245 236 4119.4556286075122
231 237 6619.5433303794953
237 237 6618.0854998459017
246 237 6614.5769655406093
238 238 7706.0729031121809
240 238 5828.1301870324905
241 238 765.69482949880125
247 238 2203.917735016872
248 238 409.48391574436727
250 238 38.040684229998362
227 239 541.42800631685031
229 239 289.54885364109282
230 239 38.040684234127561
233 239 4121.1103769000338
235 239 2203.9177350229361
236 239 289.54885361045945
239 239 7706.0729030782086
244 239 4121.1103768705279
245 239 541.42800625569282
238 240 5828.1301870324905
240 240 6327.2140502350157
241 240 4413.7534477332338
247 240 3118.4635841032291
248 240 2495.2749207252805
250 240 409.79136496887872
238 241 765.69482949880125
240 241 4413.7534477332338
241 241 7741.0193700530835
247 241 3119.150518652039
248 241 4409.2218816373634
250 241 765.38738026890246
242 242 12368.611286272382
249 242 6614.5769655224103
251 242 869.01754409868431
225 243 38.040684238256809
226 243 409.48391578994239
228 243 765.69482957854007
232 243 2203.9177350289997
234 243 5828.1301870228335
243 243 7706.0729030442371
227 244 289.54885364109276
229 244 289.70243747633339
230 244 289.76625307263896
233 244 2203.9177350229361
235 244 2205.0867472087662
236 244 2205.5724832864621
239 244 4121.1103768705279
244 244 4123.2963151999666
245 244 4124.2045941053893
227 245 38.040684234127582
229 245 289.76625307263896
230 245 541.21060688149475
233 245 289.54885361045962
235 245 2205.5724832864621
236 245 4119.4556286075122
239 245 541.42800625569282
244 245 4124.2045941053893
245 245 7702.9786857891277
231 246 869.01754419301403
237 246 6614.5769655406093
246 246 12368.611286217856
238 247 2203.917735016872
240 247 3118.4635841032291
241 247 3119.150518652039
247 247 2206.2563794623484
248 247 3120.8049928221944
250 247 2207.2284739640709
238 248 409.48391574436727
240 248 2495.2749207252805
241 248 4409.2218816373634
247 248 3120.8049928221944
248 248 6328.8691631704942
250 248 5830.1641464859231
242 249 6614.5769655224103
249 249 6618.0854998729137
251 249 6619.5433304523358
238 250 38.040684229998362
240 250 409.79136496887872
241 250 765.38738026890246
247 250 2207.2284739640709
248 250 5830.1641464859231
250 250 7699.8857109541905
242 251 869.01754409868431
249 251 6619.5433304523358
251 251 12363.644921255433
252 252 19852.205795915026
253 253 24823.814395453548
254 254 15280.328052041456
255 254 8274.2873732387579
256 254 -5.0825691820675153e-17
257 254 1269.1989700578692
258 254 -3.8161470807665526e-18
259 254 5.6564944960322441e-18
254 255 8274.2873732387579
255 255 8275.5326623429391
256 255 1.9407503182072404e-15
257 255 8273.9943598261489
258 255 1.4571741959671365e-16
259 255 -2.1599004558257913e-16
254 256 -5.0825691820675153e-17
255 256 1.9407503182072404e-15
256 256 15280.621065522588
257 256 1.421990794472927e-15
258 256 8273.9943597971578
259 256 1269.1989700665079
254 257 1269.1989700578692
255 257 8273.9943598261489
256 257 1.421990794472927e-15
257 257 15280.621065592451
258 257 1.0676738131481105e-16
259 257 -1.5825624431685306e-16
254 258 -3.8161470807665526e-18
255 258 1.4571741959671365e-16
256 258 8273.9943597971578
257 258 1.0676738131481105e-16
258 258 8275.5326623138117
259 258 8274.2873732136031
254 259 5.6564944960322441e-18
255 259 -2.1599004558257913e-16
256 259 1269.1989700665079
257 259 -1.5825624431685306e-16
258 259 8274.2873732136031
259 259 15280.328051982975
260 260 24823.814395232963
261 261 9405.8238455397022
262 261 7202.93939761816
263 261 -4.4244822727620822e-17
264 261 1104.8641233339026
265 261 -3.3220354714849198e-18
266 261 4.9240962055120134e-18
268 261 2757.9899867234008
269 261 -2.395854177865336e-17
270 261 598.28318042068793
271 261 -1.79887997571416e-18
272 261 2.6663947867559213e-18
274 261 1.0406341700345086e-37
275 261 -3.6750181831855791e-18
276 261 1.104981192262408e-38
277 261 -1.637861408370023e-38
279 261 64.891962207510275
280 261 -2.7593151040637129e-19
281 261 4.0900023947242172e-19
283 261 5.866535380119045e-40
284 261 -1.2297560167609796e-39
286 261 1.2889207707540859e-39
261 262 7202.93939761816
262 262 7852.0038184232617
263 262 1.1776898861520689e-15
264 262 5516.1170217272393
265 262 8.8424528227696983e-17
266 262 -1.3106749992812102e-16
268 262 3900.9738565068892
269 262 6.2994815908178104e-16
270 262 3181.0060827697907
271 262 4.729841822511872e-17
272 262 -7.010821037526527e-17
274 262 -5.6195229248488987e-36
275 262 8.2286581143781754e-17
276 262 -5.9670029298008946e-37
277 262 8.8446064881341807e-37
279 262 598.26199370230438
280 262 6.1783260624606307e-18
281 262 -9.15784078216634e-18
283 262 -3.1679845816457665e-38
284 262 6.6407987813162711e-38
286 262 -6.9602940477414874e-38
261 263 -4.4244822727620822e-17
262 263 1.1776898861520689e-15
263 263 9406.0042103315118
264 263 8.7270947025712885e-16
265 263 5093.0669277640709
266 263 781.2569139044499
268 263 9.148433777302457e-16
269 263 5093.3449599451233
270 263 5.7320597688580151e-16
271 263 2757.8923193230012
272 263 423.05009394820252
274 263 -4.424567116029093e-17
275 263 781.27189517487591
276 263 -1.9289726280593845e-17
277 263 8.832983075064942e-19
279 263 1.0281890592750807e-16
280 263 423.03511267160076
281 263 64.891962207951948
283 263 -1.7988162728248442e-18
284 263 1.6902460251857808e-18
286 263 4.0900023947520555e-19
261 264 1104.8641233339026
262 264 5516.1170217272393
263 264 8.7270947025712885e-16
264 264 9470.8961725820263
265 264 6.5525673689418334e-17
266 264 -9.7125609869954149e-17
268 264 3900.2487215648448
269 264 4.5703810088867407e-16
270 264 5516.3800726414929
271 264 3.4315806672339155e-17
272 264 -5.0864698729050745e-17
274 264 -4.1174332388342864e-36
275 264 4.1417531499787811e-17
276 264 -4.3720323820983884e-37
277 264 6.4804570113275718e-37
279 264 1104.8853100622923
280 264 3.1097538717868727e-18
281 264 -4.6094412210745997e-18
283 264 -2.3211872593140813e-38
284 264 4.8657236566637729e-38
286 264 -5.0998183382269644e-38
261 265 -3.3220354714849198e-18
262 265 8.8424528227696983e-17
263 265 5093.0669277640709
264 265 6.5525673689418334e-17
265 265 5094.0138316819312
266 265 5093.2472925160628
268 265 6.8689215241833057e-17
269 265 2757.8923193230012
270 265 4.3038043104055059e-17
271 265 2758.4050671577502
272 265 2757.9899867150161
274 265 -2.3957693346097711e-17
275 265 423.03511267160076
276 265 -1.8215752219445228e-17
277 265 -1.5055888291636992e-17
279 265 7.7199552755212662e-18
280 265 423.11376343563728
281 265 423.05009394403697
283 265 -1.7991507090689788e-18
284 265 6.1370936427020893e-19
286 265 2.6663947867478151e-18
261 266 4.9240962055120134e-18
262 266 -1.3106749992812102e-16
263 266 781.2569139044499
264 266 -9.7125609869954149e-17
265 266 5093.2472925160628
266 266 9405.8238455037044
268 266 -1.0181477802843067e-16
269 266 423.05009394820138
270 266 -6.3793257645907309e-17
271 266 2757.9899867150161
272 266 5093.2472925120537
274 266 -3.6750181832105823e-18
275 266 64.891962207951778
276 266 -1.713636040112821e-17
277 266 -3.099660734013778e-17
279 266 -1.1442924919135293e-17
280 266 423.05009394403692
281 266 781.25691389614235
283 266 -1.7988799757086915e-18
284 266 -4.6360797419040821e-19
286 266 4.9240962054931685e-18
267 267 15280.328051905673
273 267 8274.2873731652307
278 267 -5.0825691820223512e-17
282 267 1269.1989700465911
285 267 -3.8161470807326423e-18
287 267 5.6564944959819796e-18
261 268 2757.9899867234008
262 268 3900.9738565068892
263 268 9.148433777302457e-16
264 268 3900.2487215648448
265 268 6.8689215241833057e-17
266 268 -1.0181477802843067e-16
268 268 2758.8202100825688
269 268 9.1498106263747887e-16
270 268 3900.8357131707166
271 268 6.8699553042224523e-17
272 268 -1.0183010126146603e-16
274 268 1.5172977599733783e-34
275 268 9.1481098081580227e-16
276 268 1.6111190042679501e-35
277 268 -2.3880855709212826e-35
279 268 2757.7946554005766
280 268 6.8686782783246585e-17
281 268 -1.0181117251000735e-16
283 268 8.553708159296609e-37
284 268 -1.793047070023125e-36
286 268 1.8793123025972467e-36
261 269 -2.395854177865336e-17
262 269 6.2994815908178104e-16
263 269 5093.3449599451233
264 269 4.5703810088867407e-16
265 269 2757.8923193230012
266 269 423.05009394820138
268 269 9.1498106263747887e-16
269 269 5094.1115138124887
270 269 1.1209191306628974e-15
271 269 2758.3073850680112
272 269 423.11376344000644
274 269 1.6894959479665551e-15
275 269 5093.1645917368432
276 269 7.3656729650193254e-16
277 269 -3.3728246679149629e-17
279 269 6.7028343687428952e-16
280 269 2757.7946553909137
281 269 423.0351126759623
283 269 6.8686782783005921e-17
284 269 -6.4541089234988416e-17
286 269 -1.5617442999281909e-17
261 270 598.28318042068793
262 270 3181.0060827697907
263 270 5.7320597688580151e-16
264 270 5516.3800726414929
265 270 4.3038043104055059e-17
266 270 -6.3793257645907309e-17
268 270 3900.8357131707166
269 270 1.1209191306628974e-15
270 270 7851.9061692363557
271 270 8.4162007737126292e-17
272 270 -1.2474936721891651e-16
274 270 1.5722186127162807e-34
275 270 1.6686160051306427e-15
276 270 1.6694358567137279e-35
277 270 -2.4745258856953048e-35
279 270 7202.8224410656039
280 270 1.2528475007028139e-16
281 270 -1.8570366503451643e-16
283 270 8.8633223685936578e-37
284 270 -1.8579490798274133e-36
286 270 1.9473368110040076e-36
261 271 -1.79887997571416e-18
262 271 4.729841822511872e-17
263 271 2757.8923193230012
264 271 3.4315806672339155e-17
265 271 2758.4050671577502
266 271 2757.9899867150161
268 271 6.8699553042224523e-17
269 271 2758.3073850680112
270 271 8.4162007737126292e-17
271 271 2758.8202100728581
272 271 2758.4050671590735
274 271 9.1481098081259693e-16
275 271 2757.7946553909137
276 271 6.9555820392970807e-16
277 271 5.7490058563256875e-16
279 271 5.0326913206414517e-17
280 271 2758.3073850679671
281 271 2757.8923193242799
283 271 6.8699553041982713e-17
284 271 -2.343414523890719e-17
286 271 -1.0181477802812115e-16
261 272 2.6663947867559213e-18
262 272 -7.010821037526527e-17
263 272 423.05009394820252
264 272 -5.0864698729050745e-17
265 272 2757.9899867150161
266 272 5093.2472925120537
268 272 -1.0183010126146603e-16
269 272 423.11376344000644
270 272 -1.2474936721891651e-16
271 272 2758.4050671590735
272 272 5094.0138316803659
274 272 1.4032849240198675e-16
275 272 423.03511267596122
276 272 6.5434223736183505e-16
277 272 1.1835879336569372e-15
279 272 -7.4597205382638022e-17
280 272 2757.8923193242795
281 272 5093.0669277624247
283 272 6.8689215241624157e-17
284 272 1.7702608488034314e-17
286 272 -1.8802383077071974e-16
267 273 8274.2873731652307
273 273 8275.5326622694029
278 273 1.9407503181899947e-15
282 273 8273.9943597526253
285 273 1.4571741959541881e-16
287 273 -2.1599004558065981e-16
261 274 1.0406341700345086e-37
262 274 -5.6195229248488987e-36
263 274 -4.424567116029093e-17
264 274 -4.1174332388342864e-36
265 274 -2.3957693346097711e-17
266 274 -3.6750181832105823e-18
268 274 1.5172977599733783e-34
269 274 1.6894959479665551e-15
270 274 1.5722186127162807e-34
271 274 9.1481098081259693e-16
272 274 1.4032849240198675e-16
274 274 9406.1845785819714
275 274 1.2378963243077057e-15
276 274 7202.8224410074354
277 274 1104.8853100647609
279 274 8.1456370376994331e-35
280 274 6.7028343687194098e-16
281 274 1.0281890592820788e-16
283 274 2757.7946553812508
284 274 598.26199370428014
286 274 64.891962208393622
261 275 -3.6750181831855791e-18
262 275 8.2286581143781754e-17
263 275 781.27189517487591
264 275 4.1417531499787811e-17
265 275 423.03511267160076
266 275 64.891962207951778
268 275 9.1481098081580227e-16
269 275 5093.1645917368432
270 275 1.6686160051306427e-15
271 275 2757.7946553909137
272 275 423.03511267596122
274 275 1.2378963243077057e-15
275 275 9406.1845786249778
276 275 5.3968401051356323e-16
277 275 -2.4712739109978282e-17
279 275 1.2378963243133651e-15
280 275 5093.1645917422838
281 275 781.27189518376554
283 275 5.0326913206238132e-17
284 275 -4.7289357057629033e-17
286 275 -1.1442924919213175e-17
261 276 1.104981192262408e-38
262 276 -5.9670029298008946e-37
263 276 -1.9289726280593845e-17
264 276 -4.3720323820983884e-37
265 276 -1.8215752219445228e-17
266 276 -1.713636040112821e-17
268 276 1.6111190042679501e-35
269 276 7.3656729650193254e-16
270 276 1.6694358567137279e-35
271 276 6.9555820392970807e-16
272 276 6.5434223736183505e-16
274 276 7202.8224410074354
275 276 5.3968401051356323e-16
276 276 7851.9061691758088
277 276 5516.3800726041191
279 276 8.6493178725424125e-36
280 276 5.0963658422677625e-16
281 276 4.7943758103972114e-16
283 276 3900.835713143319
284 276 3181.0060827531343
286 276 598.2831804229412
261 277 -1.637861408370023e-38
262 277 8.8446064881341807e-37
263 277 8.832983075064942e-19
264 277 6.4804570113275718e-37
265 277 -1.5055888291636992e-17
266 277 -3.099660734013778e-17
268 277 -2.3880855709212826e-35
269 277 -3.3728246679149629e-17
270 277 -2.4745258856953048e-35
271 277 5.7490058563256875e-16
272 277 1.1835879336569372e-15
274 277 1104.8853100647609
275 277 -2.4712739109978282e-17
276 277 5516.3800726041191
277 277 9470.896172503908
279 277 -1.2820475182164181e-35
280 277 4.2123055853046183e-16
281 277 8.6721673072510913e-16
283 277 3900.2487215393217
284 277 5516.1170216914961
286 277 1104.8641233371941
267 278 -5.0825691820223512e-17
273 278 1.9407503181899947e-15
278 278 15280.621065386802
282 278 1.4219907944602911e-15
285 278 8273.9943597236343
287 278 1269.1989700552297
261 279 64.891962207510275
262 279 598.26199370230438
263 279 1.0281890592750807e-16
264 279 1104.8853100622923
265 279 7.7199552755212662e-18
266 279 -1.1442924919135293e-17
268 279 2757.7946554005766
269 279 6.7028343687428952e-16
270 279 7202.8224410656039
271 279 5.0326913206414517e-17
272 279 -7.4597205382638022e-17
274 279 8.1456370376994331e-35
275 279 1.2378963243133651e-15
276 279 8.6493178725424125e-36
277 279 -1.2820475182164181e-35
279 279 9406.1845786679824
280 279 9.2945010192669278e-17
281 279 -1.3776799674155704e-16
283 279 4.5920717627144706e-37
284 279 -9.6260015728059246e-37
286 279 1.0089117839143797e-36
261 280 -2.7593151040637129e-19
262 280 6.1783260624606307e-18
263 280 423.03511267160076
264 280 3.1097538717868727e-18
265 280 423.11376343563728
266 280 423.05009394403692
268 280 6.8686782783246585e-17
269 280 2757.7946553909137
270 280 1.2528475007028139e-16
271 280 2758.3073850679671
272 280 2757.8923193242795
274 280 6.7028343687194098e-16
275 280 5093.1645917422838
276 280 5.0963658422677625e-16
277 280 4.2123055853046183e-16
279 280 9.2945010192669278e-17
280 280 5094.1115138178484
281 280 5093.3449599529267
283 280 5.0336269994969627e-17
284 280 -1.7170234879492632e-17
286 280 -7.4599847151400847e-17
261 281 4.0900023947242172e-19
262 281 -9.15784078216634e-18
263 281 64.891962207951948
264 281 -4.6094412210745997e-18
265 281 423.05009394403697
266 281 781.25691389614235
268 281 -1.0181117251000735e-16
269 281 423.0351126759623
270 281 -1.8570366503451643e-16
271 281 2757.8923193242799
272 281 5093.0669277624247
274 281 1.0281890592820788e-16
275 281 781.27189518376554
276 281 4.7943758103972114e-16
277 281 8.6721673072510913e-16
279 281 -1.3776799674155704e-16
280 281 5093.3449599529267
281 281 9406.0042103385185
283 281 5.0328695472473322e-17
284 281 1.2970728935082721e-17
286 281 -1.3776535497079247e-16
267 282 1269.1989700465911
273 282 8273.9943597526253
278 282 1.4219907944602911e-15
282 282 15280.621065456666
285 282 1.0676738131386231e-16
287 282 -1.5825624431544679e-16
261 283 5.866535380119045e-40
262 283 -3.1679845816457665e-38
263 283 -1.7988162728248442e-18
264 283 -2.3211872593140813e-38
265 283 -1.7991507090689788e-18
266 283 -1.7988799757086915e-18
268 283 8.553708159296609e-37
269 283 6.8686782783005921e-17
270 283 8.8633223685936578e-37
271 283 6.8699553041982713e-17
272 283 6.8689215241624157e-17
274 283 2757.7946553812508
275 283 5.0326913206238132e-17
276 283 3900.835713143319
277 283 3900.2487215393217
279 283 4.5920717627144706e-37
280 283 5.0336269994969627e-17
281 283 5.0328695472473322e-17
283 283 2758.8202100631479
284 283 3900.9738564812992
286 283 2757.989986706632
261 284 -1.2297560167609796e-39
262 284 6.6407987813162711e-38
263 284 1.6902460251857808e-18
264 284 4.8657236566637729e-38
265 284 6.1370936427020893e-19
266 284 -4.6360797419040821e-19
268 284 -1.793047070023125e-36
269 284 -6.4541089234988416e-17
270 284 -1.8579490798274133e-36
271 284 -2.343414523890719e-17
272 284 1.7702608488034314e-17
274 284 598.26199370428014
275 284 -4.7289357057629033e-17
276 284 3181.0060827531343
277 284 5516.1170216914961
279 284 -9.6260015728059246e-37
280 284 -1.7170234879492632e-17
281 284 1.2970728935082721e-17
283 284 3900.9738564812992
284 284 7852.0038183690667
286 284 7202.9393975686962
267 285 -3.8161470807326423e-18
273 285 1.4571741959541881e-16
278 285 8273.9943597236343
282 285 1.0676738131386231e-16
285 285 8275.5326622402736
287 285 8274.2873731400778
261 286 1.2889207707540859e-39
262 286 -6.9602940477414874e-38
263 286 4.0900023947520555e-19
264 286 -5.0998183382269644e-38
265 286 2.6663947867478151e-18
266 286 4.9240962054931685e-18
268 286 1.8793123025972467e-36
269 286 -1.5617442999281909e-17
270 286 1.9473368110040076e-36
271 286 -1.0181477802812115e-16
272 286 -1.8802383077071974e-16
274 286 64.891962208393622
275 286 -1.1442924919213175e-17
276 286 598.2831804229412
277 286 1104.8641233371941
279 286 1.0089117839143797e-36
280 286 -7.4599847151400847e-17
281 286 -1.3776535497079247e-16
283 286 2757.989986706632
284 286 7202.9393975686962
286 286 9405.8238454677066
267 287 5.6564944959819796e-18
273 287 -2.1599004558065981e-16
278 287 1269.1989700552297
282 287 -1.5825624431544679e-16
285 287 8274.2873731400778
287 287 15280.328051847193
288 288 24823.814395012374
289 289 22457.36648868406
290 290 13870.249057339568
291 290 7486.0900122582352
293 290 1101.0274189630986
290 291 7486.0900122582352
291 291 7486.5836247948755
293 291 7484.6928515894588
292 292 13871.646218204291
294 292 7484.6928516153048
295 292 1101.0274189749614
290 293 1101.0274189630986
291 293 7484.6928515894588
293 293 13871.646218161908
292 294 7484.6928516153048
294 294 7486.583624817441
295 294 7486.0900122847597
292 295 1101.0274189749614
294 295 7486.0900122847597
295 295 13870.249057381112
296 296 22457.366488778476
297 297 8566.6237405695756
298 297 6538.7611795964958
300 297 961.69767301735885
304 297 2495.4637356910712
306 297 519.05018540226945
315 297 53.980567041083717
297 298 6538.7611795964958
298 298 7119.3709741838202
300 298 4989.7633540432435
304 298 3529.351359967442
306 298 2862.0461031685199
315 298 518.95331286894725
299 299 8567.486663173464
301 299 4622.739448185127
302 299 680.02294604922417
305 299 4624.068109678029
307 299 2494.9979967390072
308 299 367.02390587803387
311 299 680.09144527672697
316 299 366.95540665012373
317 299 53.980567041665324
297 300 961.69767301735885
298 300 4989.7633540432435
300 300 8621.4672301883693
304 300 3528.4600050698227
306 300 4991.0235163127563
315 300 961.79454556132828
299 301 4622.739448185127
301 301 4623.9072385066856
302 301 4623.6023706684127
305 301 2494.9979967390072
307 301 2495.6282798304642
308 301 2495.4637356999133
311 301 366.95540665012379
316 301 367.04810643923486
317 301 367.0239058753798
299 302 680.02294604922417
301 302 4623.6023706684127
302 302 8566.6237405952343
305 302 367.02390587803444
307 302 2495.4637356999137
308 302 4623.6023706658789
311 302 53.980567041665417
316 302 367.02390587537985
317 302 680.02294604393421
303 303 13870.249057397883
309 303 7486.0900122897092
318 303 1101.0274189677277
297 304 2495.4637356910712
298 304 3529.351359967442
300 304 3528.4600050698227
304 304 2495.7928348054079
306 304 3528.6926621828356
315 304 2494.5323446925454
299 305 4624.068109678029
301 305 2494.9979967390072
302 305 367.02390587803444
305 305 4624.3730082283191
307 305 2495.1625101613104
308 305 367.04810644208322
311 305 4623.2051002723165
316 305 2494.5323447011592
317 305 366.95540665281027
297 306 519.05018540226945
298 306 2862.0461031685199
300 306 4991.0235163127563
304 306 3528.6926621828356
306 306 7118.9053529067342
315 306 6538.1993544175984
299 307 2494.9979967390072
301 307 2495.6282798304642
302 307 2495.4637356999137
305 307 2495.1625101613104
307 307 2495.7928348129303
308 307 2495.6282798317843
311 307 2494.5323447011597
316 307 2495.1625101602149
317 307 2494.9979967392314
299 308 367.02390587803387
301 308 2495.4637356999133
302 308 4623.6023706658789
305 308 367.04810644208322
307 308 2495.6282798317843
308 308 4623.9072385065983
311 308 366.95540665281089
316 308 2494.9979967392319
317 308 4622.7394481830106
303 309 7486.0900122897092
309 309 7486.5836248263513
318 309 7484.6928516209264
310 310 8568.3496727002093
312 310 6538.1993544601528
313 310 961.79454557462975
319 310 2494.5323447097735
320 310 518.95331287633064
322 310 53.980567042246925
299 311 680.09144527672697
301 311 366.95540665012379
302 311 53.980567041665417
305 311 4623.2051002723165
307 311 2494.5323447011597
308 311 366.95540665281089
311 311 8568.3496726740304
316 311 4623.2051002741555
317 311 680.09144528197658
310 312 6538.1993544601528
312 312 7118.9053529520315
313 312 4991.0235163484904
319 312 3528.6926622056567
320 312 2862.0461031910368
322 312 519.05018540970093
310 313 961.79454557462975
312 313 4991.0235163484904
313 313 8621.467230241371
319 313 3528.4600050945091
320 313 4989.7633540783072
322 313 961.69767303060098
314 314 13871.646218262613
321 314 7484.6928516467724
323 314 1101.0274189795905
297 315 53.980567041083717
298 315 518.95331286894725
300 315 961.79454556132828
304 315 2494.5323446925454
306 315 6538.1993544175984
315 315 8568.3496726478497
299 316 366.95540665012373
301 316 367.04810643923486
302 316 367.02390587537985
305 316 2494.5323447011592
307 316 2495.1625101602149
308 316 2494.9979967392319
311 316 4623.2051002741555
316 316 4624.3730082281281
317 316 4624.0681096802837
299 317 53.980567041665324
301 317 367.0239058753798
302 317 680.02294604393421
305 317 366.95540665281027
307 317 2494.9979967392314
308 317 4622.7394481830106
311 317 680.09144528197658
316 317 4624.0681096802837
317 317 8567.4866631729474
303 318 1101.0274189677277
309 318 7484.6928516209264
318 318 13871.646218220229
310 319 2494.5323447097735
312 319 3528.6926622056567
313 319 3528.4600050945091
319 319 2495.7928348204528
320 319 3529.3513599905855
322 319 2495.4637357087549
310 320 518.95331287633064
312 320 2862.0461031910368
313 320 4989.7633540783072
319 320 3529.3513599905855
320 320 7119.3709742292904
322 320 6538.7611796392493
314 321 7484.6928516467724
321 321 7486.5836248489168
323 321 7486.0900123162337
310 322 53.980567042246925
312 322 519.05018540970093
313 322 961.69767303060098
319 322 2495.4637357087549
320 322 6538.7611796392493
322 322 8566.6237406208929
314 323 1101.0274189795905
321 323 7486.0900123162337
323 323 13870.249057439427
324 324 22457.366488872896
325 325 17824.127453141646
326 326 11138.524758400672
327 326 5941.0568089904809
329 326 744.54588541930741
326 327 5941.0568089904809
327 327 5941.9719308273507
329 327 5941.0987128793895
328 328 11138.482854295924
330 328 5941.0987128590341
331 328 744.54588537206519
326 329 744.54588541930741
327 329 5941.0987128793895
329 329 11138.482854287
328 330 5941.0987128590341
330 330 5941.9719307645173
331 330 5941.0568088783875
328 331 744.54588537206519
330 331 5941.0568088783875
331 331 11138.524758228663
332 332 17824.127452529116
333 333 6960.6062972602613
334 333 5250.4689988693326
336 333 657.99995107167717
340 333 1980.2459391319546
342 333 350.96345112325702
351 333 31.101021744385196
333 334 5250.4689988693326
334 334 5693.4600439593487
336 334 3960.8370560231901
340 334 2800.922033362513
342 334 2228.4667688690492
351 334 350.96592656389663
335 335 6960.5801108503274
337 335 3712.6684197725817
338 335 465.27622739367717
341 335 3712.6282662253143
343 335 1980.2599063381613
344 335 248.16863622214188
347 335 465.27447701332085
352 335 248.17038663790083
353 335 31.101021742411806
333 336 657.99995107167717
334 336 3960.8370560231901
336 336 6991.6811325891358
340 336 2800.5104165766979
342 336 3960.7986528610904
351 336 657.99747561775996
335 337 3712.6684197725817
337 337 3713.2141047881287
338 337 3712.6422334401991
341 337 1980.259906338162
343 337 1980.5509633445026
344 337 1980.2459390945921
347 337 248.17038663790092
352 337 248.20686252147866
353 337 248.16863623320612
335 338 465.27622739367717
337 338 3712.6422334401991
338 338 6960.6062971527708
341 338 248.16863622214223
343 338 1980.2459390945924
344 338 3712.6422334529148
347 338 31.101021742411845
352 338 248.16863623320614
353 338 465.27622741601431
339 339 11138.524758017893
345 339 5941.0568087863148
354 339 744.54588539372082
333 340 1980.2459391319546
334 340 2800.922033362513
336 340 2800.5104165766979
340 340 1980.8560345838912
342 340 2800.9417890271202
351 340 1980.2738736564522
335 341 3712.6282662253143
337 341 1980.259906338162
338 341 248.16863622214223
341 341 3713.2001353910309
343 341 1980.5649327230708
344 341 248.20686250835436
347 341 3712.6544524018532
352 341 1980.2738736496674
353 341 248.17038662300448
333 342 350.96345112325702
334 342 2228.4667688690492
336 342 3960.7986528610904
340 342 2800.9417890271202
342 342 5693.4740090445084
351 342 5250.4862789873505
335 343 1980.2599063381613
337 343 1980.5509633445026
338 343 1980.2459390945924
341 343 1980.5649327230708
343 343 1980.8560345629444
344 343 1980.5509633280781
347 343 1980.2738736496681
352 343 1980.5649327089129
353 343 1980.2599063075834
335 344 248.16863622214188
337 344 1980.2459390945921
338 344 3712.6422334529148
341 344 248.20686250835436
343 344 1980.5509633280781
344 344 3713.2141047700525
347 344 248.17038662300479
352 344 1980.2599063075838
353 344 3712.6684197279687
339 345 5941.0568087863148
345 345 5941.9719306231536
354 345 5941.0987126752225
346 346 6960.5539245389091
348 346 5250.4862789735689
349 346 657.99747557653654
355 346 1980.2738736428826
356 346 350.96592654042496
358 346 31.101021740438412
335 347 465.27447701332085
337 347 248.17038663790092
338 347 31.101021742411845
341 347 3712.6544524018532
343 347 1980.2738736496681
344 347 248.17038662300479
347 347 6960.5539245333321
352 347 3712.654452386158
353 347 465.27447698342587
346 348 5250.4862789735689
348 348 5693.474008994649
349 348 3960.7986527774201
355 348 2800.9417889879046
356 348 2228.4667688065283
358 348 350.96345109436623
346 349 657.99747557653654
348 349 3960.7986527774201
349 349 6991.6811324832761
355 349 2800.5104165142643
356 349 3960.8370559327077
358 349 657.99995101976526
350 350 11138.482853913149
357 350 5941.0987126548671
359 350 744.5458853464786
333 351 31.101021744385196
334 351 350.96592656389663
336 351 657.99747561775996
340 351 1980.2738736564522
342 351 5250.4862789873505
351 351 6960.553924527755
335 352 248.17038663790083
337 352 248.20686252147866
338 352 248.16863623320614
341 352 1980.2738736496674
343 352 1980.5649327089129
344 352 1980.2599063075838
347 352 3712.654452386158
352 352 3713.2001353487899
353 352 3712.6282661522914
335 353 31.101021742411806
337 353 248.16863623320612
338 353 465.27622741601431
341 353 248.17038662300448
343 353 1980.2599063075834
344 353 3712.6684197279687
347 353 465.27447698342587
352 353 3712.6282661522914
353 353 6960.5801107372599
339 354 744.54588539372082
345 354 5941.0987126752225
354 354 11138.482853904223
346 355 1980.2738736428826
348 355 2800.9417889879046
349 355 2800.5104165142643
355 355 1980.8560345419976
356 355 2800.9220332800478
358 355 1980.2459390572296
346 356 350.96592654042496
348 356 2228.4667688065283
349 356 3960.8370559327077
355 356 2800.9220332800478
356 356 5693.4600437880172
358 356 5250.4689986891881
350 357 5941.0987126548671
357 357 5941.9719305603194
359 357 5941.0568086742214
346 358 31.101021740438412
348 358 350.96345109436623
349 358 657.99995101976526
355 358 1980.2459390572296
356 358 5250.4689986891881
358 358 6960.6062970452804
350 359 744.5458853464786
357 359 5941.0568086742214
359 359 11138.524757845886
360 360 17824.127451916585
