%%MatrixMarket matrix coordinate real general
101 360 7236
81 1 -1
82 1 -0
83 1 -0
84 1 -0
85 1 -0
86 1 -0
87 1 -0
88 1 -0
89 1 -0
90 1 -0
91 1 1
92 1 0
93 1 0
94 1 0
95 1 0
96 1 0
97 1 0
98 1 0
99 1 0
100 1 0
81 2 -0
82 2 -0
83 2 -0
84 2 -0
85 2 -0
86 2 -0
87 2 -0
88 2 -0
89 2 -0
90 2 -0
91 2 0
92 2 1
93 2 0
94 2 0
95 2 0
96 2 0
97 2 0
98 2 0
99 2 0
100 2 0
81 3 -0
82 3 -1
83 3 -0
84 3 -0
85 3 -0
86 3 -0
87 3 -0
88 3 -0
89 3 -0
90 3 -0
91 3 0
92 3 0
93 3 1
94 3 0
95 3 0
96 3 0
97 3 0
98 3 0
99 3 0
100 3 0
81 4 -0
82 4 -0
83 4 -0
84 4 -0
85 4 -0
86 4 -0
87 4 -0
88 4 -0
89 4 -0
90 4 -0
91 4 0
92 4 0
93 4 0
94 4 1
95 4 0
96 4 0
97 4 0
98 4 0
99 4 0
100 4 0
81 5 -0
82 5 -0
83 5 -1
84 5 -0
85 5 -0
86 5 -0
87 5 -0
88 5 -0
89 5 -0
90 5 -0
91 5 0
92 5 0
93 5 0
94 5 0
95 5 0
96 5 0
97 5 0
98 5 0
99 5 0
100 5 0
81 6 -0
82 6 -0
83 6 -0
84 6 -0
85 6 -0
86 6 -0
87 6 -0
88 6 -0
89 6 -0
90 6 -0
91 6 0
92 6 0
93 6 0
94 6 0
95 6 0
96 6 0
97 6 0
98 6 0
99 6 0
100 6 0
81 7 -0
82 7 -0
83 7 -0
84 7 -1
85 7 -0
86 7 -0
87 7 -0
88 7 -0
89 7 -0
90 7 -0
91 7 0
92 7 0
93 7 0
94 7 0
95 7 0
96 7 0
97 7 0
98 7 0
99 7 0
100 7 0
81 8 -0
82 8 -0
83 8 -0
84 8 -0
85 8 -0
86 8 -0
87 8 -0
88 8 -0
89 8 -0
90 8 -0
91 8 0
92 8 0
93 8 0
94 8 0
95 8 0
96 8 0
97 8 0
98 8 0
99 8 0
100 8 0
81 9 -1
82 9 -0
83 9 -0
84 9 -0
85 9 -0
86 9 -0
87 9 -0
88 9 -0
89 9 -0
90 9 -0
91 9 0
92 9 0
93 9 0
94 9 0
95 9 1
96 9 0
97 9 0
98 9 0
99 9 0
100 9 0
81 10 -0
82 10 -0
83 10 -0
84 10 -0
85 10 -0
86 10 -0
87 10 -0
88 10 -0
89 10 -0
90 10 -0
91 10 0
92 10 0
93 10 0
94 10 0
95 10 0
96 10 1
97 10 0
98 10 0
99 10 0
100 10 0
81 11 -0
82 11 -1
83 11 -0
84 11 -0
85 11 -0
86 11 -0
87 11 -0
88 11 -0
89 11 -0
90 11 -0
91 11 0
92 11 0
93 11 0
94 11 0
95 11 0
96 11 0
97 11 1
98 11 0
99 11 0
100 11 0
81 12 -0
82 12 -0
83 12 -0
84 12 -0
85 12 -0
86 12 -0
87 12 -0
88 12 -0
89 12 -0
90 12 -0
91 12 0
92 12 0
93 12 0
94 12 0
95 12 0
96 12 0
97 12 0
98 12 0
99 12 0
100 12 0
81 13 -0
82 13 -0
83 13 -1
84 13 -0
85 13 -0
86 13 -0
87 13 -0
88 13 -0
89 13 -0
90 13 -0
91 13 0
92 13 0
93 13 0
94 13 0
95 13 0
96 13 0
97 13 0
98 13 0
99 13 0
100 13 0
81 14 -0
82 14 -0
83 14 -0
84 14 -0
85 14 -0
86 14 -0
87 14 -0
88 14 -0
89 14 -0
90 14 -0
91 14 0
92 14 0
93 14 0
94 14 0
95 14 0
96 14 0
97 14 0
98 14 0
99 14 0
100 14 0
81 15 -0
82 15 -0
83 15 -0
84 15 -1
85 15 -0
86 15 -0
87 15 -0
88 15 -0
89 15 -0
90 15 -0
91 15 0
92 15 0
93 15 0
94 15 0
95 15 0
96 15 0
97 15 0
98 15 0
99 15 0
100 15 0
81 16 -0
82 16 -0
83 16 -0
84 16 -0
85 16 -1
86 16 -0
87 16 -0
88 16 -0
89 16 -0
90 16 -0
91 16 0
92 16 0
93 16 0
94 16 0
95 16 0
96 16 0
97 16 0
98 16 1
99 16 0
100 16 0
81 17 -0
82 17 -0
83 17 -0
84 17 -0
85 17 -0
86 17 -0
87 17 -0
88 17 -0
89 17 -0
90 17 -0
91 17 0
92 17 0
93 17 0
94 17 0
95 17 0
96 17 0
97 17 0
98 17 0
99 17 1
100 17 0
81 18 -0
82 18 -0
83 18 -0
84 18 -0
85 18 -0
86 18 -1
87 18 -0
88 18 -0
89 18 -0
90 18 -0
91 18 0
92 18 0
93 18 0
94 18 0
95 18 0
96 18 0
97 18 0
98 18 0
99 18 0
100 18 0
81 19 -0
82 19 -0
83 19 -0
84 19 -0
85 19 -0
86 19 -0
87 19 -0
88 19 -0
89 19 -0
90 19 -0
91 19 0
92 19 0
93 19 0
94 19 0
95 19 0
96 19 0
97 19 0
98 19 0
99 19 0
100 19 0
81 20 -0
82 20 -0
83 20 -0
84 20 -0
85 20 -0
86 20 -0
87 20 -1
88 20 -0
89 20 -0
90 20 -0
91 20 0
92 20 0
93 20 0
94 20 0
95 20 0
96 20 0
97 20 0
98 20 0
99 20 0
100 20 0
81 21 -0
82 21 -0
83 21 -0
84 21 -0
85 21 -0
86 21 -0
87 21 -0
88 21 -0
89 21 -0
90 21 -0
91 21 0
92 21 0
93 21 0
94 21 0
95 21 0
96 21 0
97 21 0
98 21 0
99 21 0
100 21 0
81 22 -0
82 22 -0
83 22 -0
84 22 -0
85 22 -1
86 22 -0
87 22 -0
88 22 -0
89 22 -0
90 22 -0
91 22 0
92 22 0
93 22 0
94 22 0
95 22 0
96 22 0
97 22 0
98 22 0
99 22 0
100 22 1
81 23 -0
82 23 -0
83 23 -0
84 23 -0
85 23 -0
86 23 -0
87 23 -0
88 23 -0
89 23 -0
90 23 -0
91 23 0
92 23 0
93 23 0
94 23 0
95 23 0
96 23 0
97 23 0
98 23 0
99 23 0
100 23 0
81 24 -0
82 24 -0
83 24 -0
84 24 -0
85 24 -0
86 24 -1
87 24 -0
88 24 -0
89 24 -0
90 24 -0
91 24 0
92 24 0
93 24 0
94 24 0
95 24 0
96 24 0
97 24 0
98 24 0
99 24 0
100 24 0
81 25 -0
82 25 -0
83 25 -0
84 25 -0
85 25 -0
86 25 -0
87 25 -0
88 25 -0
89 25 -0
90 25 -0
91 25 0
92 25 0
93 25 0
94 25 0
95 25 0
96 25 0
97 25 0
98 25 0
99 25 0
100 25 0
81 26 -0
82 26 -0
83 26 -0
84 26 -0
85 26 -0
86 26 -0
87 26 -1
88 26 -0
89 26 -0
90 26 -0
91 26 0
92 26 0
93 26 0
94 26 0
95 26 0
96 26 0
97 26 0
98 26 0
99 26 0
100 26 0
81 27 -0
82 27 -0
83 27 -0
84 27 -0
85 27 -0
86 27 -0
87 27 -0
88 27 -1
89 27 -0
90 27 -0
91 27 1
92 27 0
93 27 0
94 27 0
95 27 0
96 27 0
97 27 0
98 27 0
99 27 0
100 27 0
81 28 -0
82 28 -0
83 28 -0
84 28 -0
85 28 -0
86 28 -0
87 28 -0
88 28 -0
89 28 -0
90 28 -0
91 28 0
92 28 1
93 28 0
94 28 0
95 28 0
96 28 0
97 28 0
98 28 0
99 28 0
100 28 0
81 29 -0
82 29 -0
83 29 -0
84 29 -0
85 29 -0
86 29 -0
87 29 -0
88 29 -0
89 29 -1
90 29 -0
91 29 0
92 29 0
93 29 1
94 29 0
95 29 0
96 29 0
97 29 0
98 29 0
99 29 0
100 29 0
81 30 -0
82 30 -0
83 30 -0
84 30 -0
85 30 -0
86 30 -0
87 30 -0
88 30 -0
89 30 -0
90 30 -0
91 30 0
92 30 0
93 30 0
94 30 1
95 30 0
96 30 0
97 30 0
98 30 0
99 30 0
100 30 0
81 31 -0
82 31 -0
83 31 -0
84 31 -0
85 31 -0
86 31 -0
87 31 -0
88 31 -1
89 31 -0
90 31 -0
91 31 0
92 31 0
93 31 0
94 31 0
95 31 1
96 31 0
97 31 0
98 31 0
99 31 0
100 31 0
81 32 -0
82 32 -0
83 32 -0
84 32 -0
85 32 -0
86 32 -0
87 32 -0
88 32 -0
89 32 -0
90 32 -0
91 32 0
92 32 0
93 32 0
94 32 0
95 32 0
96 32 1
97 32 0
98 32 0
99 32 0
100 32 0
81 33 -0
82 33 -0
83 33 -0
84 33 -0
85 33 -0
86 33 -0
87 33 -0
88 33 -0
89 33 -1
90 33 -0
91 33 0
92 33 0
93 33 0
94 33 0
95 33 0
96 33 0
97 33 1
98 33 0
99 33 0
100 33 0
81 34 -0
82 34 -0
83 34 -0
84 34 -0
85 34 -0
86 34 -0
87 34 -0
88 34 -0
89 34 -0
90 34 -1
91 34 0
92 34 0
93 34 0
94 34 0
95 34 0
96 34 0
97 34 0
98 34 1
99 34 0
100 34 0
81 35 -0
82 35 -0
83 35 -0
84 35 -0
85 35 -0
86 35 -0
87 35 -0
88 35 -0
89 35 -0
90 35 -0
91 35 0
92 35 0
93 35 0
94 35 0
95 35 0
96 35 0
97 35 0
98 35 0
99 35 1
100 35 0
81 36 -0
82 36 -0
83 36 -0
84 36 -0
85 36 -0
86 36 -0
87 36 -0
88 36 -0
89 36 -0
90 36 -1
91 36 0
92 36 0
93 36 0
94 36 0
95 36 0
96 36 0
97 36 0
98 36 0
99 36 0
100 36 1
61 37 -1
62 37 -0
63 37 -0
64 37 -0
65 37 -0
66 37 -0
67 37 -0
68 37 -0
69 37 -0
70 37 -0
71 37 1
72 37 0
73 37 0
74 37 0
75 37 0
76 37 0
77 37 0
78 37 0
79 37 0
80 37 0
61 38 -0
62 38 -0
63 38 -0
64 38 -0
65 38 -0
66 38 -0
67 38 -0
68 38 -0
69 38 -0
70 38 -0
71 38 0
72 38 1
73 38 0
74 38 0
75 38 0
76 38 0
77 38 0
78 38 0
79 38 0
80 38 0
61 39 -0
62 39 -1
63 39 -0
64 39 -0
65 39 -0
66 39 -0
67 39 -0
68 39 -0
69 39 -0
70 39 -0
71 39 0
72 39 0
73 39 1
74 39 0
75 39 0
76 39 0
77 39 0
78 39 0
79 39 0
80 39 0
61 40 -0
62 40 -0
63 40 -0
64 40 -0
65 40 -0
66 40 -0
67 40 -0
68 40 -0
69 40 -0
70 40 -0
71 40 0
72 40 0
73 40 0
74 40 1
75 40 0
76 40 0
77 40 0
78 40 0
79 40 0
80 40 0
61 41 -0
62 41 -0
63 41 -1
64 41 -0
65 41 -0
66 41 -0
67 41 -0
68 41 -0
69 41 -0
70 41 -0
71 41 0
72 41 0
73 41 0
74 41 0
75 41 0
76 41 0
77 41 0
78 41 0
79 41 0
80 41 0
61 42 -0
62 42 -0
63 42 -0
64 42 -0
65 42 -0
66 42 -0
67 42 -0
68 42 -0
69 42 -0
70 42 -0
71 42 0
72 42 0
73 42 0
74 42 0
75 42 0
76 42 0
77 42 0
78 42 0
79 42 0
80 42 0
61 43 -0
62 43 -0
63 43 -0
64 43 -1
65 43 -0
66 43 -0
67 43 -0
68 43 -0
69 43 -0
70 43 -0
71 43 0
72 43 0
73 43 0
74 43 0
75 43 0
76 43 0
77 43 0
78 43 0
79 43 0
80 43 0
61 44 -0
62 44 -0
63 44 -0
64 44 -0
65 44 -0
66 44 -0
67 44 -0
68 44 -0
69 44 -0
70 44 -0
71 44 0
72 44 0
73 44 0
74 44 0
75 44 0
76 44 0
77 44 0
78 44 0
79 44 0
80 44 0
61 45 -1
62 45 -0
63 45 -0
64 45 -0
65 45 -0
66 45 -0
67 45 -0
68 45 -0
69 45 -0
70 45 -0
71 45 0
72 45 0
73 45 0
74 45 0
75 45 1
76 45 0
77 45 0
78 45 0
79 45 0
80 45 0
61 46 -0
62 46 -0
63 46 -0
64 46 -0
65 46 -0
66 46 -0
67 46 -0
68 46 -0
69 46 -0
70 46 -0
71 46 0
72 46 0
73 46 0
74 46 0
75 46 0
76 46 1
77 46 0
78 46 0
79 46 0
80 46 0
61 47 -0
62 47 -1
63 47 -0
64 47 -0
65 47 -0
66 47 -0
67 47 -0
68 47 -0
69 47 -0
70 47 -0
71 47 0
72 47 0
73 47 0
74 47 0
75 47 0
76 47 0
77 47 1
78 47 0
79 47 0
80 47 0
61 48 -0
62 48 -0
63 48 -0
64 48 -0
65 48 -0
66 48 -0
67 48 -0
68 48 -0
69 48 -0
70 48 -0
71 48 0
72 48 0
73 48 0
74 48 0
75 48 0
76 48 0
77 48 0
78 48 0
79 48 0
80 48 0
61 49 -0
62 49 -0
63 49 -1
64 49 -0
65 49 -0
66 49 -0
67 49 -0
68 49 -0
69 49 -0
70 49 -0
71 49 0
72 49 0
73 49 0
74 49 0
75 49 0
76 49 0
77 49 0
78 49 0
79 49 0
80 49 0
61 50 -0
62 50 -0
63 50 -0
64 50 -0
65 50 -0
66 50 -0
67 50 -0
68 50 -0
69 50 -0
70 50 -0
71 50 0
72 50 0
73 50 0
74 50 0
75 50 0
76 50 0
77 50 0
78 50 0
79 50 0
80 50 0
61 51 -0
62 51 -0
63 51 -0
64 51 -1
65 51 -0
66 51 -0
67 51 -0
68 51 -0
69 51 -0
70 51 -0
71 51 0
72 51 0
73 51 0
74 51 0
75 51 0
76 51 0
77 51 0
78 51 0
79 51 0
80 51 0
61 52 -0
62 52 -0
63 52 -0
64 52 -0
65 52 -1
66 52 -0
67 52 -0
68 52 -0
69 52 -0
70 52 -0
71 52 0
72 52 0
73 52 0
74 52 0
75 52 0
76 52 0
77 52 0
78 52 1
79 52 0
80 52 0
61 53 -0
62 53 -0
63 53 -0
64 53 -0
65 53 -0
66 53 -0
67 53 -0
68 53 -0
69 53 -0
70 53 -0
71 53 0
72 53 0
73 53 0
74 53 0
75 53 0
76 53 0
77 53 0
78 53 0
79 53 1
80 53 0
61 54 -0
62 54 -0
63 54 -0
64 54 -0
65 54 -0
66 54 -1
67 54 -0
68 54 -0
69 54 -0
70 54 -0
71 54 0
72 54 0
73 54 0
74 54 0
75 54 0
76 54 0
77 54 0
78 54 0
79 54 0
80 54 0
61 55 -0
62 55 -0
63 55 -0
64 55 -0
65 55 -0
66 55 -0
67 55 -0
68 55 -0
69 55 -0
70 55 -0
71 55 0
72 55 0
73 55 0
74 55 0
75 55 0
76 55 0
77 55 0
78 55 0
79 55 0
80 55 0
61 56 -0
62 56 -0
63 56 -0
64 56 -0
65 56 -0
66 56 -0
67 56 -1
68 56 -0
69 56 -0
70 56 -0
71 56 0
72 56 0
73 56 0
74 56 0
75 56 0
76 56 0
77 56 0
78 56 0
79 56 0
80 56 0
61 57 -0
62 57 -0
63 57 -0
64 57 -0
65 57 -0
66 57 -0
67 57 -0
68 57 -0
69 57 -0
70 57 -0
71 57 0
72 57 0
73 57 0
74 57 0
75 57 0
76 57 0
77 57 0
78 57 0
79 57 0
80 57 0
61 58 -0
62 58 -0
63 58 -0
64 58 -0
65 58 -1
66 58 -0
67 58 -0
68 58 -0
69 58 -0
70 58 -0
71 58 0
72 58 0
73 58 0
74 58 0
75 58 0
76 58 0
77 58 0
78 58 0
79 58 0
80 58 1
61 59 -0
62 59 -0
63 59 -0
64 59 -0
65 59 -0
66 59 -0
67 59 -0
68 59 -0
69 59 -0
70 59 -0
71 59 0
72 59 0
73 59 0
74 59 0
75 59 0
76 59 0
77 59 0
78 59 0
79 59 0
80 59 0
61 60 -0
62 60 -0
63 60 -0
64 60 -0
65 60 -0
66 60 -1
67 60 -0
68 60 -0
69 60 -0
70 60 -0
71 60 0
72 60 0
73 60 0
74 60 0
75 60 0
76 60 0
77 60 0
78 60 0
79 60 0
80 60 0
61 61 -0
62 61 -0
63 61 -0
64 61 -0
65 61 -0
66 61 -0
67 61 -0
68 61 -0
69 61 -0
70 61 -0
71 61 0
72 61 0
73 61 0
74 61 0
75 61 0
76 61 0
77 61 0
78 61 0
79 61 0
80 61 0
61 62 -0
62 62 -0
63 62 -0
64 62 -0
65 62 -0
66 62 -0
67 62 -1
68 62 -0
69 62 -0
70 62 -0
71 62 0
72 62 0
73 62 0
74 62 0
75 62 0
76 62 0
77 62 0
78 62 0
79 62 0
80 62 0
61 63 -0
62 63 -0
63 63 -0
64 63 -0
65 63 -0
66 63 -0
67 63 -0
68 63 -1
69 63 -0
70 63 -0
71 63 1
72 63 0
73 63 0
74 63 0
75 63 0
76 63 0
77 63 0
78 63 0
79 63 0
80 63 0
61 64 -0
62 64 -0
63 64 -0
64 64 -0
65 64 -0
66 64 -0
67 64 -0
68 64 -0
69 64 -0
70 64 -0
71 64 0
72 64 1
73 64 0
74 64 0
75 64 0
76 64 0
77 64 0
78 64 0
79 64 0
80 64 0
61 65 -0
62 65 -0
63 65 -0
64 65 -0
65 65 -0
66 65 -0
67 65 -0
68 65 -0
69 65 -1
70 65 -0
71 65 0
72 65 0
73 65 1
74 65 0
75 65 0
76 65 0
77 65 0
78 65 0
79 65 0
80 65 0
61 66 -0
62 66 -0
63 66 -0
64 66 -0
65 66 -0
66 66 -0
67 66 -0
68 66 -0
69 66 -0
70 66 -0
71 66 0
72 66 0
73 66 0
74 66 1
75 66 0
76 66 0
77 66 0
78 66 0
79 66 0
80 66 0
61 67 -0
62 67 -0
63 67 -0
64 67 -0
65 67 -0
66 67 -0
67 67 -0
68 67 -1
69 67 -0
70 67 -0
71 67 0
72 67 0
73 67 0
74 67 0
75 67 1
76 67 0
77 67 0
78 67 0
79 67 0
80 67 0
61 68 -0
62 68 -0
63 68 -0
64 68 -0
65 68 -0
66 68 -0
67 68 -0
68 68 -0
69 68 -0
70 68 -0
71 68 0
72 68 0
73 68 0
74 68 0
75 68 0
76 68 1
77 68 0
78 68 0
79 68 0
80 68 0
61 69 -0
62 69 -0
63 69 -0
64 69 -0
65 69 -0
66 69 -0
67 69 -0
68 69 -0
69 69 -1
70 69 -0
71 69 0
72 69 0
73 69 0
74 69 0
75 69 0
76 69 0
77 69 1
78 69 0
79 69 0
80 69 0
61 70 -0
62 70 -0
63 70 -0
64 70 -0
65 70 -0
66 70 -0
67 70 -0
68 70 -0
69 70 -0
70 70 -1
71 70 0
72 70 0
73 70 0
74 70 0
75 70 0
76 70 0
77 70 0
78 70 1
79 70 0
80 70 0
61 71 -0
62 71 -0
63 71 -0
64 71 -0
65 71 -0
66 71 -0
67 71 -0
68 71 -0
69 71 -0
70 71 -0
71 71 0
72 71 0
73 71 0
74 71 0
75 71 0
76 71 0
77 71 0
78 71 0
79 71 1
80 71 0
61 72 -0
62 72 -0
63 72 -0
64 72 -0
65 72 -0
66 72 -0
67 72 -0
68 72 -0
69 72 -0
70 72 -1
71 72 0
72 72 0
73 72 0
74 72 0
75 72 0
76 72 0
77 72 0
78 72 0
79 72 0
80 72 1
71 73 -1
72 73 -0
73 73 -0
74 73 -0
75 73 -0
76 73 -0
77 73 -0
78 73 -0
79 73 -0
80 73 -0
81 73 1
82 73 0
83 73 0
84 73 0
85 73 0
86 73 0
87 73 0
88 73 0
89 73 0
90 73 0
71 74 -0
72 74 -0
73 74 -0
74 74 -0
75 74 -0
76 74 -0
77 74 -0
78 74 -0
79 74 -0
80 74 -0
81 74 0
82 74 1
83 74 0
84 74 0
85 74 0
86 74 0
87 74 0
88 74 0
89 74 0
90 74 0
71 75 -0
72 75 -1
73 75 -0
74 75 -0
75 75 -0
76 75 -0
77 75 -0
78 75 -0
79 75 -0
80 75 -0
81 75 0
82 75 0
83 75 1
84 75 0
85 75 0
86 75 0
87 75 0
88 75 0
89 75 0
90 75 0
71 76 -0
72 76 -0
73 76 -0
74 76 -0
75 76 -0
76 76 -0
77 76 -0
78 76 -0
79 76 -0
80 76 -0
81 76 0
82 76 0
83 76 0
84 76 1
85 76 0
86 76 0
87 76 0
88 76 0
89 76 0
90 76 0
71 77 -0
72 77 -0
73 77 -1
74 77 -0
75 77 -0
76 77 -0
77 77 -0
78 77 -0
79 77 -0
80 77 -0
81 77 0
82 77 0
83 77 0
84 77 0
85 77 0
86 77 0
87 77 0
88 77 0
89 77 0
90 77 0
71 78 -0
72 78 -0
73 78 -0
74 78 -0
75 78 -0
76 78 -0
77 78 -0
78 78 -0
79 78 -0
80 78 -0
81 78 0
82 78 0
83 78 0
84 78 0
85 78 0
86 78 0
87 78 0
88 78 0
89 78 0
90 78 0
71 79 -0
72 79 -0
73 79 -0
74 79 -1
75 79 -0
76 79 -0
77 79 -0
78 79 -0
79 79 -0
80 79 -0
81 79 0
82 79 0
83 79 0
84 79 0
85 79 0
86 79 0
87 79 0
88 79 0
89 79 0
90 79 0
71 80 -0
72 80 -0
73 80 -0
74 80 -0
75 80 -0
76 80 -0
77 80 -0
78 80 -0
79 80 -0
80 80 -0
81 80 0
82 80 0
83 80 0
84 80 0
85 80 0
86 80 0
87 80 0
88 80 0
89 80 0
90 80 0
71 81 -1
72 81 -0
73 81 -0
74 81 -0
75 81 -0
76 81 -0
77 81 -0
78 81 -0
79 81 -0
80 81 -0
81 81 0
82 81 0
83 81 0
84 81 0
85 81 1
86 81 0
87 81 0
88 81 0
89 81 0
90 81 0
71 82 -0
72 82 -0
73 82 -0
74 82 -0
75 82 -0
76 82 -0
77 82 -0
78 82 -0
79 82 -0
80 82 -0
81 82 0
82 82 0
83 82 0
84 82 0
85 82 0
86 82 1
87 82 0
88 82 0
89 82 0
90 82 0
71 83 -0
72 83 -1
73 83 -0
74 83 -0
75 83 -0
76 83 -0
77 83 -0
78 83 -0
79 83 -0
80 83 -0
81 83 0
82 83 0
83 83 0
84 83 0
85 83 0
86 83 0
87 83 1
88 83 0
89 83 0
90 83 0
71 84 -0
72 84 -0
73 84 -0
74 84 -0
75 84 -0
76 84 -0
77 84 -0
78 84 -0
79 84 -0
80 84 -0
81 84 0
82 84 0
83 84 0
84 84 0
85 84 0
86 84 0
87 84 0
88 84 0
89 84 0
90 84 0
71 85 -0
72 85 -0
73 85 -1
74 85 -0
75 85 -0
76 85 -0
77 85 -0
78 85 -0
79 85 -0
80 85 -0
81 85 0
82 85 0
83 85 0
84 85 0
85 85 0
86 85 0
87 85 0
88 85 0
89 85 0
90 85 0
71 86 -0
72 86 -0
73 86 -0
74 86 -0
75 86 -0
76 86 -0
77 86 -0
78 86 -0
79 86 -0
80 86 -0
81 86 0
82 86 0
83 86 0
84 86 0
85 86 0
86 86 0
87 86 0
88 86 0
89 86 0
90 86 0
71 87 -0
72 87 -0
73 87 -0
74 87 -1
75 87 -0
76 87 -0
77 87 -0
78 87 -0
79 87 -0
80 87 -0
81 87 0
82 87 0
83 87 0
84 87 0
85 87 0
86 87 0
87 87 0
88 87 0
89 87 0
90 87 0
71 88 -0
72 88 -0
73 88 -0
74 88 -0
75 88 -1
76 88 -0
77 88 -0
78 88 -0
79 88 -0
80 88 -0
81 88 0
82 88 0
83 88 0
84 88 0
85 88 0
86 88 0
87 88 0
88 88 1
89 88 0
90 88 0
71 89 -0
72 89 -0
73 89 -0
74 89 -0
75 89 -0
76 89 -0
77 89 -0
78 89 -0
79 89 -0
80 89 -0
81 89 0
82 89 0
83 89 0
84 89 0
85 89 0
86 89 0
87 89 0
88 89 0
89 89 1
90 89 0
71 90 -0
72 90 -0
73 90 -0
74 90 -0
75 90 -0
76 90 -1
77 90 -0
78 90 -0
79 90 -0
80 90 -0
81 90 0
82 90 0
83 90 0
84 90 0
85 90 0
86 90 0
87 90 0
88 90 0
89 90 0
90 90 0
71 91 -0
72 91 -0
73 91 -0
74 91 -0
75 91 -0
76 91 -0
77 91 -0
78 91 -0
79 91 -0
80 91 -0
81 91 0
82 91 0
83 91 0
84 91 0
85 91 0
86 91 0
87 91 0
88 91 0
89 91 0
90 91 0
71 92 -0
72 92 -0
73 92 -0
74 92 -0
75 92 -0
76 92 -0
77 92 -1
78 92 -0
79 92 -0
80 92 -0
81 92 0
82 92 0
83 92 0
84 92 0
85 92 0
86 92 0
87 92 0
88 92 0
89 92 0
90 92 0
71 93 -0
72 93 -0
73 93 -0
74 93 -0
75 93 -0
76 93 -0
77 93 -0
78 93 -0
79 93 -0
80 93 -0
81 93 0
82 93 0
83 93 0
84 93 0
85 93 0
86 93 0
87 93 0
88 93 0
89 93 0
90 93 0
71 94 -0
72 94 -0
73 94 -0
74 94 -0
75 94 -1
76 94 -0
77 94 -0
78 94 -0
79 94 -0
80 94 -0
81 94 0
82 94 0
83 94 0
84 94 0
85 94 0
86 94 0
87 94 0
88 94 0
89 94 0
90 94 1
71 95 -0
72 95 -0
73 95 -0
74 95 -0
75 95 -0
76 95 -0
77 95 -0
78 95 -0
79 95 -0
80 95 -0
81 95 0
82 95 0
83 95 0
84 95 0
85 95 0
86 95 0
87 95 0
88 95 0
89 95 0
90 95 0
71 96 -0
72 96 -0
73 96 -0
74 96 -0
75 96 -0
76 96 -1
77 96 -0
78 96 -0
79 96 -0
80 96 -0
81 96 0
82 96 0
83 96 0
84 96 0
85 96 0
86 96 0
87 96 0
88 96 0
89 96 0
90 96 0
71 97 -0
72 97 -0
73 97 -0
74 97 -0
75 97 -0
76 97 -0
77 97 -0
78 97 -0
79 97 -0
80 97 -0
81 97 0
82 97 0
83 97 0
84 97 0
85 97 0
86 97 0
87 97 0
88 97 0
89 97 0
90 97 0
71 98 -0
72 98 -0
73 98 -0
74 98 -0
75 98 -0
76 98 -0
77 98 -1
78 98 -0
79 98 -0
80 98 -0
81 98 0
82 98 0
83 98 0
84 98 0
85 98 0
86 98 0
87 98 0
88 98 0
89 98 0
90 98 0
71 99 -0
72 99 -0
73 99 -0
74 99 -0
75 99 -0
76 99 -0
77 99 -0
78 99 -1
79 99 -0
80 99 -0
81 99 1
82 99 0
83 99 0
84 99 0
85 99 0
86 99 0
87 99 0
88 99 0
89 99 0
90 99 0
71 100 -0
72 100 -0
73 100 -0
74 100 -0
75 100 -0
76 100 -0
77 100 -0
78 100 -0
79 100 -0
80 100 -0
81 100 0
82 100 1
83 100 0
84 100 0
85 100 0
86 100 0
87 100 0
88 100 0
89 100 0
90 100 0
71 101 -0
72 101 -0
73 101 -0
74 101 -0
75 101 -0
76 101 -0
77 101 -0
78 101 -0
79 101 -1
80 101 -0
81 101 0
82 101 0
83 101 1
84 101 0
85 101 0
86 101 0
87 101 0
88 101 0
89 101 0
90 101 0
71 102 -0
72 102 -0
73 102 -0
74 102 -0
75 102 -0
76 102 -0
77 102 -0
78 102 -0
79 102 -0
80 102 -0
81 102 0
82 102 0
83 102 0
84 102 1
85 102 0
86 102 0
87 102 0
88 102 0
89 102 0
90 102 0
71 103 -0
72 103 -0
73 103 -0
74 103 -0
75 103 -0
76 103 -0
77 103 -0
78 103 -1
79 103 -0
80 103 -0
81 103 0
82 103 0
83 103 0
84 103 0
85 103 1
86 103 0
87 103 0
88 103 0
89 103 0
90 103 0
71 104 -0
72 104 -0
73 104 -0
74 104 -0
75 104 -0
76 104 -0
77 104 -0
78 104 -0
79 104 -0
80 104 -0
81 104 0
82 104 0
83 104 0
84 104 0
85 104 0
86 104 1
87 104 0
88 104 0
89 104 0
90 104 0
71 105 -0
72 105 -0
73 105 -0
74 105 -0
75 105 -0
76 105 -0
77 105 -0
78 105 -0
79 105 -1
80 105 -0
81 105 0
82 105 0
83 105 0
84 105 0
85 105 0
86 105 0
87 105 1
88 105 0
89 105 0
90 105 0
71 106 -0
72 106 -0
73 106 -0
74 106 -0
75 106 -0
76 106 -0
77 106 -0
78 106 -0
79 106 -0
80 106 -1
81 106 0
82 106 0
83 106 0
84 106 0
85 106 0
86 106 0
87 106 0
88 106 1
89 106 0
90 106 0
71 107 -0
72 107 -0
73 107 -0
74 107 -0
75 107 -0
76 107 -0
77 107 -0
78 107 -0
79 107 -0
80 107 -0
81 107 0
82 107 0
83 107 0
84 107 0
85 107 0
86 107 0
87 107 0
88 107 0
89 107 1
90 107 0
71 108 -0
72 108 -0
73 108 -0
74 108 -0
75 108 -0
76 108 -0
77 108 -0
78 108 -0
79 108 -0
80 108 -1
81 108 0
82 108 0
83 108 0
84 108 0
85 108 0
86 108 0
87 108 0
88 108 0
89 108 0
90 108 1
41 109 -1
42 109 -0
43 109 -0
44 109 -0
45 109 -0
46 109 -0
47 109 -0
48 109 -0
49 109 -0
50 109 -0
51 109 1
52 109 0
53 109 0
54 109 0
55 109 0
56 109 0
57 109 0
58 109 0
59 109 0
60 109 0
41 110 -0
42 110 -0
43 110 -0
44 110 -0
45 110 -0
46 110 -0
47 110 -0
48 110 -0
49 110 -0
50 110 -0
51 110 0
52 110 1
53 110 0
54 110 0
55 110 0
56 110 0
57 110 0
58 110 0
59 110 0
60 110 0
41 111 -0
42 111 -1
43 111 -0
44 111 -0
45 111 -0
46 111 -0
47 111 -0
48 111 -0
49 111 -0
50 111 -0
51 111 0
52 111 0
53 111 1
54 111 0
55 111 0
56 111 0
57 111 0
58 111 0
59 111 0
60 111 0
41 112 -0
42 112 -0
43 112 -0
44 112 -0
45 112 -0
46 112 -0
47 112 -0
48 112 -0
49 112 -0
50 112 -0
51 112 0
52 112 0
53 112 0
54 112 1
55 112 0
56 112 0
57 112 0
58 112 0
59 112 0
60 112 0
41 113 -0
42 113 -0
43 113 -1
44 113 -0
45 113 -0
46 113 -0
47 113 -0
48 113 -0
49 113 -0
50 113 -0
51 113 0
52 113 0
53 113 0
54 113 0
55 113 0
56 113 0
57 113 0
58 113 0
59 113 0
60 113 0
41 114 -0
42 114 -0
43 114 -0
44 114 -0
45 114 -0
46 114 -0
47 114 -0
48 114 -0
49 114 -0
50 114 -0
51 114 0
52 114 0
53 114 0
54 114 0
55 114 0
56 114 0
57 114 0
58 114 0
59 114 0
60 114 0
41 115 -0
42 115 -0
43 115 -0
44 115 -1
45 115 -0
46 115 -0
47 115 -0
48 115 -0
49 115 -0
50 115 -0
51 115 0
52 115 0
53 115 0
54 115 0
55 115 0
56 115 0
57 115 0
58 115 0
59 115 0
60 115 0
41 116 -0
42 116 -0
43 116 -0
44 116 -0
45 116 -0
46 116 -0
47 116 -0
48 116 -0
49 116 -0
50 116 -0
51 116 0
52 116 0
53 116 0
54 116 0
55 116 0
56 116 0
57 116 0
58 116 0
59 116 0
60 116 0
41 117 -1
42 117 -0
43 117 -0
44 117 -0
45 117 -0
46 117 -0
47 117 -0
48 117 -0
49 117 -0
50 117 -0
51 117 0
52 117 0
53 117 0
54 117 0
55 117 1
56 117 0
57 117 0
58 117 0
59 117 0
60 117 0
41 118 -0
42 118 -0
43 118 -0
44 118 -0
45 118 -0
46 118 -0
47 118 -0
48 118 -0
49 118 -0
50 118 -0
51 118 0
52 118 0
53 118 0
54 118 0
55 118 0
56 118 1
57 118 0
58 118 0
59 118 0
60 118 0
41 119 -0
42 119 -1
43 119 -0
44 119 -0
45 119 -0
46 119 -0
47 119 -0
48 119 -0
49 119 -0
50 119 -0
51 119 0
52 119 0
53 119 0
54 119 0
55 119 0
56 119 0
57 119 1
58 119 0
59 119 0
60 119 0
41 120 -0
42 120 -0
43 120 -0
44 120 -0
45 120 -0
46 120 -0
47 120 -0
48 120 -0
49 120 -0
50 120 -0
51 120 0
52 120 0
53 120 0
54 120 0
55 120 0
56 120 0
57 120 0
58 120 0
59 120 0
60 120 0
41 121 -0
42 121 -0
43 121 -1
44 121 -0
45 121 -0
46 121 -0
47 121 -0
48 121 -0
49 121 -0
50 121 -0
51 121 0
52 121 0
53 121 0
54 121 0
55 121 0
56 121 0
57 121 0
58 121 0
59 121 0
60 121 0
41 122 -0
42 122 -0
43 122 -0
44 122 -0
45 122 -0
46 122 -0
47 122 -0
48 122 -0
49 122 -0
50 122 -0
51 122 0
52 122 0
53 122 0
54 122 0
55 122 0
56 122 0
57 122 0
58 122 0
59 122 0
60 122 0
41 123 -0
42 123 -0
43 123 -0
44 123 -1
45 123 -0
46 123 -0
47 123 -0
48 123 -0
49 123 -0
50 123 -0
51 123 0
52 123 0
53 123 0
54 123 0
55 123 0
56 123 0
57 123 0
58 123 0
59 123 0
60 123 0
41 124 -0
42 124 -0
43 124 -0
44 124 -0
45 124 -1
46 124 -0
47 124 -0
48 124 -0
49 124 -0
50 124 -0
51 124 0
52 124 0
53 124 0
54 124 0
55 124 0
56 124 0
57 124 0
58 124 1
59 124 0
60 124 0
41 125 -0
42 125 -0
43 125 -0
44 125 -0
45 125 -0
46 125 -0
47 125 -0
48 125 -0
49 125 -0
50 125 -0
51 125 0
52 125 0
53 125 0
54 125 0
55 125 0
56 125 0
57 125 0
58 125 0
59 125 1
60 125 0
41 126 -0
42 126 -0
43 126 -0
44 126 -0
45 126 -0
46 126 -1
47 126 -0
48 126 -0
49 126 -0
50 126 -0
51 126 0
52 126 0
53 126 0
54 126 0
55 126 0
56 126 0
57 126 0
58 126 0
59 126 0
60 126 0
41 127 -0
42 127 -0
43 127 -0
44 127 -0
45 127 -0
46 127 -0
47 127 -0
48 127 -0
49 127 -0
50 127 -0
51 127 0
52 127 0
53 127 0
54 127 0
55 127 0
56 127 0
57 127 0
58 127 0
59 127 0
60 127 0
41 128 -0
42 128 -0
43 128 -0
44 128 -0
45 128 -0
46 128 -0
47 128 -1
48 128 -0
49 128 -0
50 128 -0
51 128 0
52 128 0
53 128 0
54 128 0
55 128 0
56 128 0
57 128 0
58 128 0
59 128 0
60 128 0
41 129 -0
42 129 -0
43 129 -0
44 129 -0
45 129 -0
46 129 -0
47 129 -0
48 129 -0
49 129 -0
50 129 -0
51 129 0
52 129 0
53 129 0
54 129 0
55 129 0
56 129 0
57 129 0
58 129 0
59 129 0
60 129 0
41 130 -0
42 130 -0
43 130 -0
44 130 -0
45 130 -1
46 130 -0
47 130 -0
48 130 -0
49 130 -0
50 130 -0
51 130 0
52 130 0
53 130 0
54 130 0
55 130 0
56 130 0
57 130 0
58 130 0
59 130 0
60 130 1
41 131 -0
42 131 -0
43 131 -0
44 131 -0
45 131 -0
46 131 -0
47 131 -0
48 131 -0
49 131 -0
50 131 -0
51 131 0
52 131 0
53 131 0
54 131 0
55 131 0
56 131 0
57 131 0
58 131 0
59 131 0
60 131 0
41 132 -0
42 132 -0
43 132 -0
44 132 -0
45 132 -0
46 132 -1
47 132 -0
48 132 -0
49 132 -0
50 132 -0
51 132 0
52 132 0
53 132 0
54 132 0
55 132 0
56 132 0
57 132 0
58 132 0
59 132 0
60 132 0
41 133 -0
42 133 -0
43 133 -0
44 133 -0
45 133 -0
46 133 -0
47 133 -0
48 133 -0
49 133 -0
50 133 -0
51 133 0
52 133 0
53 133 0
54 133 0
55 133 0
56 133 0
57 133 0
58 133 0
59 133 0
60 133 0
41 134 -0
42 134 -0
43 134 -0
44 134 -0
45 134 -0
46 134 -0
47 134 -1
48 134 -0
49 134 -0
50 134 -0
51 134 0
52 134 0
53 134 0
54 134 0
55 134 0
56 134 0
57 134 0
58 134 0
59 134 0
60 134 0
41 135 -0
42 135 -0
43 135 -0
44 135 -0
45 135 -0
46 135 -0
47 135 -0
48 135 -1
49 135 -0
50 135 -0
51 135 1
52 135 0
53 135 0
54 135 0
55 135 0
56 135 0
57 135 0
58 135 0
59 135 0
60 135 0
41 136 -0
42 136 -0
43 136 -0
44 136 -0
45 136 -0
46 136 -0
47 136 -0
48 136 -0
49 136 -0
50 136 -0
51 136 0
52 136 1
53 136 0
54 136 0
55 136 0
56 136 0
57 136 0
58 136 0
59 136 0
60 136 0
41 137 -0
42 137 -0
43 137 -0
44 137 -0
45 137 -0
46 137 -0
47 137 -0
48 137 -0
49 137 -1
50 137 -0
51 137 0
52 137 0
53 137 1
54 137 0
55 137 0
56 137 0
57 137 0
58 137 0
59 137 0
60 137 0
41 138 -0
42 138 -0
43 138 -0
44 138 -0
45 138 -0
46 138 -0
47 138 -0
48 138 -0
49 138 -0
50 138 -0
51 138 0
52 138 0
53 138 0
54 138 1
55 138 0
56 138 0
57 138 0
58 138 0
59 138 0
60 138 0
41 139 -0
42 139 -0
43 139 -0
44 139 -0
45 139 -0
46 139 -0
47 139 -0
48 139 -1
49 139 -0
50 139 -0
51 139 0
52 139 0
53 139 0
54 139 0
55 139 1
56 139 0
57 139 0
58 139 0
59 139 0
60 139 0
41 140 -0
42 140 -0
43 140 -0
44 140 -0
45 140 -0
46 140 -0
47 140 -0
48 140 -0
49 140 -0
50 140 -0
51 140 0
52 140 0
53 140 0
54 140 0
55 140 0
56 140 1
57 140 0
58 140 0
59 140 0
60 140 0
41 141 -0
42 141 -0
43 141 -0
44 141 -0
45 141 -0
46 141 -0
47 141 -0
48 141 -0
49 141 -1
50 141 -0
51 141 0
52 141 0
53 141 0
54 141 0
55 141 0
56 141 0
57 141 1
58 141 0
59 141 0
60 141 0
41 142 -0
42 142 -0
43 142 -0
44 142 -0
45 142 -0
46 142 -0
47 142 -0
48 142 -0
49 142 -0
50 142 -1
51 142 0
52 142 0
53 142 0
54 142 0
55 142 0
56 142 0
57 142 0
58 142 1
59 142 0
60 142 0
41 143 -0
42 143 -0
43 143 -0
44 143 -0
45 143 -0
46 143 -0
47 143 -0
48 143 -0
49 143 -0
50 143 -0
51 143 0
52 143 0
53 143 0
54 143 0
55 143 0
56 143 0
57 143 0
58 143 0
59 143 1
60 143 0
41 144 -0
42 144 -0
43 144 -0
44 144 -0
45 144 -0
46 144 -0
47 144 -0
48 144 -0
49 144 -0
50 144 -1
51 144 0
52 144 0
53 144 0
54 144 0
55 144 0
56 144 0
57 144 0
58 144 0
59 144 0
60 144 1
51 145 -1
52 145 -0
53 145 -0
54 145 -0
55 145 -0
56 145 -0
57 145 -0
58 145 -0
59 145 -0
60 145 -0
61 145 1
62 145 0
63 145 0
64 145 0
65 145 0
66 145 0
67 145 0
68 145 0
69 145 0
70 145 0
51 146 -0
52 146 -0
53 146 -0
54 146 -0
55 146 -0
56 146 -0
57 146 -0
58 146 -0
59 146 -0
60 146 -0
61 146 0
62 146 1
63 146 0
64 146 0
65 146 0
66 146 0
67 146 0
68 146 0
69 146 0
70 146 0
51 147 -0
52 147 -1
53 147 -0
54 147 -0
55 147 -0
56 147 -0
57 147 -0
58 147 -0
59 147 -0
60 147 -0
61 147 0
62 147 0
63 147 1
64 147 0
65 147 0
66 147 0
67 147 0
68 147 0
69 147 0
70 147 0
51 148 -0
52 148 -0
53 148 -0
54 148 -0
55 148 -0
56 148 -0
57 148 -0
58 148 -0
59 148 -0
60 148 -0
61 148 0
62 148 0
63 148 0
64 148 1
65 148 0
66 148 0
67 148 0
68 148 0
69 148 0
70 148 0
51 149 -0
52 149 -0
53 149 -1
54 149 -0
55 149 -0
56 149 -0
57 149 -0
58 149 -0
59 149 -0
60 149 -0
61 149 0
62 149 0
63 149 0
64 149 0
65 149 0
66 149 0
67 149 0
68 149 0
69 149 0
70 149 0
51 150 -0
52 150 -0
53 150 -0
54 150 -0
55 150 -0
56 150 -0
57 150 -0
58 150 -0
59 150 -0
60 150 -0
61 150 0
62 150 0
63 150 0
64 150 0
65 150 0
66 150 0
67 150 0
68 150 0
69 150 0
70 150 0
51 151 -0
52 151 -0
53 151 -0
54 151 -1
55 151 -0
56 151 -0
57 151 -0
58 151 -0
59 151 -0
60 151 -0
61 151 0
62 151 0
63 151 0
64 151 0
65 151 0
66 151 0
67 151 0
68 151 0
69 151 0
70 151 0
51 152 -0
52 152 -0
53 152 -0
54 152 -0
55 152 -0
56 152 -0
57 152 -0
58 152 -0
59 152 -0
60 152 -0
61 152 0
62 152 0
63 152 0
64 152 0
65 152 0
66 152 0
67 152 0
68 152 0
69 152 0
70 152 0
51 153 -1
52 153 -0
53 153 -0
54 153 -0
55 153 -0
56 153 -0
57 153 -0
58 153 -0
59 153 -0
60 153 -0
61 153 0
62 153 0
63 153 0
64 153 0
65 153 1
66 153 0
67 153 0
68 153 0
69 153 0
70 153 0
51 154 -0
52 154 -0
53 154 -0
54 154 -0
55 154 -0
56 154 -0
57 154 -0
58 154 -0
59 154 -0
60 154 -0
61 154 0
62 154 0
63 154 0
64 154 0
65 154 0
66 154 1
67 154 0
68 154 0
69 154 0
70 154 0
51 155 -0
52 155 -1
53 155 -0
54 155 -0
55 155 -0
56 155 -0
57 155 -0
58 155 -0
59 155 -0
60 155 -0
61 155 0
62 155 0
63 155 0
64 155 0
65 155 0
66 155 0
67 155 1
68 155 0
69 155 0
70 155 0
51 156 -0
52 156 -0
53 156 -0
54 156 -0
55 156 -0
56 156 -0
57 156 -0
58 156 -0
59 156 -0
60 156 -0
61 156 0
62 156 0
63 156 0
64 156 0
65 156 0
66 156 0
67 156 0
68 156 0
69 156 0
70 156 0
51 157 -0
52 157 -0
53 157 -1
54 157 -0
55 157 -0
56 157 -0
57 157 -0
58 157 -0
59 157 -0
60 157 -0
61 157 0
62 157 0
63 157 0
64 157 0
65 157 0
66 157 0
67 157 0
68 157 0
69 157 0
70 157 0
51 158 -0
52 158 -0
53 158 -0
54 158 -0
55 158 -0
56 158 -0
57 158 -0
58 158 -0
59 158 -0
60 158 -0
61 158 0
62 158 0
63 158 0
64 158 0
65 158 0
66 158 0
67 158 0
68 158 0
69 158 0
70 158 0
51 159 -0
52 159 -0
53 159 -0
54 159 -1
55 159 -0
56 159 -0
57 159 -0
58 159 -0
59 159 -0
60 159 -0
61 159 0
62 159 0
63 159 0
64 159 0
65 159 0
66 159 0
67 159 0
68 159 0
69 159 0
70 159 0
51 160 -0
52 160 -0
53 160 -0
54 160 -0
55 160 -1
56 160 -0
57 160 -0
58 160 -0
59 160 -0
60 160 -0
61 160 0
62 160 0
63 160 0
64 160 0
65 160 0
66 160 0
67 160 0
68 160 1
69 160 0
70 160 0
51 161 -0
52 161 -0
53 161 -0
54 161 -0
55 161 -0
56 161 -0
57 161 -0
58 161 -0
59 161 -0
60 161 -0
61 161 0
62 161 0
63 161 0
64 161 0
65 161 0
66 161 0
67 161 0
68 161 0
69 161 1
70 161 0
51 162 -0
52 162 -0
53 162 -0
54 162 -0
55 162 -0
56 162 -1
57 162 -0
58 162 -0
59 162 -0
60 162 -0
61 162 0
62 162 0
63 162 0
64 162 0
65 162 0
66 162 0
67 162 0
68 162 0
69 162 0
70 162 0
51 163 -0
52 163 -0
53 163 -0
54 163 -0
55 163 -0
56 163 -0
57 163 -0
58 163 -0
59 163 -0
60 163 -0
61 163 0
62 163 0
63 163 0
64 163 0
65 163 0
66 163 0
67 163 0
68 163 0
69 163 0
70 163 0
51 164 -0
52 164 -0
53 164 -0
54 164 -0
55 164 -0
56 164 -0
57 164 -1
58 164 -0
59 164 -0
60 164 -0
61 164 0
62 164 0
63 164 0
64 164 0
65 164 0
66 164 0
67 164 0
68 164 0
69 164 0
70 164 0
51 165 -0
52 165 -0
53 165 -0
54 165 -0
55 165 -0
56 165 -0
57 165 -0
58 165 -0
59 165 -0
60 165 -0
61 165 0
62 165 0
63 165 0
64 165 0
65 165 0
66 165 0
67 165 0
68 165 0
69 165 0
70 165 0
51 166 -0
52 166 -0
53 166 -0
54 166 -0
55 166 -1
56 166 -0
57 166 -0
58 166 -0
59 166 -0
60 166 -0
61 166 0
62 166 0
63 166 0
64 166 0
65 166 0
66 166 0
67 166 0
68 166 0
69 166 0
70 166 1
51 167 -0
52 167 -0
53 167 -0
54 167 -0
55 167 -0
56 167 -0
57 167 -0
58 167 -0
59 167 -0
60 167 -0
61 167 0
62 167 0
63 167 0
64 167 0
65 167 0
66 167 0
67 167 0
68 167 0
69 167 0
70 167 0
51 168 -0
52 168 -0
53 168 -0
54 168 -0
55 168 -0
56 168 -1
57 168 -0
58 168 -0
59 168 -0
60 168 -0
61 168 0
62 168 0
63 168 0
64 168 0
65 168 0
66 168 0
67 168 0
68 168 0
69 168 0
70 168 0
51 169 -0
52 169 -0
53 169 -0
54 169 -0
55 169 -0
56 169 -0
57 169 -0
58 169 -0
59 169 -0
60 169 -0
61 169 0
62 169 0
63 169 0
64 169 0
65 169 0
66 169 0
67 169 0
68 169 0
69 169 0
70 169 0
51 170 -0
52 170 -0
53 170 -0
54 170 -0
55 170 -0
56 170 -0
57 170 -1
58 170 -0
59 170 -0
60 170 -0
61 170 0
62 170 0
63 170 0
64 170 0
65 170 0
66 170 0
67 170 0
68 170 0
69 170 0
70 170 0
51 171 -0
52 171 -0
53 171 -0
54 171 -0
55 171 -0
56 171 -0
57 171 -0
58 171 -1
59 171 -0
60 171 -0
61 171 1
62 171 0
63 171 0
64 171 0
65 171 0
66 171 0
67 171 0
68 171 0
69 171 0
70 171 0
51 172 -0
52 172 -0
53 172 -0
54 172 -0
55 172 -0
56 172 -0
57 172 -0
58 172 -0
59 172 -0
60 172 -0
61 172 0
62 172 1
63 172 0
64 172 0
65 172 0
66 172 0
67 172 0
68 172 0
69 172 0
70 172 0
51 173 -0
52 173 -0
53 173 -0
54 173 -0
55 173 -0
56 173 -0
57 173 -0
58 173 -0
59 173 -1
60 173 -0
61 173 0
62 173 0
63 173 1
64 173 0
65 173 0
66 173 0
67 173 0
68 173 0
69 173 0
70 173 0
51 174 -0
52 174 -0
53 174 -0
54 174 -0
55 174 -0
56 174 -0
57 174 -0
58 174 -0
59 174 -0
60 174 -0
61 174 0
62 174 0
63 174 0
64 174 1
65 174 0
66 174 0
67 174 0
68 174 0
69 174 0
70 174 0
51 175 -0
52 175 -0
53 175 -0
54 175 -0
55 175 -0
56 175 -0
57 175 -0
58 175 -1
59 175 -0
60 175 -0
61 175 0
62 175 0
63 175 0
64 175 0
65 175 1
66 175 0
67 175 0
68 175 0
69 175 0
70 175 0
51 176 -0
52 176 -0
53 176 -0
54 176 -0
55 176 -0
56 176 -0
57 176 -0
58 176 -0
59 176 -0
60 176 -0
61 176 0
62 176 0
63 176 0
64 176 0
65 176 0
66 176 1
67 176 0
68 176 0
69 176 0
70 176 0
51 177 -0
52 177 -0
53 177 -0
54 177 -0
55 177 -0
56 177 -0
57 177 -0
58 177 -0
59 177 -1
60 177 -0
61 177 0
62 177 0
63 177 0
64 177 0
65 177 0
66 177 0
67 177 1
68 177 0
69 177 0
70 177 0
51 178 -0
52 178 -0
53 178 -0
54 178 -0
55 178 -0
56 178 -0
57 178 -0
58 178 -0
59 178 -0
60 178 -1
61 178 0
62 178 0
63 178 0
64 178 0
65 178 0
66 178 0
67 178 0
68 178 1
69 178 0
70 178 0
51 179 -0
52 179 -0
53 179 -0
54 179 -0
55 179 -0
56 179 -0
57 179 -0
58 179 -0
59 179 -0
60 179 -0
61 179 0
62 179 0
63 179 0
64 179 0
65 179 0
66 179 0
67 179 0
68 179 0
69 179 1
70 179 0
51 180 -0
52 180 -0
53 180 -0
54 180 -0
55 180 -0
56 180 -0
57 180 -0
58 180 -0
59 180 -0
60 180 -1
61 180 0
62 180 0
63 180 0
64 180 0
65 180 0
66 180 0
67 180 0
68 180 0
69 180 0
70 180 1
21 181 -1
22 181 -0
23 181 -0
24 181 -0
25 181 -0
26 181 -0
27 181 -0
28 181 -0
29 181 -0
30 181 -0
31 181 1
32 181 0
33 181 0
34 181 0
35 181 0
36 181 0
37 181 0
38 181 0
39 181 0
40 181 0
21 182 -0
22 182 -0
23 182 -0
24 182 -0
25 182 -0
26 182 -0
27 182 -0
28 182 -0
29 182 -0
30 182 -0
31 182 0
32 182 1
33 182 0
34 182 0
35 182 0
36 182 0
37 182 0
38 182 0
39 182 0
40 182 0
21 183 -0
22 183 -1
23 183 -0
24 183 -0
25 183 -0
26 183 -0
27 183 -0
28 183 -0
29 183 -0
30 183 -0
31 183 0
32 183 0
33 183 1
34 183 0
35 183 0
36 183 0
37 183 0
38 183 0
39 183 0
40 183 0
21 184 -0
22 184 -0
23 184 -0
24 184 -0
25 184 -0
26 184 -0
27 184 -0
28 184 -0
29 184 -0
30 184 -0
31 184 0
32 184 0
33 184 0
34 184 1
35 184 0
36 184 0
37 184 0
38 184 0
39 184 0
40 184 0
21 185 -0
22 185 -0
23 185 -1
24 185 -0
25 185 -0
26 185 -0
27 185 -0
28 185 -0
29 185 -0
30 185 -0
31 185 0
32 185 0
33 185 0
34 185 0
35 185 0
36 185 0
37 185 0
38 185 0
39 185 0
40 185 0
21 186 -0
22 186 -0
23 186 -0
24 186 -0
25 186 -0
26 186 -0
27 186 -0
28 186 -0
29 186 -0
30 186 -0
31 186 0
32 186 0
33 186 0
34 186 0
35 186 0
36 186 0
37 186 0
38 186 0
39 186 0
40 186 0
21 187 -0
22 187 -0
23 187 -0
24 187 -1
25 187 -0
26 187 -0
27 187 -0
28 187 -0
29 187 -0
30 187 -0
31 187 0
32 187 0
33 187 0
34 187 0
35 187 0
36 187 0
37 187 0
38 187 0
39 187 0
40 187 0
21 188 -0
22 188 -0
23 188 -0
24 188 -0
25 188 -0
26 188 -0
27 188 -0
28 188 -0
29 188 -0
30 188 -0
31 188 0
32 188 0
33 188 0
34 188 0
35 188 0
36 188 0
37 188 0
38 188 0
39 188 0
40 188 0
21 189 -1
22 189 -0
23 189 -0
24 189 -0
25 189 -0
26 189 -0
27 189 -0
28 189 -0
29 189 -0
30 189 -0
31 189 0
32 189 0
33 189 0
34 189 0
35 189 1
36 189 0
37 189 0
38 189 0
39 189 0
40 189 0
21 190 -0
22 190 -0
23 190 -0
24 190 -0
25 190 -0
26 190 -0
27 190 -0
28 190 -0
29 190 -0
30 190 -0
31 190 0
32 190 0
33 190 0
34 190 0
35 190 0
36 190 1
37 190 0
38 190 0
39 190 0
40 190 0
21 191 -0
22 191 -1
23 191 -0
24 191 -0
25 191 -0
26 191 -0
27 191 -0
28 191 -0
29 191 -0
30 191 -0
31 191 0
32 191 0
33 191 0
34 191 0
35 191 0
36 191 0
37 191 1
38 191 0
39 191 0
40 191 0
21 192 -0
22 192 -0
23 192 -0
24 192 -0
25 192 -0
26 192 -0
27 192 -0
28 192 -0
29 192 -0
30 192 -0
31 192 0
32 192 0
33 192 0
34 192 0
35 192 0
36 192 0
37 192 0
38 192 0
39 192 0
40 192 0
21 193 -0
22 193 -0
23 193 -1
24 193 -0
25 193 -0
26 193 -0
27 193 -0
28 193 -0
29 193 -0
30 193 -0
31 193 0
32 193 0
33 193 0
34 193 0
35 193 0
36 193 0
37 193 0
38 193 0
39 193 0
40 193 0
21 194 -0
22 194 -0
23 194 -0
24 194 -0
25 194 -0
26 194 -0
27 194 -0
28 194 -0
29 194 -0
30 194 -0
31 194 0
32 194 0
33 194 0
34 194 0
35 194 0
36 194 0
37 194 0
38 194 0
39 194 0
40 194 0
21 195 -0
22 195 -0
23 195 -0
24 195 -1
25 195 -0
26 195 -0
27 195 -0
28 195 -0
29 195 -0
30 195 -0
31 195 0
32 195 0
33 195 0
34 195 0
35 195 0
36 195 0
37 195 0
38 195 0
39 195 0
40 195 0
21 196 -0
22 196 -0
23 196 -0
24 196 -0
25 196 -1
26 196 -0
27 196 -0
28 196 -0
29 196 -0
30 196 -0
31 196 0
32 196 0
33 196 0
34 196 0
35 196 0
36 196 0
37 196 0
38 196 1
39 196 0
40 196 0
21 197 -0
22 197 -0
23 197 -0
24 197 -0
25 197 -0
26 197 -0
27 197 -0
28 197 -0
29 197 -0
30 197 -0
31 197 0
32 197 0
33 197 0
34 197 0
35 197 0
36 197 0
37 197 0
38 197 0
39 197 1
40 197 0
21 198 -0
22 198 -0
23 198 -0
24 198 -0
25 198 -0
26 198 -1
27 198 -0
28 198 -0
29 198 -0
30 198 -0
31 198 0
32 198 0
33 198 0
34 198 0
35 198 0
36 198 0
37 198 0
38 198 0
39 198 0
40 198 0
21 199 -0
22 199 -0
23 199 -0
24 199 -0
25 199 -0
26 199 -0
27 199 -0
28 199 -0
29 199 -0
30 199 -0
31 199 0
32 199 0
33 199 0
34 199 0
35 199 0
36 199 0
37 199 0
38 199 0
39 199 0
40 199 0
21 200 -0
22 200 -0
23 200 -0
24 200 -0
25 200 -0
26 200 -0
27 200 -1
28 200 -0
29 200 -0
30 200 -0
31 200 0
32 200 0
33 200 0
34 200 0
35 200 0
36 200 0
37 200 0
38 200 0
39 200 0
40 200 0
21 201 -0
22 201 -0
23 201 -0
24 201 -0
25 201 -0
26 201 -0
27 201 -0
28 201 -0
29 201 -0
30 201 -0
31 201 0
32 201 0
33 201 0
34 201 0
35 201 0
36 201 0
37 201 0
38 201 0
39 201 0
40 201 0
21 202 -0
22 202 -0
23 202 -0
24 202 -0
25 202 -1
26 202 -0
27 202 -0
28 202 -0
29 202 -0
30 202 -0
31 202 0
32 202 0
33 202 0
34 202 0
35 202 0
36 202 0
37 202 0
38 202 0
39 202 0
40 202 1
21 203 -0
22 203 -0
23 203 -0
24 203 -0
25 203 -0
26 203 -0
27 203 -0
28 203 -0
29 203 -0
30 203 -0
31 203 0
32 203 0
33 203 0
34 203 0
35 203 0
36 203 0
37 203 0
38 203 0
39 203 0
40 203 0
21 204 -0
22 204 -0
23 204 -0
24 204 -0
25 204 -0
26 204 -1
27 204 -0
28 204 -0
29 204 -0
30 204 -0
31 204 0
32 204 0
33 204 0
34 204 0
35 204 0
36 204 0
37 204 0
38 204 0
39 204 0
40 204 0
21 205 -0
22 205 -0
23 205 -0
24 205 -0
25 205 -0
26 205 -0
27 205 -0
28 205 -0
29 205 -0
30 205 -0
31 205 0
32 205 0
33 205 0
34 205 0
35 205 0
36 205 0
37 205 0
38 205 0
39 205 0
40 205 0
21 206 -0
22 206 -0
23 206 -0
24 206 -0
25 206 -0
26 206 -0
27 206 -1
28 206 -0
29 206 -0
30 206 -0
31 206 0
32 206 0
33 206 0
34 206 0
35 206 0
36 206 0
37 206 0
38 206 0
39 206 0
40 206 0
21 207 -0
22 207 -0
23 207 -0
24 207 -0
25 207 -0
26 207 -0
27 207 -0
28 207 -1
29 207 -0
30 207 -0
31 207 1
32 207 0
33 207 0
34 207 0
35 207 0
36 207 0
37 207 0
38 207 0
39 207 0
40 207 0
21 208 -0
22 208 -0
23 208 -0
24 208 -0
25 208 -0
26 208 -0
27 208 -0
28 208 -0
29 208 -0
30 208 -0
31 208 0
32 208 1
33 208 0
34 208 0
35 208 0
36 208 0
37 208 0
38 208 0
39 208 0
40 208 0
21 209 -0
22 209 -0
23 209 -0
24 209 -0
25 209 -0
26 209 -0
27 209 -0
28 209 -0
29 209 -1
30 209 -0
31 209 0
32 209 0
33 209 1
34 209 0
35 209 0
36 209 0
37 209 0
38 209 0
39 209 0
40 209 0
21 210 -0
22 210 -0
23 210 -0
24 210 -0
25 210 -0
26 210 -0
27 210 -0
28 210 -0
29 210 -0
30 210 -0
31 210 0
32 210 0
33 210 0
34 210 1
35 210 0
36 210 0
37 210 0
38 210 0
39 210 0
40 210 0
21 211 -0
22 211 -0
23 211 -0
24 211 -0
25 211 -0
26 211 -0
27 211 -0
28 211 -1
29 211 -0
30 211 -0
31 211 0
32 211 0
33 211 0
34 211 0
35 211 1
36 211 0
37 211 0
38 211 0
39 211 0
40 211 0
21 212 -0
22 212 -0
23 212 -0
24 212 -0
25 212 -0
26 212 -0
27 212 -0
28 212 -0
29 212 -0
30 212 -0
31 212 0
32 212 0
33 212 0
34 212 0
35 212 0
36 212 1
37 212 0
38 212 0
39 212 0
40 212 0
21 213 -0
22 213 -0
23 213 -0
24 213 -0
25 213 -0
26 213 -0
27 213 -0
28 213 -0
29 213 -1
30 213 -0
31 213 0
32 213 0
33 213 0
34 213 0
35 213 0
36 213 0
37 213 1
38 213 0
39 213 0
40 213 0
21 214 -0
22 214 -0
23 214 -0
24 214 -0
25 214 -0
26 214 -0
27 214 -0
28 214 -0
29 214 -0
30 214 -1
31 214 0
32 214 0
33 214 0
34 214 0
35 214 0
36 214 0
37 214 0
38 214 1
39 214 0
40 214 0
21 215 -0
22 215 -0
23 215 -0
24 215 -0
25 215 -0
26 215 -0
27 215 -0
28 215 -0
29 215 -0
30 215 -0
31 215 0
32 215 0
33 215 0
34 215 0
35 215 0
36 215 0
37 215 0
38 215 0
39 215 1
40 215 0
21 216 -0
22 216 -0
23 216 -0
24 216 -0
25 216 -0
26 216 -0
27 216 -0
28 216 -0
29 216 -0
30 216 -1
31 216 0
32 216 0
33 216 0
34 216 0
35 216 0
36 216 0
37 216 0
38 216 0
39 216 0
40 216 1
1 217 -1
2 217 -0
3 217 -0
4 217 -0
5 217 -0
6 217 -0
7 217 -0
8 217 -0
9 217 -0
10 217 -0
11 217 1
12 217 0
13 217 0
14 217 0
15 217 0
16 217 0
17 217 0
18 217 0
19 217 0
20 217 0
1 218 -0
2 218 -0
3 218 -0
4 218 -0
5 218 -0
6 218 -0
7 218 -0
8 218 -0
9 218 -0
10 218 -0
11 218 0
12 218 1
13 218 0
14 218 0
15 218 0
16 218 0
17 218 0
18 218 0
19 218 0
20 218 0
1 219 -0
2 219 -1
3 219 -0
4 219 -0
5 219 -0
6 219 -0
7 219 -0
8 219 -0
9 219 -0
10 219 -0
11 219 0
12 219 0
13 219 1
14 219 0
15 219 0
16 219 0
17 219 0
18 219 0
19 219 0
20 219 0
1 220 -0
2 220 -0
3 220 -0
4 220 -0
5 220 -0
6 220 -0
7 220 -0
8 220 -0
9 220 -0
10 220 -0
11 220 0
12 220 0
13 220 0
14 220 1
15 220 0
16 220 0
17 220 0
18 220 0
19 220 0
20 220 0
1 221 -0
2 221 -0
3 221 -1
4 221 -0
5 221 -0
6 221 -0
7 221 -0
8 221 -0
9 221 -0
10 221 -0
11 221 0
12 221 0
13 221 0
14 221 0
15 221 0
16 221 0
17 221 0
18 221 0
19 221 0
20 221 0
1 222 -0
2 222 -0
3 222 -0
4 222 -0
5 222 -0
6 222 -0
7 222 -0
8 222 -0
9 222 -0
10 222 -0
11 222 0
12 222 0
13 222 0
14 222 0
15 222 0
16 222 0
17 222 0
18 222 0
19 222 0
20 222 0
1 223 -0
2 223 -0
3 223 -0
4 223 -1
5 223 -0
6 223 -0
7 223 -0
8 223 -0
9 223 -0
10 223 -0
11 223 0
12 223 0
13 223 0
14 223 0
15 223 0
16 223 0
17 223 0
18 223 0
19 223 0
20 223 0
1 224 -0
2 224 -0
3 224 -0
4 224 -0
5 224 -0
6 224 -0
7 224 -0
8 224 -0
9 224 -0
10 224 -0
11 224 0
12 224 0
13 224 0
14 224 0
15 224 0
16 224 0
17 224 0
18 224 0
19 224 0
20 224 0
1 225 -1
2 225 -0
3 225 -0
4 225 -0
5 225 -0
6 225 -0
7 225 -0
8 225 -0
9 225 -0
10 225 -0
11 225 0
12 225 0
13 225 0
14 225 0
15 225 1
16 225 0
17 225 0
18 225 0
19 225 0
20 225 0
1 226 -0
2 226 -0
3 226 -0
4 226 -0
5 226 -0
6 226 -0
7 226 -0
8 226 -0
9 226 -0
10 226 -0
11 226 0
12 226 0
13 226 0
14 226 0
15 226 0
16 226 1
17 226 0
18 226 0
19 226 0
20 226 0
1 227 -0
2 227 -1
3 227 -0
4 227 -0
5 227 -0
6 227 -0
7 227 -0
8 227 -0
9 227 -0
10 227 -0
11 227 0
12 227 0
13 227 0
14 227 0
15 227 0
16 227 0
17 227 1
18 227 0
19 227 0
20 227 0
1 228 -0
2 228 -0
3 228 -0
4 228 -0
5 228 -0
6 228 -0
7 228 -0
8 228 -0
9 228 -0
10 228 -0
11 228 0
12 228 0
13 228 0
14 228 0
15 228 0
16 228 0
17 228 0
18 228 0
19 228 0
20 228 0
1 229 -0
2 229 -0
3 229 -1
4 229 -0
5 229 -0
6 229 -0
7 229 -0
8 229 -0
9 229 -0
10 229 -0
11 229 0
12 229 0
13 229 0
14 229 0
15 229 0
16 229 0
17 229 0
18 229 0
19 229 0
20 229 0
1 230 -0
2 230 -0
3 230 -0
4 230 -0
5 230 -0
6 230 -0
7 230 -0
8 230 -0
9 230 -0
10 230 -0
11 230 0
12 230 0
13 230 0
14 230 0
15 230 0
16 230 0
17 230 0
18 230 0
19 230 0
20 230 0
1 231 -0
2 231 -0
3 231 -0
4 231 -1
5 231 -0
6 231 -0
7 231 -0
8 231 -0
9 231 -0
10 231 -0
11 231 0
12 231 0
13 231 0
14 231 0
15 231 0
16 231 0
17 231 0
18 231 0
19 231 0
20 231 0
1 232 -0
2 232 -0
3 232 -0
4 232 -0
5 232 -1
6 232 -0
7 232 -0
8 232 -0
9 232 -0
10 232 -0
11 232 0
12 232 0
13 232 0
14 232 0
15 232 0
16 232 0
17 232 0
18 232 1
19 232 0
20 232 0
1 233 -0
2 233 -0
3 233 -0
4 233 -0
5 233 -0
6 233 -0
7 233 -0
8 233 -0
9 233 -0
10 233 -0
11 233 0
12 233 0
13 233 0
14 233 0
15 233 0
16 233 0
17 233 0
18 233 0
19 233 1
20 233 0
1 234 -0
2 234 -0
3 234 -0
4 234 -0
5 234 -0
6 234 -1
7 234 -0
8 234 -0
9 234 -0
10 234 -0
11 234 0
12 234 0
13 234 0
14 234 0
15 234 0
16 234 0
17 234 0
18 234 0
19 234 0
20 234 0
1 235 -0
2 235 -0
3 235 -0
4 235 -0
5 235 -0
6 235 -0
7 235 -0
8 235 -0
9 235 -0
10 235 -0
11 235 0
12 235 0
13 235 0
14 235 0
15 235 0
16 235 0
17 235 0
18 235 0
19 235 0
20 235 0
1 236 -0
2 236 -0
3 236 -0
4 236 -0
5 236 -0
6 236 -0
7 236 -1
8 236 -0
9 236 -0
10 236 -0
11 236 0
12 236 0
13 236 0
14 236 0
15 236 0
16 236 0
17 236 0
18 236 0
19 236 0
20 236 0
1 237 -0
2 237 -0
3 237 -0
4 237 -0
5 237 -0
6 237 -0
7 237 -0
8 237 -0
9 237 -0
10 237 -0
11 237 0
12 237 0
13 237 0
14 237 0
15 237 0
16 237 0
17 237 0
18 237 0
19 237 0
20 237 0
1 238 -0
2 238 -0
3 238 -0
4 238 -0
5 238 -1
6 238 -0
7 238 -0
8 238 -0
9 238 -0
10 238 -0
11 238 0
12 238 0
13 238 0
14 238 0
15 238 0
16 238 0
17 238 0
18 238 0
19 238 0
20 238 1
1 239 -0
2 239 -0
3 239 -0
4 239 -0
5 239 -0
6 239 -0
7 239 -0
8 239 -0
9 239 -0
10 239 -0
11 239 0
12 239 0
13 239 0
14 239 0
15 239 0
16 239 0
17 239 0
18 239 0
19 239 0
20 239 0
1 240 -0
2 240 -0
3 240 -0
4 240 -0
5 240 -0
6 240 -1
7 240 -0
8 240 -0
9 240 -0
10 240 -0
11 240 0
12 240 0
13 240 0
14 240 0
15 240 0
16 240 0
17 240 0
18 240 0
19 240 0
20 240 0
1 241 -0
2 241 -0
3 241 -0
4 241 -0
5 241 -0
6 241 -0
7 241 -0
8 241 -0
9 241 -0
10 241 -0
11 241 0
12 241 0
13 241 0
14 241 0
15 241 0
16 241 0
17 241 0
18 241 0
19 241 0
20 241 0
1 242 -0
2 242 -0
3 242 -0
4 242 -0
5 242 -0
6 242 -0
7 242 -1
8 242 -0
9 242 -0
10 242 -0
11 242 0
12 242 0
13 242 0
14 242 0
15 242 0
16 242 0
17 242 0
18 242 0
19 242 0
20 242 0
1 243 -0
2 243 -0
3 243 -0
4 243 -0
5 243 -0
6 243 -0
7 243 -0
8 243 -1
9 243 -0
10 243 -0
11 243 1
12 243 0
13 243 0
14 243 0
15 243 0
16 243 0
17 243 0
18 243 0
19 243 0
20 243 0
1 244 -0
2 244 -0
3 244 -0
4 244 -0
5 244 -0
6 244 -0
7 244 -0
8 244 -0
9 244 -0
10 244 -0
11 244 0
12 244 1
13 244 0
14 244 0
15 244 0
16 244 0
17 244 0
18 244 0
19 244 0
20 244 0
1 245 -0
2 245 -0
3 245 -0
4 245 -0
5 245 -0
6 245 -0
7 245 -0
8 245 -0
9 245 -1
10 245 -0
11 245 0
12 245 0
13 245 1
14 245 0
15 245 0
16 245 0
17 245 0
18 245 0
19 245 0
20 245 0
1 246 -0
2 246 -0
3 246 -0
4 246 -0
5 246 -0
6 246 -0
7 246 -0
8 246 -0
9 246 -0
10 246 -0
11 246 0
12 246 0
13 246 0
14 246 1
15 246 0
16 246 0
17 246 0
18 246 0
19 246 0
20 246 0
1 247 -0
2 247 -0
3 247 -0
4 247 -0
5 247 -0
6 247 -0
7 247 -0
8 247 -1
9 247 -0
10 247 -0
11 247 0
12 247 0
13 247 0
14 247 0
15 247 1
16 247 0
17 247 0
18 247 0
19 247 0
20 247 0
1 248 -0
2 248 -0
3 248 -0
4 248 -0
5 248 -0
6 248 -0
7 248 -0
8 248 -0
9 248 -0
10 248 -0
11 248 0
12 248 0
13 248 0
14 248 0
15 248 0
16 248 1
17 248 0
18 248 0
19 248 0
20 248 0
1 249 -0
2 249 -0
3 249 -0
4 249 -0
5 249 -0
6 249 -0
7 249 -0
8 249 -0
9 249 -1
10 249 -0
11 249 0
12 249 0
13 249 0
14 249 0
15 249 0
16 249 0
17 249 1
18 249 0
19 249 0
20 249 0
1 250 -0
2 250 -0
3 250 -0
4 250 -0
5 250 -0
6 250 -0
7 250 -0
8 250 -0
9 250 -0
10 250 -1
11 250 0
12 250 0
13 250 0
14 250 0
15 250 0
16 250 0
17 250 0
18 250 1
19 250 0
20 250 0
1 251 -0
2 251 -0
3 251 -0
4 251 -0
5 251 -0
6 251 -0
7 251 -0
8 251 -0
9 251 -0
10 251 -0
11 251 0
12 251 0
13 251 0
14 251 0
15 251 0
16 251 0
17 251 0
18 251 0
19 251 1
20 251 0
1 252 -0
2 252 -0
3 252 -0
4 252 -0
5 252 -0
6 252 -0
7 252 -0
8 252 -0
9 252 -0
10 252 -1
11 252 0
12 252 0
13 252 0
14 252 0
15 252 0
16 252 0
17 252 0
18 252 0
19 252 0
20 252 1
31 253 -1
32 253 -0
33 253 -0
34 253 -0
35 253 -0
36 253 -0
37 253 -0
38 253 -0
39 253 -0
40 253 -0
41 253 1
42 253 0
43 253 0
44 253 0
45 253 0
46 253 0
47 253 0
48 253 0
49 253 0
50 253 0
31 254 -0
32 254 -0
33 254 -0
34 254 -0
35 254 -0
36 254 -0
37 254 -0
38 254 -0
39 254 -0
40 254 -0
41 254 0
42 254 1
43 254 0
44 254 0
45 254 0
46 254 0
47 254 0
48 254 0
49 254 0
50 254 0
31 255 -0
32 255 -1
33 255 -0
34 255 -0
35 255 -0
36 255 -0
37 255 -0
38 255 -0
39 255 -0
40 255 -0
41 255 0
42 255 0
43 255 1
44 255 0
45 255 0
46 255 0
47 255 0
48 255 0
49 255 0
50 255 0
31 256 -0
32 256 -0
33 256 -0
34 256 -0
35 256 -0
36 256 -0
37 256 -0
38 256 -0
39 256 -0
40 256 -0
41 256 0
42 256 0
43 256 0
44 256 1
45 256 0
46 256 0
47 256 0
48 256 0
49 256 0
50 256 0
31 257 -0
32 257 -0
33 257 -1
34 257 -0
35 257 -0
36 257 -0
37 257 -0
38 257 -0
39 257 -0
40 257 -0
41 257 0
42 257 0
43 257 0
44 257 0
45 257 0
46 257 0
47 257 0
48 257 0
49 257 0
50 257 0
31 258 -0
32 258 -0
33 258 -0
34 258 -0
35 258 -0
36 258 -0
37 258 -0
38 258 -0
39 258 -0
40 258 -0
41 258 0
42 258 0
43 258 0
44 258 0
45 258 0
46 258 0
47 258 0
48 258 0
49 258 0
50 258 0
31 259 -0
32 259 -0
33 259 -0
34 259 -1
35 259 -0
36 259 -0
37 259 -0
38 259 -0
39 259 -0
40 259 -0
41 259 0
42 259 0
43 259 0
44 259 0
45 259 0
46 259 0
47 259 0
48 259 0
49 259 0
50 259 0
31 260 -0
32 260 -0
33 260 -0
34 260 -0
35 260 -0
36 260 -0
37 260 -0
38 260 -0
39 260 -0
40 260 -0
41 260 0
42 260 0
43 260 0
44 260 0
45 260 0
46 260 0
47 260 0
48 260 0
49 260 0
50 260 0
31 261 -1
32 261 -0
33 261 -0
34 261 -0
35 261 -0
36 261 -0
37 261 -0
38 261 -0
39 261 -0
40 261 -0
41 261 0
42 261 0
43 261 0
44 261 0
45 261 1
46 261 0
47 261 0
48 261 0
49 261 0
50 261 0
31 262 -0
32 262 -0
33 262 -0
34 262 -0
35 262 -0
36 262 -0
37 262 -0
38 262 -0
39 262 -0
40 262 -0
41 262 0
42 262 0
43 262 0
44 262 0
45 262 0
46 262 1
47 262 0
48 262 0
49 262 0
50 262 0
31 263 -0
32 263 -1
33 263 -0
34 263 -0
35 263 -0
36 263 -0
37 263 -0
38 263 -0
39 263 -0
40 263 -0
41 263 0
42 263 0
43 263 0
44 263 0
45 263 0
46 263 0
47 263 1
48 263 0
49 263 0
50 263 0
31 264 -0
32 264 -0
33 264 -0
34 264 -0
35 264 -0
36 264 -0
37 264 -0
38 264 -0
39 264 -0
40 264 -0
41 264 0
42 264 0
43 264 0
44 264 0
45 264 0
46 264 0
47 264 0
48 264 0
49 264 0
50 264 0
31 265 -0
32 265 -0
33 265 -1
34 265 -0
35 265 -0
36 265 -0
37 265 -0
38 265 -0
39 265 -0
40 265 -0
41 265 0
42 265 0
43 265 0
44 265 0
45 265 0
46 265 0
47 265 0
48 265 0
49 265 0
50 265 0
31 266 -0
32 266 -0
33 266 -0
34 266 -0
35 266 -0
36 266 -0
37 266 -0
38 266 -0
39 266 -0
40 266 -0
41 266 0
42 266 0
43 266 0
44 266 0
45 266 0
46 266 0
47 266 0
48 266 0
49 266 0
50 266 0
31 267 -0
32 267 -0
33 267 -0
34 267 -1
35 267 -0
36 267 -0
37 267 -0
38 267 -0
39 267 -0
40 267 -0
41 267 0
42 267 0
43 267 0
44 267 0
45 267 0
46 267 0
47 267 0
48 267 0
49 267 0
50 267 0
31 268 -0
32 268 -0
33 268 -0
34 268 -0
35 268 -1
36 268 -0
37 268 -0
38 268 -0
39 268 -0
40 268 -0
41 268 0
42 268 0
43 268 0
44 268 0
45 268 0
46 268 0
47 268 0
48 268 1
49 268 0
50 268 0
31 269 -0
32 269 -0
33 269 -0
34 269 -0
35 269 -0
36 269 -0
37 269 -0
38 269 -0
39 269 -0
40 269 -0
41 269 0
42 269 0
43 269 0
44 269 0
45 269 0
46 269 0
47 269 0
48 269 0
49 269 1
50 269 0
31 270 -0
32 270 -0
33 270 -0
34 270 -0
35 270 -0
36 270 -1
37 270 -0
38 270 -0
39 270 -0
40 270 -0
41 270 0
42 270 0
43 270 0
44 270 0
45 270 0
46 270 0
47 270 0
48 270 0
49 270 0
50 270 0
31 271 -0
32 271 -0
33 271 -0
34 271 -0
35 271 -0
36 271 -0
37 271 -0
38 271 -0
39 271 -0
40 271 -0
41 271 0
42 271 0
43 271 0
44 271 0
45 271 0
46 271 0
47 271 0
48 271 0
49 271 0
50 271 0
31 272 -0
32 272 -0
33 272 -0
34 272 -0
35 272 -0
36 272 -0
37 272 -1
38 272 -0
39 272 -0
40 272 -0
41 272 0
42 272 0
43 272 0
44 272 0
45 272 0
46 272 0
47 272 0
48 272 0
49 272 0
50 272 0
31 273 -0
32 273 -0
33 273 -0
34 273 -0
35 273 -0
36 273 -0
37 273 -0
38 273 -0
39 273 -0
40 273 -0
41 273 0
42 273 0
43 273 0
44 273 0
45 273 0
46 273 0
47 273 0
48 273 0
49 273 0
50 273 0
31 274 -0
32 274 -0
33 274 -0
34 274 -0
35 274 -1
36 274 -0
37 274 -0
38 274 -0
39 274 -0
40 274 -0
41 274 0
42 274 0
43 274 0
44 274 0
45 274 0
46 274 0
47 274 0
48 274 0
49 274 0
50 274 1
31 275 -0
32 275 -0
33 275 -0
34 275 -0
35 275 -0
36 275 -0
37 275 -0
38 275 -0
39 275 -0
40 275 -0
41 275 0
42 275 0
43 275 0
44 275 0
45 275 0
46 275 0
47 275 0
48 275 0
49 275 0
50 275 0
31 276 -0
32 276 -0
33 276 -0
34 276 -0
35 276 -0
36 276 -1
37 276 -0
38 276 -0
39 276 -0
40 276 -0
41 276 0
42 276 0
43 276 0
44 276 0
45 276 0
46 276 0
47 276 0
48 276 0
49 276 0
50 276 0
31 277 -0
32 277 -0
33 277 -0
34 277 -0
35 277 -0
36 277 -0
37 277 -0
38 277 -0
39 277 -0
40 277 -0
41 277 0
42 277 0
43 277 0
44 277 0
45 277 0
46 277 0
47 277 0
48 277 0
49 277 0
50 277 0
31 278 -0
32 278 -0
33 278 -0
34 278 -0
35 278 -0
36 278 -0
37 278 -1
38 278 -0
39 278 -0
40 278 -0
41 278 0
42 278 0
43 278 0
44 278 0
45 278 0
46 278 0
47 278 0
48 278 0
49 278 0
50 278 0
31 279 -0
32 279 -0
33 279 -0
34 279 -0
35 279 -0
36 279 -0
37 279 -0
38 279 -1
39 279 -0
40 279 -0
41 279 1
42 279 0
43 279 0
44 279 0
45 279 0
46 279 0
47 279 0
48 279 0
49 279 0
50 279 0
31 280 -0
32 280 -0
33 280 -0
34 280 -0
35 280 -0
36 280 -0
37 280 -0
38 280 -0
39 280 -0
40 280 -0
41 280 0
42 280 1
43 280 0
44 280 0
45 280 0
46 280 0
47 280 0
48 280 0
49 280 0
50 280 0
31 281 -0
32 281 -0
33 281 -0
34 281 -0
35 281 -0
36 281 -0
37 281 -0
38 281 -0
39 281 -1
40 281 -0
41 281 0
42 281 0
43 281 1
44 281 0
45 281 0
46 281 0
47 281 0
48 281 0
49 281 0
50 281 0
31 282 -0
32 282 -0
33 282 -0
34 282 -0
35 282 -0
36 282 -0
37 282 -0
38 282 -0
39 282 -0
40 282 -0
41 282 0
42 282 0
43 282 0
44 282 1
45 282 0
46 282 0
47 282 0
48 282 0
49 282 0
50 282 0
31 283 -0
32 283 -0
33 283 -0
34 283 -0
35 283 -0
36 283 -0
37 283 -0
38 283 -1
39 283 -0
40 283 -0
41 283 0
42 283 0
43 283 0
44 283 0
45 283 1
46 283 0
47 283 0
48 283 0
49 283 0
50 283 0
31 284 -0
32 284 -0
33 284 -0
34 284 -0
35 284 -0
36 284 -0
37 284 -0
38 284 -0
39 284 -0
40 284 -0
41 284 0
42 284 0
43 284 0
44 284 0
45 284 0
46 284 1
47 284 0
48 284 0
49 284 0
50 284 0
31 285 -0
32 285 -0
33 285 -0
34 285 -0
35 285 -0
36 285 -0
37 285 -0
38 285 -0
39 285 -1
40 285 -0
41 285 0
42 285 0
43 285 0
44 285 0
45 285 0
46 285 0
47 285 1
48 285 0
49 285 0
50 285 0
31 286 -0
32 286 -0
33 286 -0
34 286 -0
35 286 -0
36 286 -0
37 286 -0
38 286 -0
39 286 -0
40 286 -1
41 286 0
42 286 0
43 286 0
44 286 0
45 286 0
46 286 0
47 286 0
48 286 1
49 286 0
50 286 0
31 287 -0
32 287 -0
33 287 -0
34 287 -0
35 287 -0
36 287 -0
37 287 -0
38 287 -0
39 287 -0
40 287 -0
41 287 0
42 287 0
43 287 0
44 287 0
45 287 0
46 287 0
47 287 0
48 287 0
49 287 1
50 287 0
31 288 -0
32 288 -0
33 288 -0
34 288 -0
35 288 -0
36 288 -0
37 288 -0
38 288 -0
39 288 -0
40 288 -1
41 288 0
42 288 0
43 288 0
44 288 0
45 288 0
46 288 0
47 288 0
48 288 0
49 288 0
50 288 1
11 289 -1
12 289 -0
13 289 -0
14 289 -0
15 289 -0
16 289 -0
17 289 -0
18 289 -0
19 289 -0
20 289 -0
21 289 1
22 289 0
23 289 0
24 289 0
25 289 0
26 289 0
27 289 0
28 289 0
29 289 0
30 289 0
11 290 -0
12 290 -0
13 290 -0
14 290 -0
15 290 -0
16 290 -0
17 290 -0
18 290 -0
19 290 -0
20 290 -0
21 290 0
22 290 1
23 290 0
24 290 0
25 290 0
26 290 0
27 290 0
28 290 0
29 290 0
30 290 0
11 291 -0
12 291 -1
13 291 -0
14 291 -0
15 291 -0
16 291 -0
17 291 -0
18 291 -0
19 291 -0
20 291 -0
21 291 0
22 291 0
23 291 1
24 291 0
25 291 0
26 291 0
27 291 0
28 291 0
29 291 0
30 291 0
11 292 -0
12 292 -0
13 292 -0
14 292 -0
15 292 -0
16 292 -0
17 292 -0
18 292 -0
19 292 -0
20 292 -0
21 292 0
22 292 0
23 292 0
24 292 1
25 292 0
26 292 0
27 292 0
28 292 0
29 292 0
30 292 0
11 293 -0
12 293 -0
13 293 -1
14 293 -0
15 293 -0
16 293 -0
17 293 -0
18 293 -0
19 293 -0
20 293 -0
21 293 0
22 293 0
23 293 0
24 293 0
25 293 0
26 293 0
27 293 0
28 293 0
29 293 0
30 293 0
11 294 -0
12 294 -0
13 294 -0
14 294 -0
15 294 -0
16 294 -0
17 294 -0
18 294 -0
19 294 -0
20 294 -0
21 294 0
22 294 0
23 294 0
24 294 0
25 294 0
26 294 0
27 294 0
28 294 0
29 294 0
30 294 0
11 295 -0
12 295 -0
13 295 -0
14 295 -1
15 295 -0
16 295 -0
17 295 -0
18 295 -0
19 295 -0
20 295 -0
21 295 0
22 295 0
23 295 0
24 295 0
25 295 0
26 295 0
27 295 0
28 295 0
29 295 0
30 295 0
11 296 -0
12 296 -0
13 296 -0
14 296 -0
15 296 -0
16 296 -0
17 296 -0
18 296 -0
19 296 -0
20 296 -0
21 296 0
22 296 0
23 296 0
24 296 0
25 296 0
26 296 0
27 296 0
28 296 0
29 296 0
30 296 0
11 297 -1
12 297 -0
13 297 -0
14 297 -0
15 297 -0
16 297 -0
17 297 -0
18 297 -0
19 297 -0
20 297 -0
21 297 0
22 297 0
23 297 0
24 297 0
25 297 1
26 297 0
27 297 0
28 297 0
29 297 0
30 297 0
11 298 -0
12 298 -0
13 298 -0
14 298 -0
15 298 -0
16 298 -0
17 298 -0
18 298 -0
19 298 -0
20 298 -0
21 298 0
22 298 0
23 298 0
24 298 0
25 298 0
26 298 1
27 298 0
28 298 0
29 298 0
30 298 0
11 299 -0
12 299 -1
13 299 -0
14 299 -0
15 299 -0
16 299 -0
17 299 -0
18 299 -0
19 299 -0
20 299 -0
21 299 0
22 299 0
23 299 0
24 299 0
25 299 0
26 299 0
27 299 1
28 299 0
29 299 0
30 299 0
11 300 -0
12 300 -0
13 300 -0
14 300 -0
15 300 -0
16 300 -0
17 300 -0
18 300 -0
19 300 -0
20 300 -0
21 300 0
22 300 0
23 300 0
24 300 0
25 300 0
26 300 0
27 300 0
28 300 0
29 300 0
30 300 0
11 301 -0
12 301 -0
13 301 -1
14 301 -0
15 301 -0
16 301 -0
17 301 -0
18 301 -0
19 301 -0
20 301 -0
21 301 0
22 301 0
23 301 0
24 301 0
25 301 0
26 301 0
27 301 0
28 301 0
29 301 0
30 301 0
11 302 -0
12 302 -0
13 302 -0
14 302 -0
15 302 -0
16 302 -0
17 302 -0
18 302 -0
19 302 -0
20 302 -0
21 302 0
22 302 0
23 302 0
24 302 0
25 302 0
26 302 0
27 302 0
28 302 0
29 302 0
30 302 0
11 303 -0
12 303 -0
13 303 -0
14 303 -1
15 303 -0
16 303 -0
17 303 -0
18 303 -0
19 303 -0
20 303 -0
21 303 0
22 303 0
23 303 0
24 303 0
25 303 0
26 303 0
27 303 0
28 303 0
29 303 0
30 303 0
11 304 -0
12 304 -0
13 304 -0
14 304 -0
15 304 -1
16 304 -0
17 304 -0
18 304 -0
19 304 -0
20 304 -0
21 304 0
22 304 0
23 304 0
24 304 0
25 304 0
26 304 0
27 304 0
28 304 1
29 304 0
30 304 0
11 305 -0
12 305 -0
13 305 -0
14 305 -0
15 305 -0
16 305 -0
17 305 -0
18 305 -0
19 305 -0
20 305 -0
21 305 0
22 305 0
23 305 0
24 305 0
25 305 0
26 305 0
27 305 0
28 305 0
29 305 1
30 305 0
11 306 -0
12 306 -0
13 306 -0
14 306 -0
15 306 -0
16 306 -1
17 306 -0
18 306 -0
19 306 -0
20 306 -0
21 306 0
22 306 0
23 306 0
24 306 0
25 306 0
26 306 0
27 306 0
28 306 0
29 306 0
30 306 0
11 307 -0
12 307 -0
13 307 -0
14 307 -0
15 307 -0
16 307 -0
17 307 -0
18 307 -0
19 307 -0
20 307 -0
21 307 0
22 307 0
23 307 0
24 307 0
25 307 0
26 307 0
27 307 0
28 307 0
29 307 0
30 307 0
11 308 -0
12 308 -0
13 308 -0
14 308 -0
15 308 -0
16 308 -0
17 308 -1
18 308 -0
19 308 -0
20 308 -0
21 308 0
22 308 0
23 308 0
24 308 0
25 308 0
26 308 0
27 308 0
28 308 0
29 308 0
30 308 0
11 309 -0
12 309 -0
13 309 -0
14 309 -0
15 309 -0
16 309 -0
17 309 -0
18 309 -0
19 309 -0
20 309 -0
21 309 0
22 309 0
23 309 0
24 309 0
25 309 0
26 309 0
27 309 0
28 309 0
29 309 0
30 309 0
11 310 -0
12 310 -0
13 310 -0
14 310 -0
15 310 -1
16 310 -0
17 310 -0
18 310 -0
19 310 -0
20 310 -0
21 310 0
22 310 0
23 310 0
24 310 0
25 310 0
26 310 0
27 310 0
28 310 0
29 310 0
30 310 1
11 311 -0
12 311 -0
13 311 -0
14 311 -0
15 311 -0
16 311 -0
17 311 -0
18 311 -0
19 311 -0
20 311 -0
21 311 0
22 311 0
23 311 0
24 311 0
25 311 0
26 311 0
27 311 0
28 311 0
29 311 0
30 311 0
11 312 -0
12 312 -0
13 312 -0
14 312 -0
15 312 -0
16 312 -1
17 312 -0
18 312 -0
19 312 -0
20 312 -0
21 312 0
22 312 0
23 312 0
24 312 0
25 312 0
26 312 0
27 312 0
28 312 0
29 312 0
30 312 0
11 313 -0
12 313 -0
13 313 -0
14 313 -0
15 313 -0
16 313 -0
17 313 -0
18 313 -0
19 313 -0
20 313 -0
21 313 0
22 313 0
23 313 0
24 313 0
25 313 0
26 313 0
27 313 0
28 313 0
29 313 0
30 313 0
11 314 -0
12 314 -0
13 314 -0
14 314 -0
15 314 -0
16 314 -0
17 314 -1
18 314 -0
19 314 -0
20 314 -0
21 314 0
22 314 0
23 314 0
24 314 0
25 314 0
26 314 0
27 314 0
28 314 0
29 314 0
30 314 0
11 315 -0
12 315 -0
13 315 -0
14 315 -0
15 315 -0
16 315 -0
17 315 -0
18 315 -1
19 315 -0
20 315 -0
21 315 1
22 315 0
23 315 0
24 315 0
25 315 0
26 315 0
27 315 0
28 315 0
29 315 0
30 315 0
11 316 -0
12 316 -0
13 316 -0
14 316 -0
15 316 -0
16 316 -0
17 316 -0
18 316 -0
19 316 -0
20 316 -0
21 316 0
22 316 1
23 316 0
24 316 0
25 316 0
26 316 0
27 316 0
28 316 0
29 316 0
30 316 0
11 317 -0
12 317 -0
13 317 -0
14 317 -0
15 317 -0
16 317 -0
17 317 -0
18 317 -0
19 317 -1
20 317 -0
21 317 0
22 317 0
23 317 1
24 317 0
25 317 0
26 317 0
27 317 0
28 317 0
29 317 0
30 317 0
11 318 -0
12 318 -0
13 318 -0
14 318 -0
15 318 -0
16 318 -0
17 318 -0
18 318 -0
19 318 -0
20 318 -0
21 318 0
22 318 0
23 318 0
24 318 1
25 318 0
26 318 0
27 318 0
28 318 0
29 318 0
30 318 0
11 319 -0
12 319 -0
13 319 -0
14 319 -0
15 319 -0
16 319 -0
17 319 -0
18 319 -1
19 319 -0
20 319 -0
21 319 0
22 319 0
23 319 0
24 319 0
25 319 1
26 319 0
27 319 0
28 319 0
29 319 0
30 319 0
11 320 -0
12 320 -0
13 320 -0
14 320 -0
15 320 -0
16 320 -0
17 320 -0
18 320 -0
19 320 -0
20 320 -0
21 320 0
22 320 0
23 320 0
24 320 0
25 320 0
26 320 1
27 320 0
28 320 0
29 320 0
30 320 0
11 321 -0
12 321 -0
13 321 -0
14 321 -0
15 321 -0
16 321 -0
17 321 -0
18 321 -0
19 321 -1
20 321 -0
21 321 0
22 321 0
23 321 0
24 321 0
25 321 0
26 321 0
27 321 1
28 321 0
29 321 0
30 321 0
11 322 -0
12 322 -0
13 322 -0
14 322 -0
15 322 -0
16 322 -0
17 322 -0
18 322 -0
19 322 -0
20 322 -1
21 322 0
22 322 0
23 322 0
24 322 0
25 322 0
26 322 0
27 322 0
28 322 1
29 322 0
30 322 0
11 323 -0
12 323 -0
13 323 -0
14 323 -0
15 323 -0
16 323 -0
17 323 -0
18 323 -0
19 323 -0
20 323 -0
21 323 0
22 323 0
23 323 0
24 323 0
25 323 0
26 323 0
27 323 0
28 323 0
29 323 1
30 323 0
11 324 -0
12 324 -0
13 324 -0
14 324 -0
15 324 -0
16 324 -0
17 324 -0
18 324 -0
19 324 -0
20 324 -1
21 324 0
22 324 0
23 324 0
24 324 0
25 324 0
26 324 0
27 324 0
28 324 0
29 324 0
30 324 1
1 325 1
2 325 0
3 325 0
4 325 0
5 325 0
6 325 0
7 325 0
8 325 0
9 325 0
10 325 0
91 325 -1
92 325 -0
93 325 -0
94 325 -0
95 325 -0
96 325 -0
97 325 -0
98 325 -0
99 325 -0
100 325 -0
101 325 1
1 326 0
2 326 1
3 326 0
4 326 0
5 326 0
6 326 0
7 326 0
8 326 0
9 326 0
10 326 0
91 326 -0
92 326 -0
93 326 -0
94 326 -0
95 326 -0
96 326 -0
97 326 -0
98 326 -0
99 326 -0
100 326 -0
101 326 0
1 327 0
2 327 0
3 327 1
4 327 0
5 327 0
6 327 0
7 327 0
8 327 0
9 327 0
10 327 0
91 327 -0
92 327 -1
93 327 -0
94 327 -0
95 327 -0
96 327 -0
97 327 -0
98 327 -0
99 327 -0
100 327 -0
101 327 0
1 328 0
2 328 0
3 328 0
4 328 1
5 328 0
6 328 0
7 328 0
8 328 0
9 328 0
10 328 0
91 328 -0
92 328 -0
93 328 -0
94 328 -0
95 328 -0
96 328 -0
97 328 -0
98 328 -0
99 328 -0
100 328 -0
101 328 0
1 329 0
2 329 0
3 329 0
4 329 0
5 329 0
6 329 0
7 329 0
8 329 0
9 329 0
10 329 0
91 329 -0
92 329 -0
93 329 -1
94 329 -0
95 329 -0
96 329 -0
97 329 -0
98 329 -0
99 329 -0
100 329 -0
101 329 0
1 330 0
2 330 0
3 330 0
4 330 0
5 330 0
6 330 0
7 330 0
8 330 0
9 330 0
10 330 0
91 330 -0
92 330 -0
93 330 -0
94 330 -0
95 330 -0
96 330 -0
97 330 -0
98 330 -0
99 330 -0
100 330 -0
101 330 0
1 331 0
2 331 0
3 331 0
4 331 0
5 331 0
6 331 0
7 331 0
8 331 0
9 331 0
10 331 0
91 331 -0
92 331 -0
93 331 -0
94 331 -1
95 331 -0
96 331 -0
97 331 -0
98 331 -0
99 331 -0
100 331 -0
101 331 0
1 332 0
2 332 0
3 332 0
4 332 0
5 332 0
6 332 0
7 332 0
8 332 0
9 332 0
10 332 0
91 332 -0
92 332 -0
93 332 -0
94 332 -0
95 332 -0
96 332 -0
97 332 -0
98 332 -0
99 332 -0
100 332 -0
101 332 0
1 333 0
2 333 0
3 333 0
4 333 0
5 333 1
6 333 0
7 333 0
8 333 0
9 333 0
10 333 0
91 333 -1
92 333 -0
93 333 -0
94 333 -0
95 333 -0
96 333 -0
97 333 -0
98 333 -0
99 333 -0
100 333 -0
101 333 1
1 334 0
2 334 0
3 334 0
4 334 0
5 334 0
6 334 1
7 334 0
8 334 0
9 334 0
10 334 0
91 334 -0
92 334 -0
93 334 -0
94 334 -0
95 334 -0
96 334 -0
97 334 -0
98 334 -0
99 334 -0
100 334 -0
101 334 0
1 335 0
2 335 0
3 335 0
4 335 0
5 335 0
6 335 0
7 335 1
8 335 0
9 335 0
10 335 0
91 335 -0
92 335 -1
93 335 -0
94 335 -0
95 335 -0
96 335 -0
97 335 -0
98 335 -0
99 335 -0
100 335 -0
101 335 0
1 336 0
2 336 0
3 336 0
4 336 0
5 336 0
6 336 0
7 336 0
8 336 0
9 336 0
10 336 0
91 336 -0
92 336 -0
93 336 -0
94 336 -0
95 336 -0
96 336 -0
97 336 -0
98 336 -0
99 336 -0
100 336 -0
101 336 0
1 337 0
2 337 0
3 337 0
4 337 0
5 337 0
6 337 0
7 337 0
8 337 0
9 337 0
10 337 0
91 337 -0
92 337 -0
93 337 -1
94 337 -0
95 337 -0
96 337 -0
97 337 -0
98 337 -0
99 337 -0
100 337 -0
101 337 0
1 338 0
2 338 0
3 338 0
4 338 0
5 338 0
6 338 0
7 338 0
8 338 0
9 338 0
10 338 0
91 338 -0
92 338 -0
93 338 -0
94 338 -0
95 338 -0
96 338 -0
97 338 -0
98 338 -0
99 338 -0
100 338 -0
101 338 0
1 339 0
2 339 0
3 339 0
4 339 0
5 339 0
6 339 0
7 339 0
8 339 0
9 339 0
10 339 0
91 339 -0
92 339 -0
93 339 -0
94 339 -1
95 339 -0
96 339 -0
97 339 -0
98 339 -0
99 339 -0
100 339 -0
101 339 0
1 340 0
2 340 0
3 340 0
4 340 0
5 340 0
6 340 0
7 340 0
8 340 1
9 340 0
10 340 0
91 340 -0
92 340 -0
93 340 -0
94 340 -0
95 340 -1
96 340 -0
97 340 -0
98 340 -0
99 340 -0
100 340 -0
101 340 1
1 341 0
2 341 0
3 341 0
4 341 0
5 341 0
6 341 0
7 341 0
8 341 0
9 341 1
10 341 0
91 341 -0
92 341 -0
93 341 -0
94 341 -0
95 341 -0
96 341 -0
97 341 -0
98 341 -0
99 341 -0
100 341 -0
101 341 0
1 342 0
2 342 0
3 342 0
4 342 0
5 342 0
6 342 0
7 342 0
8 342 0
9 342 0
10 342 0
91 342 -0
92 342 -0
93 342 -0
94 342 -0
95 342 -0
96 342 -1
97 342 -0
98 342 -0
99 342 -0
100 342 -0
101 342 0
1 343 0
2 343 0
3 343 0
4 343 0
5 343 0
6 343 0
7 343 0
8 343 0
9 343 0
10 343 0
91 343 -0
92 343 -0
93 343 -0
94 343 -0
95 343 -0
96 343 -0
97 343 -0
98 343 -0
99 343 -0
100 343 -0
101 343 0
1 344 0
2 344 0
3 344 0
4 344 0
5 344 0
6 344 0
7 344 0
8 344 0
9 344 0
10 344 0
91 344 -0
92 344 -0
93 344 -0
94 344 -0
95 344 -0
96 344 -0
97 344 -1
98 344 -0
99 344 -0
100 344 -0
101 344 0
1 345 0
2 345 0
3 345 0
4 345 0
5 345 0
6 345 0
7 345 0
8 345 0
9 345 0
10 345 0
91 345 -0
92 345 -0
93 345 -0
94 345 -0
95 345 -0
96 345 -0
97 345 -0
98 345 -0
99 345 -0
100 345 -0
101 345 0
1 346 0
2 346 0
3 346 0
4 346 0
5 346 0
6 346 0
7 346 0
8 346 0
9 346 0
10 346 1
91 346 -0
92 346 -0
93 346 -0
94 346 -0
95 346 -1
96 346 -0
97 346 -0
98 346 -0
99 346 -0
100 346 -0
101 346 1
1 347 0
2 347 0
3 347 0
4 347 0
5 347 0
6 347 0
7 347 0
8 347 0
9 347 0
10 347 0
91 347 -0
92 347 -0
93 347 -0
94 347 -0
95 347 -0
96 347 -0
97 347 -0
98 347 -0
99 347 -0
100 347 -0
101 347 0
1 348 0
2 348 0
3 348 0
4 348 0
5 348 0
6 348 0
7 348 0
8 348 0
9 348 0
10 348 0
91 348 -0
92 348 -0
93 348 -0
94 348 -0
95 348 -0
96 348 -1
97 348 -0
98 348 -0
99 348 -0
100 348 -0
101 348 0
1 349 0
2 349 0
3 349 0
4 349 0
5 349 0
6 349 0
7 349 0
8 349 0
9 349 0
10 349 0
91 349 -0
92 349 -0
93 349 -0
94 349 -0
95 349 -0
96 349 -0
97 349 -0
98 349 -0
99 349 -0
100 349 -0
101 349 0
1 350 0
2 350 0
3 350 0
4 350 0
5 350 0
6 350 0
7 350 0
8 350 0
9 350 0
10 350 0
91 350 -0
92 350 -0
93 350 -0
94 350 -0
95 350 -0
96 350 -0
97 350 -1
98 350 -0
99 350 -0
100 350 -0
101 350 0
1 351 1
2 351 0
3 351 0
4 351 0
5 351 0
6 351 0
7 351 0
8 351 0
9 351 0
10 351 0
91 351 -0
92 351 -0
93 351 -0
94 351 -0
95 351 -0
96 351 -0
97 351 -0
98 351 -1
99 351 -0
100 351 -0
101 351 1
1 352 0
2 352 1
3 352 0
4 352 0
5 352 0
6 352 0
7 352 0
8 352 0
9 352 0
10 352 0
91 352 -0
92 352 -0
93 352 -0
94 352 -0
95 352 -0
96 352 -0
97 352 -0
98 352 -0
99 352 -0
100 352 -0
101 352 0
1 353 0
2 353 0
3 353 1
4 353 0
5 353 0
6 353 0
7 353 0
8 353 0
9 353 0
10 353 0
91 353 -0
92 353 -0
93 353 -0
94 353 -0
95 353 -0
96 353 -0
97 353 -0
98 353 -0
99 353 -1
100 353 -0
101 353 0
1 354 0
2 354 0
3 354 0
4 354 1
5 354 0
6 354 0
7 354 0
8 354 0
9 354 0
10 354 0
91 354 -0
92 354 -0
93 354 -0
94 354 -0
95 354 -0
96 354 -0
97 354 -0
98 354 -0
99 354 -0
100 354 -0
101 354 0
1 355 0
2 355 0
3 355 0
4 355 0
5 355 1
6 355 0
7 355 0
8 355 0
9 355 0
10 355 0
91 355 -0
92 355 -0
93 355 -0
94 355 -0
95 355 -0
96 355 -0
97 355 -0
98 355 -1
99 355 -0
100 355 -0
101 355 1
1 356 0
2 356 0
3 356 0
4 356 0
5 356 0
6 356 1
7 356 0
8 356 0
9 356 0
10 356 0
91 356 -0
92 356 -0
93 356 -0
94 356 -0
95 356 -0
96 356 -0
97 356 -0
98 356 -0
99 356 -0
100 356 -0
101 356 0
1 357 0
2 357 0
3 357 0
4 357 0
5 357 0
6 357 0
7 357 1
8 357 0
9 357 0
10 357 0
91 357 -0
92 357 -0
93 357 -0
94 357 -0
95 357 -0
96 357 -0
97 357 -0
98 357 -0
99 357 -1
100 357 -0
101 357 0
1 358 0
2 358 0
3 358 0
4 358 0
5 358 0
6 358 0
7 358 0
8 358 1
9 358 0
10 358 0
91 358 -0
92 358 -0
93 358 -0
94 358 -0
95 358 -0
96 358 -0
97 358 -0
98 358 -0
99 358 -0
100 358 -1
101 358 1
1 359 0
2 359 0
3 359 0
4 359 0
5 359 0
6 359 0
7 359 0
8 359 0
9 359 1
10 359 0
91 359 -0
92 359 -0
93 359 -0
94 359 -0
95 359 -0
96 359 -0
97 359 -0
98 359 -0
99 359 -0
100 359 -0
101 359 0
1 360 0
2 360 0
3 360 0
4 360 0
5 360 0
6 360 0
7 360 0
8 360 0
9 360 0
10 360 1
91 360 -0
92 360 -0
93 360 -0
94 360 -0
95 360 -0
96 360 -0
97 360 -0
98 360 -0
99 360 -0
100 360 -1
101 360 1
