%%MatrixMarket matrix coordinate real general
50 50 50
1 1 5.8792869822316801e-08
2 2 5.8792869838866236e-08
3 3 0.00016068151366611637
4 4 383084.9749112635
5 5 0.00011150784498146753
6 6 199312.66021298702
7 7 0.00046201353065349326
8 8 176348.66055354782
9 9 0.00014090862950675423
10 10 104222.51875285147
11 11 0.00010780167450879904
12 12 1097551.0532940854
13 13 0.00019938760032051013
14 14 179057.11021335528
15 15 0.00016498048998373827
16 16 246134.79667169496
17 17 0.00014460906111271601
18 18 145114.73226889147
19 19 0.00015790254326595018
20 20 174983.6352693649
21 21 0.00017955336930869974
22 22 82153.670214627506
23 23 0.00011788523621937402
24 24 101220.10295393581
25 25 0.0002636696504380074
26 26 287187.80488249811
27 27 0.0001001623274694643
28 28 112012.0323630338
29 29 6.6675211989400244e-05
30 30 258861.55761487907
31 31 0.00029867784634618071
32 32 1176445.5373789407
33 33 0.00037268456328336361
34 34 1118696.4081165374
35 35 0.00023716271775922715
36 36 225433.11794539649
37 37 0.00014402920211649073
38 38 371271.1771731184
39 39 0.00050958659286026188
40 40 85969.200797456026
41 41 0.00041378308695281152
42 42 191570.7953581301
43 43 0.00044150942292606123
44 44 291795.95554435358
45 45 0.0003751451881443719
46 46 274075.34786944406
47 47 0.00051502724807564568
48 48 78854.779175237098
49 49 0.00025930486776342619
50 50 203030.43638241291
