%%MatrixMarket matrix coordinate real general
21 440 2310
19 1 -0
20 1 -0.013813240983519121
21 1 -0
19 2 -0
20 2 0.019534872739220614
21 2 -0.0020020104943995975
19 3 -0
20 3 -0.01953487273922062
21 3 0.0080080419775983899
19 4 -0
20 4 0.019534872739220624
21 4 -0.018018094449596376
19 5 -0
20 5 -0.019534872739220631
21 5 0.032032167910393559
19 6 -0
20 6 -0
21 6 -0
19 7 -0
20 7 -0
21 7 -0
19 8 -0
20 8 -0
21 8 -0
19 9 -0
20 9 -0
21 9 -0
19 10 -0
20 10 -0
21 10 -0
19 11 -0
20 11 -0.013813240983519121
21 11 0.0028312703931931749
19 12 -0
20 12 0.01953487273922061
21 12 -0.010010052471997989
19 13 -0
20 13 -0.019534872739220614
21 13 0.020020104943995982
19 14 -0
20 14 0.019534872739220614
21 14 -0.034034178404793163
19 15 -0
20 15 -0
21 15 -0
19 16 -0
20 16 -0
21 16 -0
19 17 -0
20 17 -0
21 17 -0
19 18 -0
20 18 -0
21 18 -0
19 19 -0
20 19 -0
21 19 -0
19 20 -0
20 20 -0.013813240983519121
21 20 0.0113250815727727
19 21 -0
20 21 0.019534872739220614
21 21 -0.026026136427194771
19 22 -0
20 22 -0.01953487273922062
21 22 0.040040209887991958
19 23 -0
20 23 -0
21 23 -0
19 24 -0
20 24 -0
21 24 -0
19 25 -0
20 25 -0
21 25 -0
19 26 -0
20 26 -0
21 26 -0
19 27 -0
20 27 -0
21 27 -0
19 28 -0
20 28 -0.013813240983519121
21 28 0.025481433538738576
19 29 -0
20 29 0.019534872739220624
21 29 -0.050050262359989939
19 30 -0
20 30 -0
21 30 -0
19 31 -0
20 31 -0
21 31 -0
19 32 -0
20 32 -0
21 32 -0
19 33 -0
20 33 -0
21 33 -0
19 34 -0
20 34 -0
21 34 -0
19 35 -0
20 35 -0.013813240983519121
21 35 0.045300326291090799
19 36 -0
20 36 -0
21 36 -0
19 37 -0
20 37 -0
21 37 -0
19 38 -0
20 38 -0
21 38 -0
19 39 -0
20 39 -0
21 39 -0
19 40 -0
20 40 -0
21 40 -0
19 41 -0.70411200823851006
20 41 0.013813240983519121
21 41 -0
19 42 0.99576475148065713
20 42 -0.058604618217661844
21 42 0.0020020104943995975
19 43 -0.99576475148065713
20 43 0.17581385465298555
21 43 -0.01601608395519678
19 44 0.99576475148065713
20 44 -0.3711625820451917
21 44 0.066066346315186694
19 45 -0.99576475148065713
20 45 0.64465080039428058
21 45 -0.19219300746236137
19 46 -0.70411200823851006
20 46 0.069066204917595631
21 46 -0.0056625407863863499
19 47 0.99576475148065713
20 47 -0.21488360013142679
21 47 0.034034178404793156
19 48 -0.99576475148065713
20 48 0.41023232752363292
21 48 -0.10410454570877908
19 49 0.99576475148065713
20 49 -0.68372054587272169
21 49 0.25825935377754805
19 50 -0.70411200823851006
20 50 0.23482509671982507
21 50 -0.06795048943663623
19 51 0.99576475148065713
20 51 -0.52744156395895669
21 51 0.22622718586715454
19 52 -0.99576475148065713
20 52 0.80092978230804535
21 52 -0.46446643470070664
19 53 -0.70411200823851006
20 53 0.51108991639020773
21 53 -0.32276482482402202
19 54 0.99576475148065713
20 54 -0.99627850970025145
21 54 0.83483837616463197
19 55 -0.70411200823851006
20 55 0.89786066392874297
21 55 -0.99660717840399804
16 56 -0
17 56 -0.01381406392021107
18 56 -0
19 56 0.70453506530112575
20 56 0.013821540499913269
21 56 0
16 57 -0
17 57 0.019536036547451344
18 57 -0.0020021297660387065
19 57 0.99636304451626612
20 57 0.058639830083599076
21 57 0.0020032133778459483
16 58 -0
17 58 -0.019536036547451344
18 58 0.008008519064154826
19 58 0.99636304451626612
20 58 0.1759194902507972
21 58 0.016025707022767587
16 59 -0
17 59 0.019536036547451351
18 59 -0.018019167894348355
19 59 0.99636304451626612
20 59 0.37138559052946074
21 59 0.066106041468916299
16 60 -0
17 60 -0.019536036547451358
18 60 0.032034076256619304
19 60 0.99636304451626612
20 60 0.64503813091958984
21 60 0.19230848427321101
16 61 -0
17 61 -0
18 61 -0
19 61 0
20 61 0
21 61 0
16 62 -0
17 62 -0
18 62 -0
19 62 0
20 62 0
21 62 0
16 63 -0
17 63 -0
18 63 -0
19 63 0
20 63 0
21 63 0
16 64 -0
17 64 -0
18 64 -0
19 64 0
20 64 0
21 64 0
16 65 -0
17 65 -0
18 65 -0
19 65 0
20 65 0
21 65 0
16 66 -0
17 66 -0.01381406392021107
18 66 0.0028314390687628099
19 66 0.70453506530112575
20 66 0.069107702499566354
21 66 0.0056659430545539175
16 67 -0
17 67 0.019536036547451341
18 67 -0.010010648830193538
19 67 0.99636304451626612
20 67 0.21501271030652996
21 67 0.034054627423381119
16 68 -0
17 68 -0.019536036547451344
18 68 0.020021297660387075
19 68 0.99636304451626612
20 68 0.41047881058519348
21 68 0.10416709564798934
16 69 -0
17 69 0.019536036547451344
18 69 -0.034036206022658014
19 69 0.99636304451626612
20 69 0.68413135097532263
21 69 0.25841452574212737
16 70 -0
17 70 -0
18 70 -0
19 70 0
20 70 0
21 70 0
16 71 -0
17 71 -0
18 71 -0
19 71 0
20 71 0
21 71 0
16 72 -0
17 72 -0
18 72 -0
19 72 0
20 72 0
21 72 0
16 73 -0
17 73 -0
18 73 -0
19 73 0
20 73 0
21 73 0
16 74 -0
17 74 -0
18 74 -0
19 74 0
20 74 0
21 74 0
16 75 -0
17 75 -0.01381406392021107
18 75 0.01132575627505124
19 75 0.70453506530112575
20 75 0.23496618849852557
21 75 0.067991316654647027
16 76 -0
17 76 0.019536036547451344
18 76 -0.026027686958503177
19 76 0.99636304451626612
20 76 0.52775847075239157
21 76 0.22636311169659212
16 77 -0
17 77 -0.019536036547451348
18 77 0.040042595320774151
19 77 0.99636304451626612
20 77 0.80141101114252067
21 77 0.46474550366026002
16 78 -0
17 78 -0
18 78 -0
19 78 0
20 78 0
21 78 0
16 79 -0
17 79 -0
18 79 -0
19 79 0
20 79 0
21 79 0
16 80 -0
17 80 -0
18 80 -0
19 80 0
20 80 0
21 80 0
16 81 -0
17 81 -0
18 81 -0
19 81 0
20 81 0
21 81 0
16 82 -0
17 82 -0
18 82 -0
19 82 0
20 82 0
21 82 0
16 83 -0
17 83 -0.01381406392021107
18 83 0.025482951618865296
19 83 0.70453506530112575
20 83 0.5113969984967911
21 83 0.32295875410957325
16 84 -0
17 84 0.019536036547451351
18 84 -0.050053244150967659
19 84 0.99636304451626612
20 84 0.99687711142118418
21 84 0.83533997856176001
16 85 -0
17 85 -0
18 85 -0
19 85 0
20 85 0
21 85 0
16 86 -0
17 86 -0
18 86 -0
19 86 0
20 86 0
21 86 0
16 87 -0
17 87 -0
18 87 -0
19 87 0
20 87 0
21 87 0
16 88 -0
17 88 -0
18 88 -0
19 88 0
20 88 0
21 88 0
16 89 -0
17 89 -0
18 89 -0
19 89 0
20 89 0
21 89 0
16 90 -0
17 90 -0.01381406392021107
18 90 0.045303025100204959
19 90 0.70453506530112575
20 90 0.89840013249436268
21 90 0.99720597760148955
16 91 -0
17 91 -0
18 91 -0
19 91 0
20 91 0
21 91 0
16 92 -0
17 92 -0
18 92 -0
19 92 0
20 92 0
21 92 0
16 93 -0
17 93 -0
18 93 -0
19 93 0
20 93 0
21 93 0
16 94 -0
17 94 -0
18 94 -0
19 94 0
20 94 0
21 94 0
16 95 -0
17 95 -0
18 95 -0
19 95 0
20 95 0
21 95 0
16 96 -0.70415395636694045
17 96 0.01381406392021107
18 96 -0
19 96 0
20 96 -0.013821540499913269
21 96 0
16 97 0.9958240750927998
17 97 -0.058608109642354037
18 97 0.0020021297660387065
19 97 0
20 97 -0.019546610027866361
21 97 -0.0020032133778459483
16 98 -0.9958240750927998
17 98 0.17582432892706207
18 98 -0.016017038128309652
19 98 0
20 98 -0.019546610027866361
21 98 -0.0080128535113837933
16 99 0.9958240750927998
17 99 -0.37118469440157548
18 99 0.066070282279277304
19 99 0
20 99 -0.019546610027866364
21 99 -0.018028920400613529
16 100 -0.9958240750927998
17 100 0.64468920606589419
18 100 -0.19220445753971585
19 100 0
20 100 -0.019546610027866368
21 100 -0.032051414045535173
16 101 -0.70415395636694045
17 101 0.069070319601055349
18 101 -0.0056628781375256199
19 101 0
20 101 -0.013821540499913269
21 101 -0.0028329715272769587
16 102 0.9958240750927998
17 102 -0.21489640202196478
18 102 0.034036206022658007
19 102 0
20 102 -0.019546610027866354
21 102 -0.010016066889229739
16 103 -0.9958240750927998
17 103 0.41025676749647805
18 103 -0.10411074783401271
19 103 0
20 103 -0.019546610027866361
21 103 -0.020032133778459488
16 104 0.9958240750927998
17 104 -0.68376127916079688
18 104 0.25827473981899313
19 104 0
20 104 -0.019546610027866361
21 104 -0.034054627423381126
16 105 -0.70415395636694045
17 105 0.23483908664358819
18 105 -0.067954537650307442
19 105 0
20 105 -0.013821540499913269
21 105 -0.011331886109107835
16 106 0.9958240750927998
17 106 -0.52747298678118615
18 106 0.22624066356237379
19 106 0
20 106 -0.019546610027866361
21 106 -0.026041773911997336
16 107 -0.9958240750927998
17 107 0.80097749844550503
18 107 -0.46449410572097988
19 107 0
20 107 -0.019546610027866361
21 107 -0.040064267556918956
16 108 -0.70415395636694045
17 108 0.51112036504780956
18 108 -0.32278405383896019
19 108 0
20 108 -0.013821540499913269
21 108 -0.025496743745492632
16 109 0.9958240750927998
17 109 -0.99633786392001855
18 109 0.83488811243814054
19 109 0
20 109 -0.019546610027866364
21 109 -0.050080334446148699
16 110 -0.70415395636694045
17 110 0.8979141548137195
18 110 -0.99666655220450939
19 110 0
20 110 -0.013821540499913269
21 110 -0.04532754443643134
13 111 -0
14 111 -0.013821555135151178
15 111 -0
16 111 0.70453581131335863
17 111 0.013821555135151178
18 111 0
13 112 -0
14 112 0.019546630725218294
15 112 -0.0020032154989918774
16 112 0.99636409953688398
17 112 0.058639892175654892
18 112 0.0020032154989918774
13 113 -0
14 113 -0.019546630725218297
15 113 0.0080128619959675094
16 113 0.99636409953688398
17 113 0.17591967652696466
18 113 0.016025723991935019
13 114 -0
14 114 0.019546630725218301
15 114 -0.01802893949092689
16 114 0.99636409953688398
17 114 0.37138598377914744
18 114 0.066106111466731926
13 115 -0
14 115 -0.019546630725218304
15 115 0.032051447983870038
16 115 0.99636409953688398
17 115 0.64503881393220375
18 115 0.19230868790322017
13 116 -0
14 116 -0
15 116 -0
16 116 0
17 116 0
18 116 0
13 117 -0
14 117 -0
15 117 -0
16 117 0
17 117 0
18 117 0
13 118 -0
14 118 -0
15 118 -0
16 118 0
17 118 0
18 118 0
13 119 -0
14 119 -0
15 119 -0
16 119 0
17 119 0
18 119 0
13 120 -0
14 120 -0
15 120 -0
16 120 0
17 120 0
18 120 0
13 121 -0
14 121 -0.013821555135151178
15 121 0.0028329745270302994
16 121 0.70453581131335863
17 121 0.069107775675755864
18 121 0.0056659490540605989
13 122 -0
14 122 0.019546630725218287
15 122 -0.010016077494959386
16 122 0.99636409953688398
17 122 0.21501293797740126
18 122 0.034054663482861916
13 123 -0
14 123 -0.019546630725218294
15 123 0.020032154989918772
16 123 0.99636409953688398
17 123 0.41047924522958412
18 123 0.10416720594757761
13 124 -0
14 124 0.019546630725218294
15 124 -0.034054663482861916
16 124 0.99636409953688398
17 124 0.68413207538264031
18 124 0.25841479936995215
13 125 -0
14 125 -0
15 125 -0
16 125 0
17 125 0
18 125 0
13 126 -0
14 126 -0
15 126 -0
16 126 0
17 126 0
18 126 0
13 127 -0
14 127 -0
15 127 -0
16 127 0
17 127 0
18 127 0
13 128 -0
14 128 -0
15 128 -0
16 128 0
17 128 0
18 128 0
13 129 -0
14 129 -0
15 129 -0
16 129 0
17 129 0
18 129 0
13 130 -0
14 130 -0.013821555135151178
15 130 0.011331898108121198
16 130 0.70453581131335863
17 130 0.23496643729757002
18 130 0.067991388648727183
13 131 -0
14 131 0.019546630725218294
15 131 -0.026041801486894403
16 131 0.99636409953688398
17 131 0.52775902958089405
18 131 0.22636335138608207
13 132 -0
14 132 -0.019546630725218297
15 132 0.040064309979837544
16 132 0.99636409953688398
17 132 0.80141185973395002
18 132 0.46474599576611542
13 133 -0
14 133 -0
15 133 -0
16 133 0
17 133 0
18 133 0
13 134 -0
14 134 -0
15 134 -0
16 134 0
17 134 0
18 134 0
13 135 -0
14 135 -0
15 135 -0
16 135 0
17 135 0
18 135 0
13 136 -0
14 136 -0
15 136 -0
16 136 0
17 136 0
18 136 0
13 137 -0
14 137 -0
15 137 -0
16 137 0
17 137 0
18 137 0
13 138 -0
14 138 -0.013821555135151178
15 138 0.025496770743272695
16 138 0.70453581131335863
17 138 0.51139754000059368
18 138 0.32295909608145412
13 139 -0
14 139 0.019546630725218301
15 139 -0.050080387474796914
16 139 0.99636409953688398
17 139 0.99687816698613285
18 139 0.83534086307961264
13 140 -0
14 140 -0
15 140 -0
16 140 0
17 140 0
18 140 0
13 141 -0
14 141 -0
15 141 -0
16 141 0
17 141 0
18 141 0
13 142 -0
14 142 -0
15 142 -0
16 142 0
17 142 0
18 142 0
13 143 -0
14 143 -0
15 143 -0
16 143 0
17 143 0
18 143 0
13 144 -0
14 144 -0
15 144 -0
16 144 0
17 144 0
18 144 0
13 145 -0
14 145 -0.013821555135151178
15 145 0.045327592432484791
16 145 0.70453581131335863
17 145 0.89840108378482642
18 145 0.99720703351466544
13 146 -0
14 146 -0
15 146 -0
16 146 0
17 146 0
18 146 0
13 147 -0
14 147 -0
15 147 -0
16 147 0
17 147 0
18 147 0
13 148 -0
14 148 -0
15 148 -0
16 148 0
17 148 0
18 148 0
13 149 -0
14 149 -0
15 149 -0
16 149 0
17 149 0
18 149 0
13 150 -0
14 150 -0
15 150 -0
16 150 0
17 150 0
18 150 0
13 151 -0.70453581131335863
14 151 0.013821555135151178
15 151 -0
16 151 0
17 151 -0.013821555135151178
18 151 0
13 152 0.99636409953688398
14 152 -0.058639892175654892
15 152 0.0020032154989918774
16 152 0
17 152 -0.019546630725218294
18 152 -0.0020032154989918774
13 153 -0.99636409953688398
14 153 0.17591967652696466
15 153 -0.016025723991935019
16 153 0
17 153 -0.019546630725218297
18 153 -0.0080128619959675094
13 154 0.99636409953688398
14 154 -0.37138598377914744
15 154 0.066106111466731926
16 154 0
17 154 -0.019546630725218301
18 154 -0.01802893949092689
13 155 -0.99636409953688398
14 155 0.64503881393220375
15 155 -0.19230868790322017
16 155 0
17 155 -0.019546630725218304
18 155 -0.032051447983870038
13 156 -0.70453581131335863
14 156 0.069107775675755864
15 156 -0.0056659490540605989
16 156 0
17 156 -0.013821555135151178
18 156 -0.0028329745270302994
13 157 0.99636409953688398
14 157 -0.21501293797740126
15 157 0.034054663482861916
16 157 0
17 157 -0.019546630725218287
18 157 -0.010016077494959386
13 158 -0.99636409953688398
14 158 0.41047924522958412
15 158 -0.10416720594757761
16 158 0
17 158 -0.019546630725218294
18 158 -0.020032154989918772
13 159 0.99636409953688398
14 159 -0.68413207538264031
15 159 0.25841479936995215
16 159 0
17 159 -0.019546630725218294
18 159 -0.034054663482861916
13 160 -0.70453581131335863
14 160 0.23496643729757002
15 160 -0.067991388648727183
16 160 0
17 160 -0.013821555135151178
18 160 -0.011331898108121198
13 161 0.99636409953688398
14 161 -0.52775902958089405
15 161 0.22636335138608207
16 161 0
17 161 -0.019546630725218294
18 161 -0.026041801486894403
13 162 -0.99636409953688398
14 162 0.80141185973395002
15 162 -0.46474599576611542
16 162 0
17 162 -0.019546630725218297
18 162 -0.040064309979837544
13 163 -0.70453581131335863
14 163 0.51139754000059368
15 163 -0.32295909608145412
16 163 0
17 163 -0.013821555135151178
18 163 -0.025496770743272695
13 164 0.99636409953688398
14 164 -0.99687816698613285
15 164 0.83534086307961264
16 164 0
17 164 -0.019546630725218301
18 164 -0.050080387474796914
13 165 -0.70453581131335863
14 165 0.89840108378482642
15 165 -0.99720703351466544
16 165 0
17 165 -0.013821555135151178
18 165 -0.045327592432484791
10 166 -0
11 166 -0.013821526610413545
12 166 -0
13 166 0.70379174987130189
14 166 0.013806958167786014
15 166 0
10 167 -0
11 167 0.019546590385147472
12 167 -0.002003211364782956
13 167 0.99531183775428822
14 167 0.058577962488002885
15 167 0.002001099899771801
10 168 -0
11 168 -0.019546590385147476
12 168 0.0080128454591318239
13 168 0.99531183775428822
14 168 0.1757338874640087
15 168 0.016008799198174408
10 169 -0
11 169 0.019546590385147489
12 169 -0.018028902283046606
13 169 0.99531183775428822
14 169 0.37099376242401827
15 169 0.066036296692469409
10 170 -0
11 170 -0.019546590385147493
12 170 0.032051381836527296
13 170 0.99531183775428822
14 170 0.64435758736803184
15 170 0.19210559037809288
10 171 -0
11 171 -0
12 171 -0
13 171 0
14 171 0
15 171 0
10 172 -0
11 172 -0
12 172 -0
13 172 0
14 172 0
15 172 0
10 173 -0
11 173 -0
12 173 -0
13 173 0
14 173 0
15 173 0
10 174 -0
11 174 -0
12 174 -0
13 174 0
14 174 0
15 174 0
10 175 -0
11 175 -0
12 175 -0
13 175 0
14 175 0
15 175 0
10 176 -0
11 176 -0.013821526610413545
12 176 0.0028329686803759738
13 176 0.70379174987130189
14 176 0.069034790838930091
15 176 0.0056599652358414422
10 177 -0
11 177 0.019546590385147472
12 177 -0.010016056823914784
13 177 0.99531183775428822
14 177 0.21478586245601061
15 177 0.034018698296120614
10 178 -0
11 178 -0.019546590385147472
12 178 0.020032113647829568
13 178 0.99531183775428822
14 178 0.41004573741602024
15 178 0.10405719478813366
10 179 -0
11 179 0.019546590385147472
12 179 -0.034054593201310268
13 179 0.99531183775428822
14 179 0.68340956236003381
15 179 0.25814188707056235
10 180 -0
11 180 -0
12 180 -0
13 180 0
14 180 0
15 180 0
10 181 -0
11 181 -0
12 181 -0
13 181 0
14 181 0
15 181 0
10 182 -0
11 182 -0
12 182 -0
13 182 0
14 182 0
15 182 0
10 183 -0
11 183 -0
12 183 -0
13 183 0
14 183 0
15 183 0
10 184 -0
11 184 -0
12 184 -0
13 184 0
14 184 0
15 184 0
10 185 -0
11 185 -0.013821526610413545
12 185 0.011331874721503895
13 185 0.70379174987130189
14 185 0.23471828885236223
15 185 0.06791958283009733
10 186 -0
11 186 0.019546590385147472
12 186 -0.026041747742178434
13 186 0.99531183775428822
14 186 0.52720166239202604
15 186 0.22612428867421344
10 187 -0
11 187 -0.019546590385147486
12 187 0.040064227295659137
13 187 0.99531183775428822
14 187 0.80056548733603972
15 187 0.46425517674705785
10 188 -0
11 188 -0
12 188 -0
13 188 0
14 188 0
15 188 0
10 189 -0
11 189 -0
12 189 -0
13 189 0
14 189 0
15 189 0
10 190 -0
11 190 -0
12 190 -0
13 190 0
14 190 0
15 190 0
10 191 -0
11 191 -0
12 191 -0
13 191 0
14 191 0
15 191 0
10 192 -0
11 192 -0
12 192 -0
13 192 0
14 192 0
15 192 0
10 193 -0
11 193 -0.013821526610413545
12 193 0.02549671812338377
13 193 0.70379174987130189
14 193 0.51085745220808254
15 193 0.32261801844296228
10 194 -0
11 194 0.019546590385147489
12 194 -0.050080284119573902
13 194 0.99531183775428822
14 194 0.99582536229604879
15 194 0.834458658204841
10 195 -0
11 195 -0
12 195 -0
13 195 0
14 195 0
15 195 0
10 196 -0
11 196 -0
12 196 -0
13 196 0
14 196 0
15 196 0
10 197 -0
11 197 -0
12 197 -0
13 197 0
14 197 0
15 197 0
10 198 -0
11 198 -0
12 198 -0
13 198 0
14 198 0
15 198 0
10 199 -0
11 199 -0
12 199 -0
13 199 0
14 199 0
15 199 0
10 200 -0
11 200 -0.013821526610413545
12 200 0.045327498886015581
13 200 0.70379174987130189
14 200 0.89745228090609097
15 200 0.99615388150809414
10 201 -0
11 201 -0
12 201 -0
13 201 0
14 201 0
15 201 0
10 202 -0
11 202 -0
12 202 -0
13 202 0
14 202 0
15 202 0
10 203 -0
11 203 -0
12 203 -0
13 203 0
14 203 0
15 203 0
10 204 -0
11 204 -0
12 204 -0
13 204 0
14 204 0
15 204 0
10 205 -0
11 205 -0
12 205 -0
13 205 0
14 205 0
15 205 0
10 206 -0.70453435730192704
11 206 0.013821526610413545
12 206 -0
13 206 0
14 206 -0.013806958167786014
15 206 0
10 207 0.99636204325419753
11 207 -0.058639771155442409
12 207 0.002003211364782956
13 207 0
14 207 -0.019525987496000964
15 207 -0.002001099899771801
10 208 -0.99636204325419753
11 208 0.17591931346632728
12 208 -0.016025690918263648
13 208 0
14 208 -0.019525987496000964
15 208 -0.008004399599087204
10 209 0.99636204325419753
11 209 -0.37138521731780194
12 209 0.06610597503783755
13 209 0
14 209 -0.019525987496000971
15 209 -0.01800989909794621
10 210 -0.99636204325419753
11 210 0.64503748270986694
12 210 -0.1923082910191638
13 210 0
14 210 -0.019525987496000981
15 210 -0.032017598396348816
10 211 -0.70453435730192704
11 211 0.069107633052067727
12 211 -0.0056659373607519476
13 211 0
14 211 -0.013806958167786014
15 211 -0.0028299826179207211
10 212 0.99636204325419753
11 212 -0.21501249423662219
12 212 0.034054593201310261
13 212 0
14 212 -0.019525987496000964
15 212 -0.010005499498859005
10 213 -0.99636204325419753
11 213 0.410478398088097
12 213 -0.10416699096871374
13 213 0
14 213 -0.019525987496000964
15 213 -0.020010998997718011
10 214 0.99636204325419753
11 214 -0.6841306634801616
12 214 0.25841426605700135
13 214 0
14 214 -0.019525987496000964
15 214 -0.034018698296120621
10 215 -0.70453435730192704
11 215 0.23496595237703027
12 215 -0.06799124832902341
13 215 0
14 215 -0.013806958167786014
15 215 -0.011319930471682884
10 216 0.99636204325419753
11 216 -0.52775794039898161
12 216 0.22636288422047404
13 216 0
14 216 -0.019525987496000964
15 216 -0.026014298697033415
10 217 -0.99636204325419753
11 217 0.8014102057910466
12 217 -0.464745036629646
13 217 0
14 217 -0.019525987496000971
15 217 -0.040021997995436022
10 218 -0.70453435730192704
11 218 0.51139648458530118
12 218 -0.32295842956286108
13 218 0
14 218 -0.013806958167786014
15 218 -0.025469843561286495
10 219 0.99636204325419753
11 219 -0.99687610964252105
12 219 0.83533913911449287
13 219 0
14 219 -0.019525987496000971
15 219 -0.050027497494295012
10 220 -0.70453435730192704
11 220 0.89839922967688057
12 220 -0.99720497549234322
13 220 0
14 220 -0.013806958167786014
15 220 -0.045279721886731537
7 221 -0
8 221 -0.013817701479385944
9 221 -0
10 221 0.7039610447842336
11 221 0.013810279388560911
12 221 0
7 222 -0
8 222 0.019541180832970385
9 222 -0.0020026569726262688
10 222 0.99555125691619717
11 222 0.058592053234393364
12 222 0.0020015812581187283
7 223 -0
8 223 -0.019541180832970392
9 223 0.0080106278905050753
10 223 0.99555125691619717
11 223 0.17577615970318017
12 223 0.016012650064949827
7 224 -0
8 224 0.019541180832970396
9 224 -0.018023912753636417
10 224 0.99555125691619717
11 224 0.37108300381782466
12 224 0.066052181517918029
7 225 -0
8 225 -0.019541180832970403
9 225 0.032042511562020301
10 225 0.99555125691619717
11 225 0.64451258557832714
12 225 0.19215180077939792
7 226 -0
8 226 -0
9 226 -0
10 226 0
11 226 0
12 226 0
7 227 -0
8 227 -0
9 227 -0
10 227 0
11 227 0
12 227 0
7 228 -0
8 228 -0
9 228 -0
10 228 0
11 228 0
12 228 0
7 229 -0
8 229 -0
9 229 -0
10 229 0
11 229 0
12 229 0
7 230 -0
8 230 -0
9 230 -0
10 230 0
11 230 0
12 230 0
7 231 -0
8 231 -0.013817701479385944
9 231 0.0028321846514691136
10 231 0.7039610447842336
11 231 0.069051396942804544
12 231 0.0056613267228466171
7 232 -0
8 232 0.019541180832970385
9 232 -0.010013284863131347
10 232 0.99555125691619717
11 232 0.2148375285261091
12 232 0.03402688138801839
7 233 -0
8 233 -0.019541180832970385
9 233 0.020026569726262697
10 233 0.99555125691619717
11 233 0.4101443726407536
12 233 0.10408222542217388
7 234 -0
8 234 0.019541180832970385
9 234 -0.034045168534646571
10 234 0.99555125691619717
11 234 0.68357395440125612
12 234 0.25820398229731595
7 235 -0
8 235 -0
9 235 -0
10 235 0
11 235 0
12 235 0
7 236 -0
8 236 -0
9 236 -0
10 236 0
11 236 0
12 236 0
7 237 -0
8 237 -0
9 237 -0
10 237 0
11 237 0
12 237 0
7 238 -0
8 238 -0
9 238 -0
10 238 0
11 238 0
12 238 0
7 239 -0
8 239 -0
9 239 -0
10 239 0
11 239 0
12 239 0
7 240 -0
8 240 -0.013817701479385944
9 240 0.011328738605876455
10 240 0.7039610447842336
11 240 0.23477474960553546
12 240 0.067935920674159392
7 241 -0
8 241 0.019541180832970385
9 241 -0.026034540644141499
10 241 0.99555125691619717
11 241 0.52732847910954028
12 241 0.2261786821674163
7 242 -0
8 242 -0.019541180832970392
9 242 0.040053139452525387
10 242 0.99555125691619717
11 242 0.80075806087004253
12 242 0.46436685188354498
7 243 -0
8 243 -0
9 243 -0
10 243 0
11 243 0
12 243 0
7 244 -0
8 244 -0
9 244 -0
10 244 0
11 244 0
12 244 0
7 245 -0
8 245 -0
9 245 -0
10 245 0
11 245 0
12 245 0
7 246 -0
8 246 -0
9 246 -0
10 246 0
11 246 0
12 246 0
7 247 -0
8 247 -0
9 247 -0
10 247 0
11 247 0
12 247 0
7 248 -0
8 248 -0.013817701479385944
9 248 0.025489661863222025
10 248 0.7039610447842336
11 248 0.51098033737675375
12 248 0.32269562320225714
7 249 -0
8 249 0.019541180832970396
9 249 -0.050066424315656721
10 249 0.99555125691619717
11 249 0.99606490498468725
12 249 0.83465938463550959
7 250 -0
8 250 -0
9 250 -0
10 250 0
11 250 0
12 250 0
7 251 -0
8 251 -0
9 251 -0
10 251 0
11 251 0
12 251 0
7 252 -0
8 252 -0
9 252 -0
10 252 0
11 252 0
12 252 0
7 253 -0
8 253 -0
9 253 -0
10 253 0
11 253 0
12 253 0
7 254 -0
8 254 -0
9 254 -0
10 254 0
11 254 0
12 254 0
7 255 -0
8 255 -0.013817701479385944
9 255 0.045314954423505818
10 255 0.7039610447842336
11 255 0.89766816025645924
12 255 0.99639350322100451
7 256 -0
8 256 -0
9 256 -0
10 256 0
11 256 0
12 256 0
7 257 -0
8 257 -0
9 257 -0
10 257 0
11 257 0
12 257 0
7 258 -0
8 258 -0
9 258 -0
10 258 0
11 258 0
12 258 0
7 259 -0
8 259 -0
9 259 -0
10 259 0
11 259 0
12 259 0
7 260 -0
8 260 -0
9 260 -0
10 260 0
11 260 0
12 260 0
7 261 -0.70433937621871612
8 261 0.013817701479385944
9 261 -0
10 261 0
11 261 -0.013810279388560911
12 261 0
7 262 0.99608629836191453
8 262 -0.058623542498911156
9 262 0.0020026569726262688
10 262 0
11 262 -0.019530684411464459
12 262 -0.0020015812581187283
7 263 -0.99608629836191453
8 263 0.17587062749673349
9 263 -0.016021255781010151
10 263 0
11 263 -0.019530684411464463
12 263 -0.0080063250324749133
7 264 0.99608629836191453
8 264 -0.37128243582643738
9 264 0.066087680096666893
10 264 0
11 264 -0.019530684411464473
12 264 -0.018014231323068557
7 265 -0.99608629836191453
8 265 0.64485896748802274
9 265 -0.19225506937212183
10 265 0
11 265 -0.019530684411464477
12 265 -0.032025300129899653
7 266 -0.70433937621871612
8 266 0.069088507396929746
9 266 -0.0056643693029382273
10 266 0
11 266 -0.013810279388560911
12 266 -0.0028306633614233086
7 267 0.99608629836191453
8 267 -0.21495298916267419
9 267 0.034045168534646571
10 267 0
11 267 -0.019530684411464459
12 267 -0.010007906290593643
7 268 -0.99608629836191453
8 268 0.41036479749237814
9 268 -0.104138162576566
10 268 0
11 268 -0.019530684411464459
12 268 -0.02001581258118729
7 269 0.99608629836191453
8 269 -0.68394132915396366
9 269 0.25834274946878871
10 269 0
11 269 -0.019530684411464459
12 269 -0.034026881388018397
7 270 -0.70433937621871612
8 270 0.2349009251495611
9 270 -0.06797243163525872
10 270 0
11 270 -0.013810279388560911
12 270 -0.011322653445693234
7 271 0.99608629836191453
8 271 -0.5276118824902003
9 271 0.22630023790676837
10 271 0
11 271 -0.019530684411464459
12 271 -0.02602055635554347
7 272 -0.99608629836191453
8 272 0.80118841415178577
9 272 -0.46461641764929446
10 272 0
11 272 -0.019530684411464463
12 272 -0.040031625162374573
7 273 -0.70433937621871612
8 273 0.51125495473728
9 273 -0.32286905026747897
10 273 0
11 273 -0.013810279388560911
12 273 -0.025475970252809777
7 274 0.99608629836191453
8 274 -0.99660022248148949
9 274 0.8351079575851541
10 274 0
11 274 -0.019530684411464473
12 274 -0.05003953145296821
7 275 -0.70433937621871612
8 275 0.89815059616008652
9 275 -0.99692899731712825
10 275 0
11 275 -0.013810279388560911
12 275 -0.045290613782772937
1 276 0.7023033886681761
2 276 0.013777759557722922
3 276 0
1 277 0.99320697715511763
2 277 0.058454083276941876
3 277 0.0019968680237162154
1 278 0.99320697715511763
2 278 0.17536224983082571
3 278 0.015974944189729723
1 279 0.99320697715511763
2 279 0.37020919408729847
3 279 0.065896644782635114
1 280 0.99320697715511763
2 280 0.64299491604636083
3 280 0.19169933027675662
1 281 0
2 281 0
3 281 0
1 282 0
2 282 0
3 282 0
1 283 0
2 283 0
3 283 0
1 284 0
2 284 0
3 284 0
1 285 0
2 285 0
3 285 0
1 286 0.7023033886681761
2 286 0.068888797788614606
3 286 0.0056479956828172596
1 287 0.99320697715511763
2 287 0.21433163868212024
3 287 0.033946756403175654
1 288 0.99320697715511763
2 288 0.40917858293859311
3 288 0.1038371372332432
1 289 0.99320697715511763
2 289 0.68196430489765536
3 289 0.25759597505939169
1 290 0
2 290 0
3 290 0
1 291 0
2 291 0
3 291 0
1 292 0
2 292 0
3 292 0
1 293 0
2 293 0
3 293 0
1 294 0
2 294 0
3 294 0
1 295 0.7023033886681761
2 295 0.23422191248128962
3 295 0.067775948193807126
1 296 0.99320697715511763
2 296 0.52608674949247691
3 296 0.22564608667993222
1 297 0.99320697715511763
2 297 0.79887247145153928
3 297 0.46327338150216196
1 298 0
2 298 0
3 298 0
1 299 0
2 299 0
3 299 0
1 300 0
2 300 0
3 300 0
1 301 0
2 301 0
3 301 0
1 302 0
2 302 0
3 302 0
1 303 0.7023033886681761
2 303 0.50977710363574813
3 303 0.32193575392058382
1 304 0.99320697715511763
2 304 0.99371941570801181
3 304 0.8326939658896616
1 305 0
2 305 0
3 305 0
1 306 0
2 306 0
3 306 0
1 307 0
2 307 0
3 307 0
1 308 0
2 308 0
3 308 0
1 309 0
2 309 0
3 309 0
1 310 0.7023033886681761
2 310 0.89555437125198989
3 310 0.99404724017583801
1 311 0
2 311 0
3 311 0
1 312 0
2 312 0
3 312 0
1 313 0
2 313 0
3 313 0
1 314 0
2 314 0
3 314 0
1 315 0
2 315 0
3 315 0
1 316 0
2 316 -0.013777759557722922
3 316 0
1 317 0
2 317 -0.019484694425647296
3 317 -0.0019968680237162154
1 318 0
2 318 -0.019484694425647296
3 318 -0.0079874720948648614
1 319 0
2 319 -0.019484694425647302
3 319 -0.017971812213445935
1 320 0
2 320 -0.019484694425647309
3 320 -0.031949888379459446
1 321 0
2 321 -0.013777759557722922
3 321 -0.0028239978414086298
1 322 0
2 322 -0.019484694425647292
3 322 -0.009984340118581075
1 323 0
2 323 -0.019484694425647296
3 323 -0.019968680237162157
1 324 0
2 324 -0.019484694425647296
3 324 -0.033946756403175654
1 325 0
2 325 -0.013777759557722922
3 325 -0.011295991365634519
1 326 0
2 326 -0.019484694425647296
3 326 -0.0259592843083108
1 327 0
2 327 -0.019484694425647296
3 327 -0.0399373604743243
1 328 0
2 328 -0.013777759557722922
3 328 -0.02541598057267767
1 329 0
2 329 -0.019484694425647302
3 329 -0.04992170059290537
1 330 0
2 330 -0.013777759557722922
3 330 -0.045183965462538077
4 331 -0
5 331 -0.013794818575681522
6 331 -0
7 331 0.70453361652376278
8 331 0.013821512077857387
9 331 0
4 332 -0
5 332 0.019508819520205108
6 332 -0.0019993404581737043
7 332 0.99636099563567082
8 332 0.058639709499028386
9 332 0.0020032092585191216
4 333 -0
5 333 -0.019508819520205119
6 333 0.0079973618326948173
7 333 0.99636099563567082
8 333 0.17591912849708516
9 333 0.016025674068152973
4 334 -0
5 334 0.019508819520205119
6 334 -0.017994064123563344
7 334 0.99636099563567082
8 334 0.37138482682717971
9 334 0.066105905531131007
4 335 -0
5 335 -0.019508819520205129
6 335 0.031989447330779269
7 335 0.99636099563567082
8 335 0.64503680448931233
9 335 0.19230808881783573
4 336 -0
5 336 -0
6 336 -0
7 336 0
8 336 0
9 336 0
4 337 -0
5 337 -0
6 337 -0
7 337 0
8 337 0
9 337 0
4 338 -0
5 338 -0
6 338 -0
7 338 0
8 338 0
9 338 0
4 339 -0
5 339 -0
6 339 -0
7 339 0
8 339 0
9 339 0
4 340 -0
5 340 -0
6 340 -0
7 340 0
8 340 0
9 340 0
4 341 -0
5 341 -0.013794818575681522
6 341 0.00282749439175049
7 341 0.70453361652376278
8 341 0.069107560389286934
9 341 0.0056659314033381866
4 342 -0
5 342 0.019508819520205108
6 342 -0.0099967022908685234
7 342 0.99636099563567082
8 342 0.21501226816310409
9 342 0.034054557394825054
4 343 -0
5 343 -0.019508819520205108
6 343 0.01999340458173705
7 343 0.99636099563567082
8 343 0.41047796649319868
9 343 0.10416688144299434
4 344 -0
5 344 0.019508819520205108
6 344 -0.033988787788952986
7 344 0.99636099563567082
8 344 0.68412994415533124
9 344 0.25841399434896661
4 345 -0
5 345 -0
6 345 -0
7 345 0
8 345 0
9 345 0
4 346 -0
5 346 -0
6 346 -0
7 346 0
8 346 0
9 346 0
4 347 -0
5 347 -0
6 347 -0
7 347 0
8 347 0
9 347 0
4 348 -0
5 348 -0
6 348 -0
7 348 0
8 348 0
9 348 0
4 349 -0
5 349 -0
6 349 -0
7 349 0
8 349 0
9 349 0
4 350 -0
5 350 -0.013794818575681522
6 350 0.01130997756700196
7 350 0.70453361652376278
8 350 0.23496570532357561
9 350 0.067991176840058232
4 351 -0
5 351 0.019508819520205108
6 351 -0.025991425956258161
7 351 0.99636099563567082
8 351 0.5277573854912555
9 351 0.22636264621266072
4 352 -0
5 352 -0.019508819520205119
6 352 0.039986809163474094
7 352 0.99636099563567082
8 352 0.80140936315338784
9 352 0.46474454797643622
4 353 -0
5 353 -0
6 353 -0
7 353 0
8 353 0
9 353 0
4 354 -0
5 354 -0
6 354 -0
7 354 0
8 354 0
9 354 0
4 355 -0
5 355 -0
6 355 -0
7 355 0
8 355 0
9 355 0
4 356 -0
5 356 -0
6 356 -0
7 356 0
8 356 0
9 356 0
4 357 -0
5 357 -0
6 357 -0
7 357 0
8 357 0
9 357 0
4 358 -0
5 358 -0.013794818575681522
6 358 0.025447449525754409
7 358 0.70453361652376278
8 358 0.51139594688072354
9 358 0.32295808999027653
4 359 -0
5 359 0.019508819520205119
6 359 -0.049983511454342613
7 359 0.99636099563567082
8 359 0.99687506148348226
9 359 0.83533826080247364
4 360 -0
5 360 -0
6 360 -0
7 360 0
8 360 0
9 360 0
4 361 -0
5 361 -0
6 361 -0
7 361 0
8 361 0
9 361 0
4 362 -0
5 362 -0
6 362 -0
7 362 0
8 362 0
9 362 0
4 363 -0
5 363 -0
6 363 -0
7 363 0
8 363 0
9 363 0
4 364 -0
5 364 -0
6 364 -0
7 364 0
8 364 0
9 364 0
4 365 -0
5 365 -0.013794818575681522
6 365 0.045239910268007839
7 365 0.70453361652376278
8 365 0.89839828506073038
9 365 0.99720392698752081
4 366 -0
5 366 -0
6 366 -0
7 366 0
8 366 0
9 366 0
4 367 -0
5 367 -0
6 367 -0
7 367 0
8 367 0
9 367 0
4 368 -0
5 368 -0
6 368 -0
7 368 0
8 368 0
9 368 0
4 369 -0
5 369 -0
6 369 -0
7 369 0
8 369 0
9 369 0
4 370 -0
5 370 -0
6 370 -0
7 370 0
8 370 0
9 370 0
4 371 -0.70317294993969381
5 371 0.013794818575681522
6 371 -0
7 371 0
8 371 -0.013821512077857387
9 371 0
4 372 0.99443672249861215
5 372 -0.058526458560615328
6 372 0.0019993404581737043
7 372 0
8 372 -0.019546569833009463
9 372 -0.0020032092585191216
4 373 -0.99443672249861215
5 373 0.17557937568184601
6 373 -0.015994723665389635
7 373 0
8 373 -0.019546569833009467
9 373 -0.0080128370340764865
4 374 0.99443672249861215
5 374 -0.37066757088389707
6 374 0.065978235119732262
7 374 0
8 374 -0.01954656983300947
9 374 -0.018028883326672095
4 375 -0.99443672249861215
5 375 0.64379104416676858
6 375 -0.19193668398467564
7 375 0
8 375 -0.019546569833009477
9 375 -0.032051348136305946
4 376 -0.70317294993969381
5 376 0.068974092878407584
6 376 -0.0056549887835009799
7 376 0
8 376 -0.013821512077857387
9 376 -0.0028329657016690933
4 377 0.99443672249861215
5 377 -0.2145970147222562
6 377 0.033988787788952972
7 377 0
8 377 -0.019546569833009463
9 377 -0.010016046292595603
4 378 -0.99443672249861215
5 378 0.40968520992430729
6 378 -0.10396570382503265
7 378 0
8 378 -0.019546569833009463
9 378 -0.020032092585191216
4 379 0.99443672249861215
5 379 -0.6828086832071788
6 379 0.25791491910440795
7 379 0
8 379 -0.019546569833009463
9 379 -0.034054557394825068
4 380 -0.70317294993969381
5 380 0.23451191578658578
6 380 -0.06785986540201179
7 380 0
8 380 -0.013821512077857387
9 380 -0.011331862806676373
4 381 0.99443672249861215
5 381 -0.52673812704553802
6 381 0.22592547177362862
7 381 0
8 381 -0.019546569833009463
9 381 -0.026041720360748585
4 382 -0.99443672249861215
5 382 0.79986160032840925
6 382 -0.46384698629629945
7 382 0
8 382 -0.019546569833009467
9 382 -0.040064185170382412
4 383 -0.70317294993969381
5 383 0.51040828730021615
6 383 -0.32233436065955601
7 383 0
8 383 -0.013821512077857387
9 383 -0.02549669131502184
4 384 0.99443672249861215
5 384 -0.99494979553046026
6 384 0.8337249710584349
7 384 0
8 384 -0.01954656983300947
9 384 -0.050080231462978048
4 385 -0.70317294993969381
5 385 0.89666320741929884
6 385 -0.99527802589617287
7 385 0
8 385 -0.013821512077857387
9 385 -0.045327451226705492
1 386 -0
2 386 -0.013821564366238109
3 386 -0
4 386 0.70453628185601902
5 386 0.013821564366238109
6 386 0
1 387 -0
2 387 0.019546643779946627
3 387 -0.0020032168368917173
4 387 0.99636476498469573
5 387 0.058639931339839899
6 387 0.0020032168368917173
1 388 -0
2 388 -0.019546643779946631
3 388 0.0080128673475668693
4 388 0.99636476498469573
5 388 0.17591979401951968
6 388 0.016025734695133739
1 389 -0
2 389 0.019546643779946634
3 389 -0.018028951532025456
4 389 0.99636476498469573
5 389 0.37138623181898583
6 389 0.066106155617426693
1 390 -0
2 390 -0.019546643779946644
3 390 0.032051469390267477
4 390 0.99636476498469573
5 390 0.64503924473823882
6 390 0.1923088163416049
1 391 -0
2 391 -0
3 391 -0
4 391 0
5 391 0
6 391 0
1 392 -0
2 392 -0
3 392 -0
4 392 0
5 392 0
6 392 0
1 393 -0
2 393 -0
3 393 -0
4 393 0
5 393 0
6 393 0
1 394 -0
2 394 -0
3 394 -0
4 394 0
5 394 0
6 394 0
1 395 -0
2 395 -0
3 395 -0
4 395 0
5 395 0
6 395 0
1 396 -0
2 396 -0.013821564366238109
3 396 0.002832976419106399
4 396 0.70453628185601902
5 396 0.069107821831190547
6 396 0.0056659528382127979
1 397 -0
2 397 0.019546643779946627
3 397 -0.010016084184458591
4 397 0.99636476498469573
5 397 0.21501308157941293
6 397 0.034054686227159195
1 398 -0
2 398 -0.019546643779946627
3 398 0.020032168368917181
4 398 0.99636476498469573
5 398 0.41047951937887922
6 398 0.10416727551836934
1 399 -0
2 399 0.019546643779946627
3 399 -0.034054686227159202
4 399 0.99636476498469573
5 399 0.6841325322981322
6 399 0.25841497195903163
1 400 -0
2 400 -0
3 400 -0
4 400 0
5 400 0
6 400 0
1 401 -0
2 401 -0
3 401 -0
4 401 0
5 401 0
6 401 0
1 402 -0
2 402 -0
3 402 -0
4 402 0
5 402 0
6 402 0
1 403 -0
2 403 -0
3 403 -0
4 403 0
5 403 0
6 403 0
1 404 -0
2 404 -0
3 404 -0
4 404 0
5 404 0
6 404 0
1 405 -0
2 405 -0.013821564366238109
3 405 0.011331905676425596
4 405 0.70453628185601902
5 405 0.23496659422604785
6 405 0.067991434058553596
1 406 -0
2 406 0.019546643779946627
3 406 -0.026041818879592334
4 406 0.99636476498469573
5 406 0.52775938205855888
6 406 0.22636350256876409
1 407 -0
2 407 -0.019546643779946631
3 407 0.040064336737834362
4 407 0.99636476498469573
5 407 0.8014123949778118
6 407 0.46474630615887863
1 408 -0
2 408 -0
3 408 -0
4 408 0
5 408 0
6 408 0
1 409 -0
2 409 -0
3 409 -0
4 409 0
5 409 0
6 409 0
1 410 -0
2 410 -0
3 410 -0
4 410 0
5 410 0
6 410 0
1 411 -0
2 411 -0
3 411 -0
4 411 0
5 411 0
6 411 0
1 412 -0
2 412 -0
3 412 -0
4 412 0
5 412 0
6 412 0
1 413 -0
2 413 -0.013821564366238109
3 413 0.025496787771957595
4 413 0.70453628185601902
5 413 0.51139788155081012
6 413 0.32295931177812948
1 414 -0
2 414 0.019546643779946634
3 414 -0.050080420922292951
4 414 0.99636476498469573
5 414 0.99687883277727807
6 414 0.83534142098384623
1 415 -0
2 415 -0
3 415 -0
4 415 0
5 415 0
6 415 0
1 416 -0
2 416 -0
3 416 -0
4 416 0
5 416 0
6 416 0
1 417 -0
2 417 -0
3 417 -0
4 417 0
5 417 0
6 417 0
1 418 -0
2 418 -0
3 418 -0
4 418 0
5 418 0
6 418 0
1 419 -0
2 419 -0
3 419 -0
4 419 0
5 419 0
6 419 0
1 420 -0
2 420 -0.013821564366238109
3 420 0.045327622705702383
4 420 0.70453628185601902
5 420 0.89840168380547747
6 420 0.99720769952545274
1 421 -0
2 421 -0
3 421 -0
4 421 0
5 421 0
6 421 0
1 422 -0
2 422 -0
3 422 -0
4 422 0
5 422 0
6 422 0
1 423 -0
2 423 -0
3 423 -0
4 423 0
5 423 0
6 423 0
1 424 -0
2 424 -0
3 424 -0
4 424 0
5 424 0
6 424 0
1 425 -0
2 425 -0
3 425 -0
4 425 0
5 425 0
6 425 0
1 426 -0.70453628185601902
2 426 0.013821564366238109
3 426 -0
4 426 0
5 426 -0.013821564366238109
6 426 0
1 427 0.99636476498469573
2 427 -0.058639931339839899
3 427 0.0020032168368917173
4 427 0
5 427 -0.019546643779946627
6 427 -0.0020032168368917173
1 428 -0.99636476498469573
2 428 0.17591979401951968
3 428 -0.016025734695133739
4 428 0
5 428 -0.019546643779946631
6 428 -0.0080128673475668693
1 429 0.99636476498469573
2 429 -0.37138623181898583
3 429 0.066106155617426693
4 429 0
5 429 -0.019546643779946634
6 429 -0.018028951532025456
1 430 -0.99636476498469573
2 430 0.64503924473823882
3 430 -0.1923088163416049
4 430 0
5 430 -0.019546643779946644
6 430 -0.032051469390267477
1 431 -0.70453628185601902
2 431 0.069107821831190547
3 431 -0.0056659528382127979
4 431 0
5 431 -0.013821564366238109
6 431 -0.002832976419106399
1 432 0.99636476498469573
2 432 -0.21501308157941293
3 432 0.034054686227159195
4 432 0
5 432 -0.019546643779946627
6 432 -0.010016084184458591
1 433 -0.99636476498469573
2 433 0.41047951937887922
3 433 -0.10416727551836934
4 433 0
5 433 -0.019546643779946627
6 433 -0.020032168368917181
1 434 0.99636476498469573
2 434 -0.6841325322981322
3 434 0.25841497195903163
4 434 0
5 434 -0.019546643779946627
6 434 -0.034054686227159202
1 435 -0.70453628185601902
2 435 0.23496659422604785
3 435 -0.067991434058553596
4 435 0
5 435 -0.013821564366238109
6 435 -0.011331905676425596
1 436 0.99636476498469573
2 436 -0.52775938205855888
3 436 0.22636350256876409
4 436 0
5 436 -0.019546643779946627
6 436 -0.026041818879592334
1 437 -0.99636476498469573
2 437 0.8014123949778118
3 437 -0.46474630615887863
4 437 0
5 437 -0.019546643779946631
6 437 -0.040064336737834362
1 438 -0.70453628185601902
2 438 0.51139788155081012
3 438 -0.32295931177812948
4 438 0
5 438 -0.013821564366238109
6 438 -0.025496787771957595
1 439 0.99636476498469573
2 439 -0.99687883277727807
3 439 0.83534142098384623
4 439 0
5 439 -0.019546643779946634
6 439 -0.050080420922292951
1 440 -0.70453628185601902
2 440 0.89840168380547747
3 440 -0.99720769952545274
4 440 0
5 440 -0.013821564366238109
6 440 -0.045327622705702383
