%%MatrixMarket matrix coordinate real general
60 60 600
1 1 3.5852877427093857
2 1 0.5203470074815959
3 1 -0.51876135114720656
4 1 -0.79752262461594381
5 1 -1.0524766180395613
6 1 1.3113865179052684
7 1 0.050262291467010965
8 1 -0.55748581004512776
9 1 0.51580288186331935
10 1 0.34612594159758431
1 2 0.5203470074815959
2 2 2.7896623676896155
3 2 -0.024163725982103462
4 2 -0.10471945987574828
5 2 -0.11216581954806089
6 2 0.12793938456408988
7 2 -0.013099748217280341
8 2 -0.050622936913872818
9 2 0.066519924158253738
10 2 0.030107461985066107
1 3 -0.51876135114720656
2 3 -0.024163725982103462
3 3 2.8183786500652577
4 3 0.051487051310924251
5 3 0.093084199260210873
6 3 -0.12351018915968486
7 3 -0.0083911750029730201
8 3 0.049996889118757659
9 3 -0.030904619455410117
10 3 -0.050869724286454254
1 4 -0.79752262461594381
2 4 -0.10471945987574828
3 4 0.051487051310924251
4 4 2.8924597356885289
5 4 0.17729280879541565
6 4 -0.17932350248732468
7 4 0.0040160952326257883
8 4 0.062073492258258881
9 4 -0.076762543134350839
10 4 -0.058204237688666366
1 5 -1.0524766180395613
2 5 -0.11216581954806089
3 5 0.093084199260210873
4 5 0.17729280879541565
5 5 2.9548711183190335
6 5 -0.24223098757145628
7 5 -0.015268187598057086
8 5 0.10704567917110677
9 5 -0.089422845561819342
10 5 -0.075805974032755921
1 6 1.3113865179052684
2 6 0.12793938456408988
3 6 -0.12351018915968486
4 6 -0.17932350248732468
5 6 -0.24223098757145628
6 6 3.0468009941822687
7 6 0.0017025572159924517
8 6 -0.13744780149158989
9 6 0.14436565407452021
10 6 0.072803930134760941
1 7 0.050262291467010965
2 7 -0.013099748217280341
3 7 -0.0083911750029730201
4 7 0.0040160952326257883
5 7 -0.015268187598057086
6 7 0.0017025572159924517
7 7 2.7535725031494209
8 7 -0.0060199198548654704
9 7 -0.017274121178532904
10 7 -0.020212109312548771
1 8 -0.55748581004512776
2 8 -0.050622936913872818
3 8 0.049996889118757659
4 8 0.062073492258258881
5 8 0.10704567917110677
6 8 -0.13744780149158989
7 8 -0.0060199198548654704
8 8 2.7919992821553992
9 8 -0.053935318181399863
10 8 -0.028059351924894869
1 9 0.51580288186331935
2 9 0.066519924158253738
3 9 -0.030904619455410117
4 9 -0.076762543134350839
5 9 -0.089422845561819342
6 9 0.14436565407452021
7 9 -0.017274121178532904
8 9 -0.053935318181399863
9 9 2.8156102996308006
10 9 -6.171324220603791e-05
1 10 0.34612594159758431
2 10 0.030107461985066107
3 10 -0.050869724286454254
4 10 -0.058204237688666366
5 10 -0.075805974032755921
6 10 0.072803930134760941
7 10 -0.020212109312548771
8 10 -0.028059351924894869
9 10 -6.171324220603791e-05
10 10 2.8051237616581823
11 11 1.1681749969487212
12 11 -0.18283795051993496
13 11 0.10855854446570179
14 11 -0.20504464244180551
15 11 0.2264234240661831
16 11 0.37062287521628895
17 11 -0.090158049456063635
18 11 -0.27154602200818606
19 11 -0.085761272167161257
20 11 0.24015685547168117
11 12 -0.18283795051993496
12 12 0.84937055917855542
13 12 -0.020670609531864483
14 12 0.03819922531298757
15 12 -0.045892587251929046
16 12 -0.064241023732803049
17 12 0.0089044820294048796
18 12 0.034560769702728464
19 12 0.0065803885872309916
20 12 -0.037819200842276642
11 13 0.10855854446570179
12 13 -0.020670609531864483
13 13 0.8322471381558405
14 13 -0.017613134311251163
15 13 0.028574205408339756
16 13 0.019124392723345505
17 13 -0.0087442983270833961
18 13 -0.045576987137024183
19 13 -0.014155968097073438
20 13 0.016526489171893467
11 14 -0.20504464244180551
12 14 0.03819922531298757
13 14 -0.017613134311251163
14 14 0.87695703293336535
15 14 -0.033161529234650634
16 14 -0.053059401127319369
17 14 0.0017212054535833497
18 14 0.043333184378677024
19 14 0.021760588440745066
20 14 -0.053660171480109195
11 15 0.2264234240661831
12 15 -0.045892587251929046
13 15 0.028574205408339756
14 15 -0.033161529234650634
15 15 0.85314228505646261
16 15 0.064851467079474159
17 15 -0.013432486257355285
18 15 -0.045769783009791662
19 15 -0.018377474047794981
20 15 0.040606967876908019
11 16 0.37062287521628895
12 16 -0.064241023732803049
13 16 0.019124392723345505
14 16 -0.053059401127319369
15 16 0.064851467079474159
16 16 0.94382125499558067
17 16 -0.03474681983698541
18 16 -0.081825361567867655
19 16 -0.008802789893707294
20 16 0.083391161492136642
11 17 -0.090158049456063635
12 17 0.0089044820294048796
13 17 -0.0087442983270833961
14 17 0.0017212054535833497
15 17 -0.013432486257355285
16 17 -0.03474681983698541
17 17 0.82913626323859158
18 17 0.030869429306689868
19 17 -0.0041851127595065769
20 17 -0.013468055754563762
11 18 -0.27154602200818606
12 18 0.034560769702728464
13 18 -0.045576987137024183
14 18 0.043333184378677024
15 18 -0.045769783009791662
16 18 -0.081825361567867655
17 18 0.030869429306689868
18 18 0.91179658037141498
19 18 0.02368426986225209
20 18 -0.065278167042613466
11 19 -0.085761272167161257
12 19 0.0065803885872309916
13 19 -0.014155968097073438
14 19 0.021760588440745066
15 19 -0.018377474047794981
16 19 -0.008802789893707294
17 19 -0.0041851127595065769
18 19 0.02368426986225209
19 19 0.82997446963624788
20 19 -0.03226232723279944
11 20 0.24015685547168117
12 20 -0.037819200842276642
13 20 0.016526489171893467
14 20 -0.053660171480109195
15 20 0.040606967876908019
16 20 0.083391161492136642
17 20 -0.013468055754563762
18 20 -0.065278167042613466
19 20 -0.03226232723279944
20 20 0.88995772143888341
21 21 3.7710717933403748
22 21 0.093285383711367187
23 21 -0.368730817384613
24 21 1.2355920494316779
25 21 -1.210343637294335
26 21 0.68965960778349666
27 21 0.17840398433877241
28 21 0.78905784266162049
29 21 -0.54979532355266825
30 21 1.577300095431557
21 22 0.093285383711367187
22 22 2.4765882050956569
23 22 -0.0052540433570769426
24 22 0.0094479482944123221
25 22 -0.030540002047995354
26 22 0.019754608773736113
27 22 -0.0077039337859881778
28 22 0.011841482185658588
29 22 0.0012979431316396325
30 22 0.029295674530387547
21 23 -0.368730817384613
22 23 -0.0052540433570769426
23 23 2.4978082327095952
24 23 -0.083538199476840713
25 23 0.077191008763727809
26 23 -0.048128279815089672
27 23 -0.021785607340773352
28 23 -0.041853351733645724
29 23 0.044904282060624259
30 23 -0.10968068118100376
21 24 1.2355920494316779
22 24 0.0094479482944123221
23 24 -0.083538199476840713
24 24 2.7583872055802399
25 24 -0.27076343276394638
26 24 0.14485093698953738
27 24 0.044044682699722393
28 24 0.17170164453931849
29 24 -0.12676258607515889
30 24 0.35356680766250514
21 25 -1.210343637294335
22 25 -0.030540002047995354
23 25 0.077191008763727809
24 25 -0.27076343276394638
25 25 2.7772711056455304
26 25 -0.18258097319789635
27 25 -0.018669537281001129
28 25 -0.17218902347889528
29 25 0.11566098449436045
30 25 -0.3354122888884804
21 26 0.68965960778349666
22 26 0.019754608773736113
23 26 -0.048128279815089672
24 26 0.14485093698953738
25 26 -0.18258097319789635
26 26 2.5943758845046982
27 26 0.0071138343102570591
28 26 0.086303320786365795
29 26 -0.07799810671095575
30 26 0.19797997553205537
21 27 0.17840398433877241
22 27 -0.0077039337859881778
23 27 -0.021785607340773352
24 27 0.044044682699722393
25 27 -0.018669537281001129
26 27 0.0071138343102570591
27 27 2.5095097598970502
28 27 0.047048514856693757
29 27 -0.028534276279914464
30 27 0.052086638351633491
21 28 0.78905784266162049
22 28 0.011841482185658588
23 28 -0.041853351733645724
24 28 0.17170164453931849
25 28 -0.17218902347889528
26 28 0.086303320786365795
27 28 0.047048514856693757
28 28 2.6142913749596683
29 28 -0.073346440178167563
30 28 0.21789598892450168
21 29 -0.54979532355266825
22 29 0.0012979431316396325
23 29 0.044904282060624259
24 29 -0.12676258607515889
25 29 0.11566098449436045
26 29 -0.07799810671095575
27 29 -0.028534276279914464
28 29 -0.073346440178167563
29 29 2.527966079031398
30 29 -0.16029193773356873
21 30 1.577300095431557
22 30 0.029295674530387547
23 30 -0.10968068118100376
24 30 0.35356680766250514
25 30 -0.3354122888884804
26 30 0.19797997553205537
27 30 0.052086638351633491
28 30 0.21789598892450168
29 30 -0.16029193773356873
30 30 2.9272652133034684
31 31 1.1154049966986417
32 31 0.20971882341328957
33 31 -0.22752634137237809
34 31 -0.29220555752327643
35 31 -0.031930413963657624
36 31 0.14485052145205674
37 31 -0.29429093989374633
38 31 -0.27537058052869723
39 31 -0.13986659259939435
40 31 0.38017478193247628
31 32 0.20971882341328957
32 32 0.57175595887588515
33 32 -0.050105544325887728
34 32 -0.059315054220180428
35 32 -0.025723440739677365
36 32 0.037772309631962105
37 32 -0.054863834112563972
38 32 -0.065307078722936313
39 32 -0.04277375350017007
40 32 0.059066340434314954
31 33 -0.22752634137237809
32 33 -0.050105544325887728
33 33 0.56961313142884329
34 33 0.079710017131032415
35 33 0.0021017491705176087
36 33 -0.040095336628466136
37 33 0.072023763080012834
38 33 0.07400211740705194
39 33 0.017984586539826354
40 33 -0.092691963371889563
31 34 -0.29220555752327643
32 34 -0.059315054220180428
33 34 0.079710017131032415
34 34 0.59717097831913835
35 34 0.00033195111792307455
36 34 -0.042686219090698981
37 34 0.092343651042995162
38 34 0.082787790549325183
39 34 0.030031567429026407
40 34 -0.13141883539591548
31 35 -0.031930413963657624
32 35 -0.025723440739677365
33 35 0.0021017491705176087
34 35 0.00033195111792307455
35 35 0.52388025748809186
36 35 -0.0025191122796828112
37 35 0.0064175183099701195
38 35 0.014313164162705883
39 35 0.017242269840083042
40 35 -0.0097510278609158271
31 36 0.14485052145205674
32 36 0.037772309631962105
33 36 -0.040095336628466136
34 36 -0.042686219090698981
35 36 -0.0025191122796828112
36 36 0.55178786841235006
37 36 -0.060694189703301989
38 36 -0.041401480595572471
39 36 -0.0089886193247547888
40 36 0.039125649471227382
31 37 -0.29429093989374633
32 37 -0.054863834112563972
33 37 0.072023763080012834
34 37 0.092343651042995162
35 37 0.0064175183099701195
36 37 -0.060694189703301989
37 37 0.62996497344456392
38 37 0.086928294024939123
39 37 0.038835104742108696
40 37 -0.13222496927448091
31 38 -0.27537058052869723
32 38 -0.065307078722936313
33 38 0.07400211740705194
34 38 0.082787790549325183
35 38 0.014313164162705883
36 38 -0.041401480595572471
37 38 0.086928294024939123
38 38 0.57931092335603207
39 38 0.053488509047840062
40 38 -0.12111881012587711
31 39 -0.13986659259939435
32 39 -0.04277375350017007
33 39 0.017984586539826354
34 39 0.030031567429026407
35 39 0.017242269840083042
36 39 -0.0089886193247547888
37 39 0.038835104742108696
38 39 0.053488509047840062
39 39 0.54494538008498761
40 39 -0.069419246096026316
31 40 0.38017478193247628
32 40 0.059066340434314954
33 40 -0.092691963371889563
34 40 -0.13141883539591548
35 40 -0.0097510278609158271
36 40 0.039125649471227382
37 40 -0.13222496927448091
38 40 -0.12111881012587711
39 40 -0.069419246096026316
40 40 0.68845064406549406
41 41 4.152439067405016
42 41 -0.86613099188376719
43 41 -0.14014546218019433
44 41 -1.9171276652390479
45 41 -0.19896373972527981
46 41 1.4135416847644162
47 41 -0.49077765378074423
48 41 1.4136376301272304
49 41 0.022798452614295174
50 41 0.84113783888268223
41 42 -0.86613099188376719
42 42 2.7030309749780508
43 42 0.035906923641687113
44 42 0.28909321014883704
45 42 0.039317173387257362
46 42 -0.20271616978054974
47 42 0.068444569792285692
48 42 -0.21051907362894209
49 42 -0.015996717671189625
50 42 -0.12343212007290189
41 43 -0.14014546218019433
42 43 0.035906923641687113
43 43 2.5666975397641365
44 43 0.051526573788084035
45 43 0.0037903065441092379
46 43 -0.030860199211422162
47 43 0.011036343919339669
48 43 -0.035820112532626847
49 43 -0.0038374147723680804
50 43 -0.012725054257963119
41 44 -1.9171276652390479
42 44 0.28909321014883704
43 44 0.051526573788084035
44 44 3.1842878957929908
45 44 0.067403535889859173
46 44 -0.45722313910968676
47 44 0.15977042824010448
48 44 -0.44709846830755384
49 44 -0.023206432575243859
50 44 -0.26638152521247055
41 45 -0.19896373972527981
42 45 0.039317173387257362
43 45 0.0037903065441092379
44 45 0.067403535889859173
45 45 2.6146374070903167
46 45 -0.042393518319711249
47 45 0.014921999305647787
48 45 -0.039896456656250349
49 45 -0.020325148192312431
50 45 -0.05681324873161829
41 46 1.4135416847644162
42 46 -0.20271616978054974
43 46 -0.030860199211422162
44 46 -0.45722313910968676
45 46 -0.042393518319711249
46 46 2.889528302664127
47 46 -0.12281552699477717
48 46 0.32701147888425131
49 46 0.0070170620069983846
50 46 0.1974281478296597
41 47 -0.49077765378074423
42 47 0.068444569792285692
43 47 0.011036343919339669
44 47 0.15977042824010448
45 47 0.014921999305647787
46 47 -0.12281552699477717
47 47 2.6050433560255661
48 47 -0.098562053721624049
49 47 0.0095542688712264272
50 47 -0.064071830081351783
41 48 1.4136376301272304
42 48 -0.21051907362894209
43 48 -0.035820112532626847
44 48 -0.44709846830755384
45 48 -0.039896456656250349
46 48 0.32701147888425131
47 48 -0.098562053721624049
48 48 2.9129234883680635
49 48 0.0065214812817487441
50 48 0.20218629598847654
41 49 0.022798452614295174
42 49 -0.015996717671189625
43 49 -0.0038374147723680804
44 49 -0.023206432575243859
45 49 -0.020325148192312431
46 49 0.0070170620069983846
47 49 0.0095542688712264272
48 49 0.0065214812817487441
49 49 2.59271775049561
50 49 0.0082721150432638318
41 50 0.84113783888268223
42 50 -0.12343212007290189
43 50 -0.012725054257963119
44 50 -0.26638152521247055
45 50 -0.05681324873161829
46 50 0.1974281478296597
47 50 -0.064071830081351783
48 50 0.20218629598847654
49 50 0.0082721150432638318
50 50 2.6851118439551356
51 51 1.3909886385791377
52 51 -0.13690356262421843
53 51 -0.0069375099083809769
54 51 -0.17565199294916356
55 51 0.60148445889949398
56 51 -0.20437971621572756
57 51 -0.082334886805920285
58 51 0.43056025872339221
59 51 0.040935702814751382
60 51 -0.38281600364046225
51 52 -0.13690356262421843
52 52 0.87626377008027934
53 52 0.00037023402973110158
54 52 0.014522603147048436
55 52 -0.061911295419632702
56 52 0.013752414800260451
57 52 0.0067898224596712811
58 52 -0.046581864762219732
59 52 0.0012756868300350917
60 52 0.048584735124719912
51 53 -0.0069375099083809769
52 53 0.00037023402973110158
53 53 0.89787152518018787
54 53 -0.022329837637164014
55 53 0.02841846204455456
56 53 0.0061554606242069723
57 53 -0.021281130002449227
58 53 -0.010242428872510805
59 53 0.014052240799111767
60 53 -0.019319149995712399
51 54 -0.17565199294916356
52 54 0.014522603147048436
53 54 -0.022329837637164014
54 54 0.89310327738752537
55 54 -0.080722968126824432
56 54 0.019190936086575537
57 54 0.016194035481268951
58 54 -0.044409698146160678
59 54 -0.0022952635820112127
60 54 0.050928159223535524
51 55 0.60148445889949398
52 55 -0.061911295419632702
53 55 0.02841846204455456
54 55 -0.080722968126824432
55 55 1.1458799876790287
56 55 -0.085015421298111543
57 55 -0.055277707695432499
58 55 0.16060144932798887
59 55 0.039053255131751272
60 55 -0.18417511012940613
51 56 -0.20437971621572756
52 56 0.013752414800260451
53 56 0.0061554606242069723
54 56 0.019190936086575537
55 56 -0.085015421298111543
56 56 0.89843515837427534
57 56 0.014979571475411551
58 56 -0.054486519866787333
59 56 -0.012135293799266401
60 56 0.043558430442110038
51 57 -0.082334886805920285
52 57 0.0067898224596712811
53 57 -0.021281130002449227
54 57 0.016194035481268951
55 57 -0.055277707695432499
56 57 0.014979571475411551
57 57 0.88477374112231932
58 57 -0.011279532366951353
59 57 -0.027548585713939491
60 57 0.024651035769597394
51 58 0.43056025872339221
52 58 -0.046581864762219732
53 58 -0.010242428872510805
54 58 -0.044409698146160678
55 58 0.16060144932798887
56 58 -0.054486519866787333
57 58 -0.011279532366951353
58 58 1.0151861619100981
59 58 0.0015898231313540723
60 58 -0.12408377924116885
51 59 0.040935702814751382
52 59 0.0012756868300350917
53 59 0.014052240799111767
54 59 -0.0022952635820112127
55 59 0.039053255131751272
56 59 -0.012135293799266401
57 59 -0.027548585713939491
58 59 0.0015898231313540723
59 59 0.90776364671235421
60 59 -0.012487415878883834
51 60 -0.38281600364046225
52 60 0.048584735124719912
53 60 -0.019319149995712399
54 60 0.050928159223535524
55 60 -0.18417511012940613
56 60 0.043558430442110038
57 60 0.024651035769597394
58 60 -0.12408377924116885
59 60 -0.012487415878883834
60 60 0.99662040138808861
