%%MatrixMarket matrix coordinate real general
30 60 1800
1 1 -0.051581704310641428
2 1 0.49858405223350777
3 1 -0.28335162798845193
4 1 -0.51692748959029455
5 1 -0.99752208031812317
6 1 0.51878230686346138
7 1 0.34976338363200909
8 1 -0.031869688027627324
9 1 0.092881015484103352
10 1 -0.23948292643842672
11 1 0.15264036101020981
12 1 0.97101585037044991
13 1 0.18841524466176368
14 1 1
15 1 -0.77604884818435449
16 1 -0.98526211816823894
17 1 0.72264197638434502
18 1 -0.65853089242818408
19 1 0.072610013686244951
20 1 -0.066368322026700163
21 1 -0.96405473371891715
22 1 0.3896932528850216
23 1 -0.69221746116509475
24 1 -0.76846630962637552
25 1 0.90954093885868681
26 1 -0.21415326603393675
27 1 0.24578917897673069
28 1 -0.70408218928849708
29 1 0.22904038303558552
30 1 0.17010363272494225
1 2 0.03814772115419706
2 2 -0.89643764784943403
3 2 0.35435179111113052
4 2 -0.17412862215596497
5 2 -0.058256744367008992
6 2 -0.52262337079281174
7 2 0.49405686034990454
8 2 -0.37590104196613877
9 2 0.51916197541298614
10 2 -0.9106153027715983
11 2 0.47086190269949912
12 2 -0.07916297505466495
13 2 -0.34366170265255802
14 2 0.36105901914339883
15 2 -0.4372681185517393
16 2 0.67661711429493498
17 2 0.1023941092360717
18 2 -0.08603940935642547
19 2 -0.16611277629209012
20 2 -0.99996261676082354
21 2 0.22514889991825046
22 2 -0.13294514854238232
23 2 0.5752166682665556
24 2 0.0037944047822235896
25 2 -0.25235242440812294
26 2 0.14567011004330252
27 2 0.99901928328685907
28 2 0.36417717565459301
29 2 -0.0083215871646349429
30 2 -0.38849673690169539
1 3 -0.17940863002876753
2 3 0.83512786727851174
3 3 0.10068387007900774
4 3 0.79630016872968923
5 3 -0.31241091924455427
6 3 -0.60342041345014519
7 3 -0.30047673194216989
8 3 -0.34967110251832412
9 3 -0.37540327656061262
10 3 0.06584642464520836
11 3 -0.5399493188120762
12 3 0.42686881788191755
13 3 0.14739787677183949
14 3 0.28861712471965206
15 3 0.66706968922525378
16 3 -0.12578157968461112
17 3 -0.15382672890651816
18 3 0.030214503487860211
19 3 -0.062929450556313826
20 3 -0.16736532208218904
21 3 -0.020867438294730652
22 3 -0.19402531554566538
23 3 0.65070830021189641
24 3 0.079175231049238126
25 3 -0.20009426904627864
26 3 0.17442009943728165
27 3 -0.26991568459539877
28 3 -0.13072799452783218
29 3 0.62008561892912895
30 3 -0.13858536549362033
1 4 0.36225264657436795
2 4 -0.42303049993305764
3 4 0.010309182083747495
4 4 -0.097160480422163686
5 4 0.2294274094239484
6 4 -0.68076925811674482
7 4 -0.13576403659947603
8 4 0.19570031453077924
9 4 0.36120228148578143
10 4 0.47907267595284009
11 4 0.84880483103771853
12 4 -0.59604665151181058
13 4 0.16815942211495957
14 4 0.059103085195845159
15 4 0.82294761046265319
16 4 0.18354250835397035
17 4 -0.60618388240063514
18 4 -0.21280754327746862
19 4 -0.38923913116640285
20 4 0.1558632695053371
21 4 -0.14892978470233739
22 4 0.031597646014570345
23 4 0.029959681073930551
24 4 -0.060452457204995369
25 4 -0.58699577450562979
26 4 0.2194010607865623
27 4 -0.49168935776105949
28 4 0.43517684354295516
29 4 0.51149510569624967
30 4 -0.93212778881479463
1 5 -0.39681248227560501
2 5 -0.65804204131960786
3 5 -0.19317598278546097
4 5 0.07043973848388374
5 5 -0.14922085692023848
6 5 -0.091953261303983291
7 5 -0.0042080300102079063
8 5 -0.32760767200449881
9 5 0.30093934111394283
10 5 -0.7733809896022511
11 5 -0.14180337913573118
12 5 -0.2288231370237887
13 5 0.6245166275862416
14 5 -0.14160123321804444
15 5 -0.67727811428494034
16 5 0.47458859539674186
17 5 -0.14527866628825081
18 5 0.14951855939135192
19 5 0.54074859246786711
20 5 0.13681520981173029
21 5 -0.45356471462620873
22 5 -0.51184598481201604
23 5 -0.018539209356746678
24 5 0.40855416840000214
25 5 -0.43896440386103447
26 5 -0.67869535330785657
27 5 0.10471948211552017
28 5 0.33784149006046371
29 5 -0.64960246195577565
30 5 0.73340187461237016
1 6 -0.15098515418791825
2 6 0.21927677374315949
3 6 0.016356723372244333
4 6 0.60376291691839223
5 6 0.12646319455058036
6 6 -0.12403919848789008
7 6 -0.32418543539581385
8 6 0.67396485792903804
9 6 0.36053569734162505
10 6 0.37015266805987573
11 6 0.83596670519662819
12 6 0.056158814830283323
13 6 0.65107062222338719
14 6 0.42554718721078877
15 6 0.0079273502286104722
16 6 -0.42078813794151138
17 6 -0.4488322736002307
18 6 0.033815862602765229
19 6 0.11985604838682766
20 6 -0.25019908200702906
21 6 0.11015254917115375
22 6 0.090655952875214801
23 6 -0.034450671171879867
24 6 -0.27559611532497441
25 6 -0.13681599633652911
26 6 0.27204159991062277
27 6 0.48185601240797943
28 6 -0.75806101017556049
29 6 0.46099226242238628
30 6 0.17272724573263909
1 7 -0.21707755055745606
2 7 -0.2216022535136602
3 7 -0.53078599088434586
4 7 0.011063045212394828
5 7 0.29561190165958834
6 7 0.98897891708552887
7 7 -0.007141225934057866
8 7 0.34434284485739264
9 7 0.25978273902868981
10 7 0.0077117441659957636
11 7 0.0094188713916568377
12 7 -0.32627802526259653
13 7 0.41437556166427525
14 7 -0.41529864949624545
15 7 -0.14650575954209361
16 7 -0.42990846290511481
17 7 -0.090900212875491437
18 7 -0.73521096622001936
19 7 -0.26508253554393807
20 7 -0.10227232221323408
21 7 -0.16780618541105433
22 7 0.043249300096075118
23 7 0.85555726180997449
24 7 0.28385406095650584
25 7 -0.38127290694891564
26 7 -0.29462520571425427
27 7 -0.19069746037967086
28 7 0.48989699550100763
29 7 0.49414001221550402
30 7 -0.34184564371090675
1 8 0.31613959893159799
2 8 0.16276719294077974
3 8 0.27463010982716723
4 8 -0.25783480793758606
5 8 0.15115568789144443
6 8 -0.044425073715954215
7 8 0.0034610789843702553
8 8 -0.59148271921964302
9 8 0.94661446391787163
10 8 0.21049412113222762
11 8 -0.23655121070256804
12 8 0.21998508691006446
13 8 -0.27460659074393828
14 8 -0.53900027756609004
15 8 -0.12951512382171007
16 8 0.13618556938583093
17 8 0.33596145030598767
18 8 0.032975533744601951
19 8 -0.13949803405044306
20 8 -0.20322141701526469
21 8 -0.47616681151763718
22 8 0.94473476167448311
23 8 0.042007215949855167
24 8 0.13712064477126235
25 8 0.02510206941772291
26 8 -0.17302361129271188
27 8 0.32115832852937787
28 8 0.28546015357404797
29 8 -0.013522976138570831
30 8 -0.090444551722018887
1 9 0.39779238556823848
2 9 0.37155023308929108
3 9 0.39942776170860977
4 9 -0.28457485321030318
5 9 -0.12917659523987893
6 9 -0.097249118137499702
7 9 0.085083084895214864
8 9 0.29454650970597374
9 9 -0.37206943697738393
10 9 -0.99995637147277638
11 9 0.12034812062646544
12 9 0.83761008159625217
13 9 0.49731820031184748
14 9 -0.33772288388708521
15 9 -0.022485704965447478
16 9 0.61964748186792207
17 9 0.25189316755945523
18 9 -0.64783227983327962
19 9 0.3623353804759476
20 9 0.86128541557837623
21 9 0.93366551201325332
22 9 0.0072469548872152664
23 9 0.238353540758975
24 9 -0.61399846898910038
25 9 -0.60915609830356388
26 9 -0.41392203769244035
27 9 0.76588318153688817
28 9 0.038576161243049252
29 9 -0.17886568112687906
30 9 -0.97676566447077706
1 10 -0.65772667353702352
2 10 0.021851519664247046
3 10 -0.033086088142430581
4 10 -0.60255139678068026
5 10 -0.016820802101904134
6 10 0.34973821379082554
7 10 0.54953567990860053
8 10 0.516793738031881
9 10 -0.67322259155240882
10 10 -0.3038540614994284
11 10 -0.1258411311576336
12 10 0.69823697390231243
13 10 0.041559146395551007
14 10 -0.64348418540744856
15 10 -0.19840648460221144
16 10 -0.4923278036551641
17 10 -0.71413808841403126
18 10 0.36648454883708537
19 10 0.41255101498895069
20 10 -0.0032171101712158124
21 10 0.17881327185889065
22 10 -0.20527412856627245
23 10 0.00010276308190727146
24 10 0.20820328181044903
25 10 0.27512324793660092
26 10 0.5818693940178008
27 10 0.43675353934197497
28 10 0.629632959972804
29 10 0.021491367205223762
30 10 -0.51673022452037076
1 11 0.16905560255194893
2 11 0.75661569337313561
3 11 -0.79761694330486943
4 11 -0.31144546968491627
5 11 0.57120790117234355
6 11 -0.096844748790634844
7 11 0.58828451040471685
8 11 -0.5639951698611152
9 11 0.26955288725027965
10 11 0.037752614704734323
11 11 -0.036974535067228177
12 11 0.054274474729670528
13 11 0.25891459174671627
14 11 0.026322047514613135
15 11 0.40646820665326544
16 11 0.39555178393600776
17 11 0.43288221264985299
18 11 0.12828010414705926
19 11 0.33886295580497194
20 11 -0.34010582423976543
21 11 0.93650332570788253
22 11 0.20750355008127933
23 11 -0.21982701380127295
24 11 0.27223175192815513
25 11 0.35089730682910214
26 11 0.071539129893855205
27 11 -0.24980282427172679
28 11 -0.25302292750371136
29 11 -0.018530489610773464
30 11 -0.49695893459762541
1 12 -0.28247971156190871
2 12 0.031030760856430487
3 12 -0.22094829640037297
4 12 -0.63636576397024536
5 12 -0.52930452461920008
6 12 -0.29831596142190242
7 12 -0.99971647596527369
8 12 0.34827928237876143
9 12 -0.072620264263336717
10 12 -0.4561111205286667
11 12 0.74525456338745399
12 12 0.43117695360270764
13 12 0.12236594289757244
14 12 -0.064461870445273545
15 12 -0.1105445379367563
16 12 0.69223154481223959
17 12 -0.74481048272870298
18 12 -0.36132034116180212
19 12 0.19450750720843446
20 12 -0.30025739670830931
21 12 -0.45126514032959203
22 12 0.080805123594233558
23 12 -0.43216655888349159
24 12 -0.17123808675898947
25 12 0.30244947083135482
26 12 0.81613116414437392
27 12 -0.37304010633656415
28 12 -0.40562007158778302
29 12 0.67181030247252249
30 12 -0.024154551420376157
1 13 -0.40996736060477124
2 13 -0.90640744284786878
3 13 -0.27129319446287675
4 13 -0.2098761644683767
5 13 -0.10148790817414355
6 13 -0.053177484214129267
7 13 0.066291343321358775
8 13 -0.81491267537843048
9 13 -0.35989836399295
10 13 0.34327646566672393
11 13 0.32758560689880123
12 13 0.40137247427497996
13 13 0.22616976845396441
14 13 0.75049127760085754
15 13 -0.099454908895498059
16 13 -0.23486259022664979
17 13 -0.44413292277381033
18 13 0.26930298347676584
19 13 0.11204167622456074
20 13 -0.59286310273830878
21 13 0.27629915606708594
22 13 0.09634234415098486
23 13 -0.090810994990649402
24 13 0.52494025341983774
25 13 0.085661992566162193
26 13 -0.20962633809957515
27 13 -0.79823228778955813
28 13 0.90749184783289083
29 13 -0.084857323592616829
30 13 0.069434752307933653
1 14 0.54697829776471574
2 14 0.13333684576911042
3 14 0.03605798757403627
4 14 0.032319617013584802
5 14 -0.15069399006366824
6 14 -0.031712334682731574
7 14 0.090440769554015032
8 14 0.29609835830378978
9 14 -0.13224139363611656
10 14 0.40922019963609024
11 14 -0.21570071834122212
12 14 0.046548265337348682
13 14 0.048883422425034649
14 14 -0.17518860755518326
15 14 -0.40737071129040692
16 14 0.99979516369801047
17 14 -0.15115236327055606
18 14 0.094544098089063056
19 14 -0.48235393649642549
20 14 -0.51531581929126191
21 14 0.24318333559564928
22 14 -0.58061209208332176
23 14 0.52808967734864765
24 14 0.13267575298222392
25 14 -0.62391705605616932
26 14 0.019742815639847609
27 14 0.51894300288514683
28 14 0.74565116520152719
29 14 0.50436254610319431
30 14 -0.023832933913884132
1 15 -0.0048757651447606347
2 15 0.43700630277511182
3 15 -0.84320630616023828
4 15 -0.021403122246358843
5 15 -0.055794593291460685
6 15 -0.6817437765895884
7 15 0.49799324091331049
8 15 0.11681688237526466
9 15 0.63513345307733138
10 15 0.31138521011122983
11 15 0.020044523079985804
12 15 -0.15869665333359123
13 15 -0.0066001509889896245
14 15 -0.0203265992904944
15 15 0.54522612439330542
16 15 -0.35449304843653001
17 15 0.48081790658248164
18 15 -0.53752311680386011
19 15 0.42453353743671446
20 15 -0.3341258521920954
21 15 -0.14800915438415829
22 15 -0.2125707551931493
23 15 0.032246623085301081
24 15 0.99987245276667147
25 15 -0.26833882837136741
26 15 0.25451857560959379
27 15 0.91720459444091618
28 15 -0.5139705997175783
29 15 0.094303213544321335
30 15 -0.20723960091865931
1 16 0.23933771939226534
2 16 -0.29122002679560893
3 16 -0.28647922877701482
4 16 0.20388677126274371
5 16 0.20831452195955349
6 16 0.083594238765090478
7 16 -0.22100742701070261
8 16 0.74738181420147876
9 16 -0.82182910786652019
10 16 0.33872846346942836
11 16 0.31751631694135612
12 16 -0.83355550987148164
13 16 0.52712737327124282
14 16 0.2832481736620685
15 16 0.049592183918323186
16 16 -0.26158570504212447
17 16 -0.58745349518260714
18 16 0.053249077640578873
19 16 0.29043442624214871
20 16 -0.046338904510978308
21 16 -0.79519381283475576
22 16 0.046649694906412548
23 16 0.22460857630168174
24 16 -0.10435539418557212
25 16 -0.019281980240075994
26 16 -0.81121241157238178
27 16 0.24860730690432759
28 16 -0.25101524114877283
29 16 0.11657528364443856
30 16 0.52266835462674643
1 17 0.087151373276115857
2 17 0.88866677413656792
3 17 -0.16741097086877957
4 17 0.0454370160849197
5 17 0.55524749145111785
6 17 0.73705812022289474
7 17 -0.19729211494189308
8 17 0.49401657437368407
9 17 0.30766698497768757
10 17 0.1624808199982882
11 17 0.088255174710384438
12 17 0.025949251397880485
13 17 -0.08748806419377976
14 17 -0.21243529090667002
15 17 -0.13662401510719799
16 17 -0.15949426694669955
17 17 -0.2612256094126445
18 17 -0.095869596036375154
19 17 -0.00775860572499664
20 17 -0.080585024934457586
21 17 0.31038730024936134
22 17 -0.40575259755641163
23 17 -0.31561283465728845
24 17 0.62170078491551983
25 17 -0.16474915309967855
26 17 -0.21292823408696016
27 17 -0.12720245960972001
28 17 0.13896154814354256
29 17 -0.20467399735806657
30 17 -0.39855602463578599
1 18 0.9525663107787089
2 18 -0.80416720793756524
3 18 0.91066076296954757
4 18 0.066424964831993949
5 18 -0.66872234453441914
6 18 0.82215460664437856
7 18 -0.22231044338713593
8 18 -0.37749649501767951
9 18 -0.96976244171485926
10 18 0.48728694976792702
11 18 -0.23393452692896097
12 18 -0.42867333751003095
13 18 0.44426774176352363
14 18 -0.29427293704427793
15 18 -0.73246339510946135
16 18 0.021930184421403431
17 18 -0.8010199760153931
18 18 0.5299426861844394
19 18 0.08472311916358212
20 18 -0.01099873236321554
21 18 -0.61084561829277617
22 18 -0.0037595839080713793
23 18 -0.05780423410866585
24 18 -0.60690349995210491
25 18 -0.12841089538453215
26 18 0.69742159074701171
27 18 -0.22972480167339812
28 18 0.12874787504959656
29 18 0.13236841264063159
30 18 0.63239091326060815
1 19 0.53734756295903841
2 19 -0.0016634169184234545
3 19 -0.17473214956057498
4 19 -0.52297102677059215
5 19 0.65369751766637874
6 19 -0.046921440562970186
7 19 -0.17623743925378993
8 19 -0.074701210319972081
9 19 1.0000000000000002
10 19 0.14206960450123415
11 19 0.36927725391534233
12 19 -8.147886059358978e-07
13 19 -0.37233433772693436
14 19 -0.10385000707212452
15 19 -0.24074353797786316
16 19 -0.20929016837478137
17 19 -0.27076095378403719
18 19 -0.2141718743975429
19 19 -0.99960066427066274
20 19 -0.11740802780860869
21 19 -0.28869244903042734
22 19 0.0063129127073383706
23 19 0.0044282635578600351
24 19 0.56209290041413906
25 19 -0.2025127195448741
26 19 -0.13897868240806105
27 19 0.51236122230671099
28 19 0.4190784117950519
29 19 -0.62019837651073584
30 19 0.23298327697104593
1 20 -0.16469156292444531
2 20 0.14324414880119318
3 20 -0.084719572411748698
4 20 -0.26939536748357695
5 20 0.05189933906514882
6 20 0.6339491254399916
7 20 0.18338954795036766
8 20 0.61626763876226565
9 20 0.22476688695919683
10 20 -0.25433338863344573
11 20 0.38547877347924153
12 20 -0.7418537305027243
13 20 -0.025729563227322751
14 20 -0.10106141256043913
15 20 -0.53168130739607844
16 20 -0.11318664792502196
17 20 0.33698425055916753
18 20 0.020987003363037951
19 20 0.21380816796663585
20 20 -0.099310231523053488
21 20 -0.48487080408662558
22 20 -0.99976404447123346
23 20 -0.62892790101747509
24 20 -0.14612759481615803
25 20 -0.23140018630122705
26 20 -0.06280067711785102
27 20 0.1799788438083364
28 20 0.58048658402563491
29 20 0.25255391273185523
30 20 0.10053317991289247
1 21 0.23061584672499275
2 21 -0.68068873997546975
3 21 0.35890061678482449
4 21 0.62616205106245604
5 21 0.42522333906967708
6 21 -0.66329947268016065
7 21 0.9186178100230189
8 21 0.67654437526102251
9 21 -0.031315026917484508
10 21 -0.82194683568497817
11 21 0.36609227414004442
12 21 0.0254980086544681
13 21 0.22598580604651425
14 21 -0.1359343456778471
15 21 0.72503544583772594
16 21 -0.012496198060872354
17 21 -0.19425851211795184
18 21 0.22998484827692059
19 21 0.016184850818130269
20 21 -0.20241256794011442
21 21 0.29344105175609042
22 21 -0.12690310047219913
23 21 0.20891153752252539
24 21 0.10339666399904915
25 21 0.153551339040848
26 21 -0.35133834401745084
27 21 -0.61684279660842734
28 21 -0.36702752986652204
29 21 0.090036498029343659
30 21 0.15238583778281869
1 22 -0.55070602291026438
2 22 0.68882580993207743
3 22 -0.13219358915764914
4 22 -0.013415241874788868
5 22 0.13615443229849136
6 22 -0.5818569543711819
7 22 -0.32666952930288878
8 22 0.25961082986858097
9 22 0.38108703943702837
10 22 0.0037124581524753558
11 22 0.49074020235201044
12 22 0.17152984876912139
13 22 0.26443049855150674
14 22 0.26406485094595256
15 22 -0.32282353589863411
16 22 -0.094780664208777066
17 22 -0.18757665024283388
18 22 -0.13160845853212352
19 22 -0.23512168463484273
20 22 -0.37410274708348962
21 22 -0.2226140304352536
22 22 0.3323249910239367
23 22 -0.13259230743784467
24 22 0.1818374185009615
25 22 0.29137326888795889
26 22 0.19370561497260055
27 22 -0.16322239012297637
28 22 0.51123331995984056
29 22 -0.068915456474934231
30 22 -0.40447134255471501
1 23 0.17822938336882679
2 23 -0.16820103449147394
3 23 -0.037825830798576286
4 23 -0.38111610015540198
5 23 -0.2933892724235182
6 23 -0.39427624596716077
7 23 -0.49847075204132335
8 23 -0.020440764307232229
9 23 0.21762855405195694
10 23 -0.089345504123917258
11 23 -0.0083736384361064609
12 23 -0.99956130409963628
13 23 -0.011593586477992131
14 23 0.13271012936895782
15 23 0.200502110688381
16 23 -0.15941510476402806
17 23 0.11134966180025685
18 23 -0.36869645625009634
19 23 -0.6600282450852013
20 23 -0.048397753613099156
21 23 0.79492033249917793
22 23 -0.042123437092485373
23 23 -0.048240520769379805
24 23 -0.19065134373403936
25 23 0.08067435609708315
26 23 -0.31358150175250349
27 23 0.17111757948227818
28 23 -0.35997639556411465
29 23 0.10069466645316627
30 23 0.18311961039417862
1 24 -0.022147460868887615
2 24 0.25619845378698258
3 24 -0.77067440027579637
4 24 -0.65129248561712938
5 24 0.25454111873015867
6 24 -0.31993373630815569
7 24 0.010896816964277873
8 24 -0.37140893068985886
9 24 -0.16423564652775474
10 24 -0.038556894075761287
11 24 -0.26610101141070241
12 24 -0.40525400506092468
13 24 0.16449932450399657
14 24 -0.91224460351804015
15 24 -0.62823889119288878
16 24 0.5217709952085543
17 24 -0.70291742471499108
18 24 0.077966206925419237
19 24 -0.54721315463958919
20 24 -0.019678847144503294
21 24 -0.19788312269764458
22 24 -0.38412407023524819
23 24 -0.64888511372262803
24 24 -0.18524086749249438
25 24 0.99995007379333622
26 24 -0.072620376911233672
27 24 0.043233119950608773
28 24 0.45043659841424921
29 24 0.15475011701197236
30 24 0.31667620653086509
1 25 -0.33566206044630426
2 25 -0.036728588164255303
3 25 0.35051999186057714
4 25 -0.34977883240915852
5 25 0.47491090811264214
6 25 -0.50271145638585657
7 25 -0.53958551287216394
8 25 -0.20270363852029202
9 25 0.24121920081090228
10 25 0.74095577262445178
11 25 0.40733174709874059
12 25 -0.23997254686909461
13 25 -0.19920616717390371
14 25 0.29526019766386014
15 25 -0.44695511954183142
16 25 0.32715121536894998
17 25 -0.0039400532627897628
18 25 0.42024314173013061
19 25 0.5991219868801384
20 25 0.31742158510114105
21 25 -0.554441781630718
22 25 -0.52043049663102359
23 25 0.57033563545975985
24 25 0.43853107099733213
25 25 0.14311920799726
26 25 -0.34975547484538694
27 25 0.14338442220384331
28 25 -0.28469856622152373
29 25 0.24923878293787827
30 25 0.34504425402024658
1 26 -0.25590414354969687
2 26 0.23567864230552149
3 26 -0.18546056083877285
4 26 0.091105423242220263
5 26 0.2727121981471422
6 26 0.20573197586821823
7 26 0.66499424693800335
8 26 -0.13761424890976037
9 26 0.25948471027487963
10 26 0.25555849929112406
11 26 -0.77463796802367668
12 26 0.019388400213069538
13 26 0.59017089505754317
14 26 -0.0288949624245078
15 26 0.094747643733200992
16 26 0.44548077441941614
17 26 -0.591024896176227
18 26 -0.44381508133140962
19 26 0.1454687804204769
20 26 -0.30471739725113406
21 26 0.76646419594163739
22 26 -0.5890023565201381
23 26 -0.46221468396666987
24 26 0.51731995004738884
25 26 0.42611183568662098
26 26 -0.37630299727290001
27 26 0.10699349853522973
28 26 0.298273976564494
29 26 0.32895150091789777
30 26 -0.12689878303374993
1 27 0.43430286171790589
2 27 -0.42992205156400221
3 27 0.49684795753089256
4 27 -0.52363391851141439
5 27 0.66472453277646093
6 27 0.13997313801921257
7 27 -0.31366856328756049
8 27 0.25717613686059532
9 27 0.21725677469280949
10 27 -0.56590724614622423
11 27 -0.15980671356041704
12 27 0.42898450686677836
13 27 -0.099858572479899266
14 27 -0.046421470183904592
15 27 0.63505270405006153
16 27 0.16145803296399547
17 27 -0.2214993215958336
18 27 0.67271855904123434
19 27 0.45456291309305069
20 27 0.13863100670404813
21 27 0.14037719107691407
22 27 0.62265540782171003
23 27 -0.3306431109080793
24 27 0.18675035331112802
25 27 -0.20417999668080017
26 27 0.15509625917312367
27 27 -0.91104054256222156
28 27 -0.19294120923819508
29 27 0.28572790468608572
30 27 0.6955596867945294
1 28 0.29844354297133113
2 28 0.57836139716794943
3 28 -0.54857227362172589
4 28 -0.34577735716714075
5 28 0.29103565157952332
6 28 -0.26207689154987868
7 28 0.2731940119298259
8 28 0.99951375026973255
9 28 0.090535467387927379
10 28 -0.022467538065754779
11 28 0.24156521127690067
12 28 0.012497602707146815
13 28 0.39130593644084871
14 28 -0.29317150951741494
15 28 -0.48867062876387451
16 28 0.006687690644638619
17 28 0.27625194875705283
18 28 0.2094122929302675
19 28 -0.29570700270436057
20 28 0.20321557424705766
21 28 -0.028583884016518821
22 28 0.15811600401126361
23 28 0.14629185085586999
24 28 -0.061981580114097393
25 28 -0.25326456805200875
26 28 -0.16791054466497149
27 28 -0.51094970708571086
28 28 0.19156639577753728
29 28 0.090259331251126784
30 28 -0.291426820432859
1 29 -0.22234607563640413
2 29 0.378491114873308
3 29 -0.34716439546051381
4 29 -0.1302962338692055
5 29 0.053811223624494003
6 29 0.053393761357875338
7 29 -0.49742185769516112
8 29 -0.34353288998718029
9 29 0.23103054650605381
10 29 -0.36196288071047594
11 29 -0.28800188993701642
12 29 0.11755940204770293
13 29 0.81634196409771476
14 29 0.34061143894910895
15 29 -0.14741850842656665
16 29 0.1862338232239302
17 29 -0.059435485912214564
18 29 -0.95277552591833936
19 29 0.61189083830783086
20 29 -0.037338084426668389
21 29 0.48503242871432262
22 29 -0.21030827609706187
23 29 0.14008515821199213
24 29 -0.19369925607024638
25 29 -0.68953445652333245
26 29 0.54314857157111396
27 29 0.32604318316851566
28 29 0.11819094661503469
29 29 1
30 29 -0.9996444687781465
1 30 0.14788678910619318
2 30 0.50746728512858308
3 30 -0.15467471108098263
4 30 0.058981439720831266
5 30 -0.29333164291441094
6 30 -0.99945007309289347
7 30 0.10656838442912334
8 30 0.15258679708500522
9 30 0.20819263508652394
10 30 0.23308236452768075
11 30 0.57232375728061846
12 30 0.075000859417545238
13 30 -0.35574077088940453
14 30 0.04091299258005416
15 30 -0.5035253224017906
16 30 -0.82395381414304736
17 30 -0.45302323953365192
18 30 0.69172706658319805
19 30 -0.25652208920753983
20 30 0.20389689813314751
21 30 0.99959644519779656
22 30 -0.27282840398231678
23 30 0.67499715980375419
24 30 -0.39276706627262475
25 30 0.18126173726733572
26 30 -0.070724910525311352
27 30 -0.57314873415148171
28 30 0.26660666176987718
29 30 0.23058998080037646
30 30 0.18857740563858155
1 31 -0.4529837423153304
2 31 0.061040783673469927
3 31 0.57673941715396204
4 31 0.56071285283239269
5 31 0.58549939272731377
6 31 0.28701703346824453
7 31 -0.54742690704365005
8 31 -0.068159933368259817
9 31 0.7663221213071526
10 31 -0.94836631380182923
11 31 0.23131945401006399
12 31 0.131635050314793
13 31 -0.4359821233876926
14 31 -0.038977086738913647
15 31 -0.010624924759686129
16 31 0.15174704937926822
17 31 0.48840165674230185
18 31 0.62365887359706351
19 31 0.04812825288501224
20 31 0.75358745220997636
21 31 0.12512894446079081
22 31 -0.19653636168151764
23 31 -0.20295366615227572
24 31 0.18600290818881096
25 31 0.0054281688149846472
26 31 -0.20319539007759005
27 31 0.087430011268898711
28 31 0.78569651835155252
29 31 0.19121310719988316
30 31 0.85292853923806455
1 32 -0.44048395523237666
2 32 0.21993560686736432
3 32 0.20814470441289054
4 32 0.99987654691390437
5 32 0.30024368245404381
6 32 -0.79281587920103691
7 32 -0.023859078226248834
8 32 0.030360438963592258
9 32 0.65640961540216913
10 32 -0.72902460846639949
11 32 -0.20770788166868756
12 32 -0.43424355433414202
13 32 -0.03044298866798344
14 32 -0.075598151699275792
15 32 -0.91209453776348648
16 32 0.17717354030044905
17 32 0.10143069469869179
18 32 0.99971654602038984
19 32 0.28428961275352632
20 32 0.15152571556414801
21 32 0.85430004905664714
22 32 0.77203171276392224
23 32 0.011381073111471126
24 32 0.00031365663563051008
25 32 0.29776719760721759
26 32 0.4582537654414105
27 32 0.17073900831048963
28 32 0.44105313908576382
29 32 -0.020476708524844033
30 32 0.36515678340555552
1 33 -0.18439748107792725
2 33 0.31176976132865808
3 33 0.00080449477804098667
4 33 0.080757559479249202
5 33 -0.10557245629896489
6 33 0.27761975044600473
7 33 -0.056127063850547901
8 33 -0.24350790879864695
9 33 0.30021125975195406
10 33 -0.22570175960655794
11 33 -0.089843831754316039
12 33 -0.29151435187761887
13 33 -0.25331132186628474
14 33 0.63916288030001567
15 33 0.23481293785967722
16 33 0.080374829820373986
17 33 0.55668124485941239
18 33 0.56610914851114169
19 33 -0.30367513482804959
20 33 -0.36090950759057155
21 33 -0.57955063957137876
22 33 0.51880536088047302
23 33 0.018781818518504995
24 33 0.38565642329707267
25 33 -0.22446585747084505
26 33 -0.22935693496697512
27 33 0.011804121496810078
28 33 -0.17492499674798087
29 33 -0.10748005644743115
30 33 -0.52050243813305297
1 34 -0.90579508816382304
2 34 -0.17251357758417873
3 34 0.5111585684736597
4 34 0.20835331620122888
5 34 -0.58307312983861548
6 34 0.60120717391404199
7 34 -0.15239741635947845
8 34 0.25917104193667101
9 34 0.77993999248659318
10 34 -0.28153654389368382
11 34 0.28337551206209083
12 34 -0.50667134642945566
13 34 -0.24741483777820039
14 34 -0.39819778718227133
15 34 -0.22927709654695946
16 34 -0.27955415787861609
17 34 0.14932449949190929
18 34 0.63997678239792177
19 34 0.468963788736388
20 34 -0.26121037654107071
21 34 -0.53386902713834417
22 34 -0.45952178529201892
23 34 0.28697663616176255
24 34 -0.013752425646155884
25 34 -0.67509842284505195
26 34 -0.80632683247388626
27 34 0.3800429500731583
28 34 0.62752909566074555
29 34 0.60340819642295174
30 34 -0.34229919297530376
1 35 -0.66776875864932828
2 35 -0.29233358394667402
3 35 -0.057727705489570118
4 35 -0.48489434055077563
5 35 0.67605233807533038
6 35 -0.093324359148566002
7 35 0.26867521185833182
8 35 0.41979411185632581
9 35 -0.25214947564899881
10 35 -0.023048765216005612
11 35 -0.96056971161129701
12 35 -0.094701467708517992
13 35 0.006447485555658326
14 35 0.15598335581408507
15 35 -0.90471458779185321
16 35 0.14005746150048592
17 35 0.46437936209049796
18 35 0.27804304642332356
19 35 0.24645502909447489
20 35 0.443391024047391
21 35 0.076415463464070105
22 35 -0.15381271852038036
23 35 -0.23075106880528762
24 35 -0.26913310755837905
25 35 -0.21813692260737286
26 35 -0.21451350272204139
27 35 0.11629460231696623
28 35 -0.028979356911007167
29 35 -0.2340265043632265
30 35 0.010681872417097662
1 36 0.035789652472666779
2 36 0.461744971630278
3 36 0.22822222481188256
4 36 0.078185052181350606
5 36 0.074675235074291538
6 36 0.012404022224083308
7 36 -0.25468084388984102
8 36 -0.79131638764834755
9 36 -0.91840085193895082
10 36 -0.25249690166356398
11 36 0.36020187893004335
12 36 -0.49959428524186772
13 36 0.29797845917137639
14 36 -0.24870648569144241
15 36 0.21662525642615144
16 36 0.25029478242039227
17 36 -0.28472802895604526
18 36 0.4616178170721324
19 36 -0.19101133738962703
20 36 0.38968198772730966
21 36 -0.18733468557078475
22 36 -0.40495244846816908
23 36 0.29445436821059517
24 36 -0.0049581388301617796
25 36 0.0014761751345285417
26 36 0.5436123440871764
27 36 0.088165903708328205
28 36 -0.27686459288356774
29 36 -0.50167103250412082
30 36 -0.31093162970698301
1 37 0.30220698821584679
2 37 -0.99929677074777123
3 37 0.20617392287228603
4 37 -0.50055790243164111
5 37 -0.64338955795900854
6 37 -0.35390266005478038
7 37 0.19828402452572888
8 37 -0.29516232812991372
9 37 0.20526352478988641
10 37 0.23442337112088019
11 37 -0.59381800324379574
12 37 -0.24695412863178179
13 37 0.031342628081849053
14 37 -0.054329746998493633
15 37 0.014652963503145572
16 37 -0.06778117268237896
17 37 0.77165299988565272
18 37 0.12844992309543649
19 37 0.12337115645389871
20 37 0.43525511813345719
21 37 -0.068010309258511079
22 37 -0.3779989155268953
23 37 0.40118390083960592
24 37 0.49300171150649519
25 37 0.11542538615713804
26 37 0.040449596537639451
27 37 0.3862156874133949
28 37 -0.59436426917966056
29 37 0.21324264527318323
30 37 0.45190687618108916
1 38 -0.01319464576133049
2 38 0.32029768625032906
3 38 0.36003220910410355
4 38 -0.097780700935086784
5 38 -0.4011544855897462
6 38 0.30192990921989799
7 38 -0.42721130895572779
8 38 -0.23942359119781809
9 38 0.13988525828320769
10 38 0.15794917098572611
11 38 0.031795619964165273
12 38 -0.0014631299601818412
13 38 0.34939100396950284
14 38 0.066571968053083866
15 38 -0.15638943664232616
16 38 0.1178395254115613
17 38 -0.39675837186970786
18 38 0.039251163030984082
19 38 0.093239744179089326
20 38 -0.013758018668242807
21 38 0.11699327807164163
22 38 -0.32295173088001716
23 38 -0.30372280147666991
24 38 -0.079072087942420086
25 38 0.29354813803207092
26 38 0.60855763358416071
27 38 0.36845653134125389
28 38 -0.75319288422206765
29 38 -0.067987851363266918
30 38 0.021389331445968482
1 39 -0.025202284250396098
2 39 0.34353158824814306
3 39 -0.88003785229087061
4 39 -0.17052661651912318
5 39 -0.31463723177057468
6 39 0.31068734943304888
7 39 -0.013061791659300234
8 39 0.26179280322259768
9 39 -0.17887831705674936
10 39 0.6515302422452125
11 39 0.14629314179054087
12 39 0.1197065314836331
13 39 -0.43954853795635213
14 39 -0.39505592795004357
15 39 -0.10514965164494433
16 39 -0.41657116273518929
17 39 -0.90340933617488772
18 39 -0.057690360476861866
19 39 0.048025043786990192
20 39 -0.19701531522826365
21 39 -0.40584879687662478
22 39 0.37012664686330971
23 39 0.48501763943169368
24 39 -0.52485903926418698
25 39 -0.61821078073286206
26 39 -0.12880496794540308
27 39 0.2205163562908822
28 39 -0.49628557481715851
29 39 -0.0081514149679241601
30 39 0.41794775410930607
1 40 0.10817036570200332
2 40 0.47793342657199483
3 40 0.041765767193495555
4 40 0.36843312950023088
5 40 0.020869230788533359
6 40 0.89476325503001819
7 40 -0.83544627331388988
8 40 0.048117608539270766
9 40 -0.22053426747712687
10 40 -0.10348215312407497
11 40 0.33665030653349515
12 40 0.98294536837212687
13 40 1.0000000000000002
14 40 -0.24373919543243341
15 40 -0.65715763173415054
16 40 -0.24784055233928817
17 40 -0.034951286253739576
18 40 0.32180716804422232
19 40 -0.25506865595816214
20 40 -0.85694510335006047
21 40 0.042049907386366443
22 40 -0.19331239167337147
23 40 0.099054742564193457
24 40 0.35992946351287186
25 40 0.055824746877872443
26 40 -0.19005934858719073
27 40 0.4114784788066766
28 40 -0.34397734596082263
29 40 -0.23731315768562641
30 40 0.79293408474846117
1 41 0.28988185062130478
2 41 -0.43516007560838083
3 41 -0.13442352315374767
4 41 0.60540237578380629
5 41 0.35569986861478065
6 41 -0.52856675514240159
7 41 -0.054370325188907637
8 41 0.54709338782771766
9 41 -0.01449912458041064
10 41 0.43332261407675909
11 41 0.79823782216426498
12 41 0.21987676413964485
13 41 0.2249531275734924
14 41 -0.018943818308889523
15 41 0.021741814515036966
16 41 -0.66032474514744943
17 41 0.31455123943623509
18 41 -0.39828710993845212
19 41 0.19187228930515426
20 41 0.42476360303081223
21 41 0.78908087714980257
22 41 0.60788430227558887
23 41 -0.21217594121344191
24 41 -0.65543949508680099
25 41 0.43233660514472749
26 41 -0.43928591463770439
27 41 0.21177316898647019
28 41 0.022986174822196573
29 41 0.28202695615197643
30 41 0.23357460104154407
1 42 -0.79538067092797715
2 42 -0.48977585078607005
3 42 0.5002055629119655
4 42 -0.24197070317544966
5 42 -0.95121684594325751
6 42 0.40826791826290365
7 42 0.34816913451544051
8 42 -0.13952954362721898
9 42 0.25675387932531252
10 42 -0.26573096858263395
11 42 0.72854554689480833
12 42 0.3342851865020886
13 42 0.34899710215541385
14 42 -0.42535210130362833
15 42 0.19866536329037587
16 42 0.52207132220283148
17 42 0.005125553959546723
18 42 -0.19992805014430773
19 42 -0.34010383733744332
20 42 0.058674843339073891
21 42 0.092975324859480818
22 42 -0.37386311747192041
23 42 0.076848097072106603
24 42 0.24256286556403017
25 42 0.0063805342885679467
26 42 0.0181242404654645
27 42 -0.06860736447519622
28 42 0.004463081018160518
29 42 -0.952596111223451
30 42 0.022808851602471106
1 43 -0.58094967738452974
2 43 -0.37756026168738571
3 43 0.36528406175644984
4 43 -0.80072262691071172
5 43 -0.41938203301215393
6 43 0.24017485236245584
7 43 -0.031444526199367183
8 43 -0.26078630492328042
9 43 0.059905754109488847
10 43 0.56727274734872191
11 43 -0.15431143063479727
12 43 0.34166007479849747
13 43 -0.46991244648788011
14 43 -0.7940585202533802
15 43 -0.57747652054243592
16 43 -0.057345946062106995
17 43 -0.50177237339150582
18 43 0.08876802929573499
19 43 -0.48913474582442973
20 43 0.15609964316461875
21 43 0.0073914114781955297
22 43 0.13673235693228722
23 43 0.14910781873344112
24 43 0.23536127126264308
25 43 0.58500217139606414
26 43 -0.40403182300741142
27 43 0.85989986260408935
28 43 0.72240915030206077
29 43 0.31981831079215323
30 43 0.21004280273672055
1 44 0.17622067797879348
2 44 0.11819910232020152
3 44 0.064290781077448525
4 44 -0.082722411123538328
5 44 -0.50044430203803214
6 44 -0.37612777914059992
7 44 0.26501458207816303
8 44 0.75185462400957748
9 44 0.41281234823023816
10 44 0.36678829303415744
11 44 -0.65814894381534961
12 44 -0.0014679962293598111
13 44 -0.11671095544417175
14 44 -0.055175309838494821
15 44 0.38722400263098011
16 44 -0.28524058008553071
17 44 -0.17065658785477547
18 44 0.0040436485254492878
19 44 -0.0015853838200437567
20 44 -0.0052915154262595313
21 44 0.87376883989604859
22 44 0.81577269185714807
23 44 0.32028367502951377
24 44 0.23564135820496412
25 44 -0.14365141454734254
26 44 -0.011013958710214858
27 44 0.19631395858106601
28 44 0.25760456178621216
29 44 -0.30282760349899218
30 44 0.89309901062267283
1 45 -0.049004519488284749
2 45 0.039521959940923834
3 45 0.26485850082034268
4 45 0.028359012839136707
5 45 0.092472564989125358
6 45 -0.2401863420233116
7 45 0.18569899761026007
8 45 -0.95438422133000811
9 45 0.64295451681472515
10 45 -0.40518686251307656
11 45 -0.9578705986819871
12 45 -0.16676815282959073
13 45 -0.46196212435182005
14 45 0.031070204704815207
15 45 -0.32441415009908769
16 45 -0.59010703457534153
17 45 -0.78409286011043844
18 45 0.32457142201904693
19 45 0.34139538669392683
20 45 -0.26549756073566055
21 45 0.10390830024037148
22 45 -0.11416001531119838
23 45 0.073375925290859262
24 45 -0.03640764779718738
25 45 0.043658627858218946
26 45 0.051271692336398861
27 45 0.96204650837991257
28 45 0.36025851143676013
29 45 0.36419895848745937
30 45 0.076842064144730882
1 46 0.13997660127491882
2 46 0.61628805212247084
3 46 -1.0000000000000002
4 46 0.44827634429788621
5 46 -0.21556859039683668
6 46 0.25331067227135612
7 46 0.47049316391294671
8 46 0.28940828721104545
9 46 -0.23534497358378287
10 46 0.50212313528780583
11 46 0.47446604120918534
12 46 0.12021232704012408
13 46 0.34167169085640492
14 46 0.83942137101651804
15 46 0.42313636889781886
16 46 -0.21876495566330395
17 46 0.33897410473236994
18 46 -0.096424820603960834
19 46 0.11845115968850529
20 46 0.38276419246460597
21 46 -0.53747818250072621
22 46 -0.00097124957660304231
23 46 -0.12165978469742304
24 46 0.39507165009328843
25 46 0.30334970169268172
26 46 -0.93394652470211381
27 46 -0.29056150011206999
28 46 0.12411098206908627
29 46 -0.75250749534756101
30 46 0.57336144067239747
1 47 0.46806904988223225
2 47 0.2725037482359553
3 47 -0.067925749892159673
4 47 -0.052291783953535509
5 47 -0.53192124053755652
6 47 0.5188568191972992
7 47 -0.085654293861937902
8 47 0.39294315667576224
9 47 0.45390023217029934
10 47 -0.062979429356965336
11 47 0.17098787855373873
12 47 0.17713743987977684
13 47 0.27994909583212407
14 47 0.046452363321001722
15 47 0.52392220295553893
16 47 0.17529773489224337
17 47 -0.99928826847177743
18 47 0.94994745443004813
19 47 -0.5226488067970666
20 47 -0.93193303144666384
21 47 -0.12329607675544013
22 47 -0.087531130134870891
23 47 0.43386063159786242
24 47 0.013057489933390965
25 47 0.4067047831391058
26 47 -0.50836053635098222
27 47 0.81115743346324076
28 47 0.44251495681877684
29 47 -0.12304038806254848
30 47 0.076781101853405309
1 48 0.41687775621102491
2 48 -0.23181026611777977
3 48 0.057813569335700976
4 48 -0.025004417780659698
5 48 -0.12661529702029392
6 48 -0.98383127421675765
7 48 0.5640919009122296
8 48 -0.94101296821111069
9 48 -0.49692118560713588
10 48 -0.10734721155402403
11 48 0.62747596968813502
12 48 0.17276181031281532
13 48 0.06696779973767944
14 48 -0.21509427648961549
15 48 0.99956538736155232
16 48 0.027857957639756896
17 48 0.45539636594709432
18 48 -0.095122316244376462
19 48 0.01545710525016035
20 48 0.0081113767559237368
21 48 0.56851613012784696
22 48 0.55028910478658599
23 48 0.50863663282379323
24 48 0.76545040627589278
25 48 -0.40555289026992042
26 48 0.70441438341542872
27 48 0.41210409804885556
28 48 0.20286671749752391
29 48 -0.00091482806019652346
30 48 -0.050076550381860638
1 49 -0.23455194726018011
2 49 -0.56863395637646086
3 49 -0.31707049603630283
4 49 0.11748792714864824
5 49 -0.10065956737437183
6 49 -0.14457394110428337
7 49 0.28358062641478937
8 49 0.20827542571185595
9 49 -0.29598530554801922
10 49 -0.13734006261302459
11 49 0.99990252931335211
12 49 0.21905773370101764
13 49 -0.22036688050164699
14 49 -0.28549075601525692
15 49 -0.2622073434195813
16 49 0.77806039642769098
17 49 0.1172911923810486
18 49 -0.3728131922555305
19 49 0.53688433692241477
20 49 -0.33863507663562109
21 49 -0.75952063085250709
22 49 0.052381807596978941
23 49 0.21150906928242083
24 49 -0.067639345690701319
25 49 -0.71490151194337848
26 49 0.028993564901734752
27 49 -0.45760739520579147
28 49 0.25592262732356608
29 49 -0.024387692342029178
30 49 0.061916208469275667
1 50 -0.26175336154850942
2 50 0.16618933368331587
3 50 0.05949762852563998
4 50 -0.22687741891441204
5 50 0.069760092288810471
6 50 -0.33113073985249458
7 50 0.38706978936416153
8 50 0.71015799718552797
9 50 0.5275564023450946
10 50 -0.7752912281565526
11 50 -0.28848914764492106
12 50 -0.59658484651276278
13 50 0.210069583862839
14 50 -0.42602493805289088
15 50 -0.77059510494984529
16 50 0.0010260368805718909
17 50 -0.0058703257015964494
18 50 -0.62199430268099754
19 50 0.14043529875762106
20 50 0.37666909853081609
21 50 0.55343646651553668
22 50 0.077475847990473592
23 50 -0.43453577543019528
24 50 -0.034276630446206234
25 50 -0.27488825036949005
26 50 -0.99981351120493256
27 50 -0.0069622843797234237
28 50 0.49610332320413347
29 50 0.014781336543342074
30 50 0.44977621019669844
1 51 -0.022031791546414603
2 51 0.16871208280321684
3 51 -0.064299288875054011
4 51 0.81802847387103639
5 51 0.99961958754779989
6 51 -0.45436870939918328
7 51 -0.61612243225043217
8 51 -0.67848014337692986
9 51 -0.66649745568835261
10 51 -0.5817844272649022
11 51 -0.039514433972024858
12 51 -0.21027735797963351
13 51 0.29672769726364834
14 51 -0.12843165864349801
15 51 -0.14594847795143373
16 51 -0.58131029552231717
17 51 -0.87896169708788463
18 51 -0.49202586236888657
19 51 -0.16955697931131328
20 51 -0.13969608433257349
21 51 0.063934353320439438
22 51 -0.83123322097763563
23 51 -0.19439453398365292
24 51 -0.025088470133853798
25 51 0.52811574444513232
26 51 -0.23547399511901948
27 51 0.39616922898637508
28 51 0.64129008801634646
29 51 -0.10735105807751834
30 51 -0.22663735907754201
1 52 -0.14423834498070509
2 52 -0.7254785796311638
3 52 -0.47398990737813551
4 52 0.53538224847785387
5 52 0.23810235724032711
6 52 0.54863452650553945
7 52 0.1524891372058903
8 52 0.26252623871743341
9 52 -0.62908793370800509
10 52 0.52898821618473812
11 52 -0.12270062575231386
12 52 -0.277497568519948
13 52 0.39783683523647295
14 52 -0.28991328677413419
15 52 -0.71594170850567329
16 52 -0.093335325783858628
17 52 0.6304985655131401
18 52 -0.22315360835798917
19 52 0.22933836173234032
20 52 -0.17394423330346351
21 52 -0.28191943400542163
22 52 -0.071725001261601778
23 52 0.99997539275839387
24 52 -0.076361933316269809
25 52 -0.1456917359357297
26 52 -0.48979596484843524
27 52 -0.45557126278124427
28 52 0.13307400923691809
29 52 -0.36186745236198392
30 52 -0.015327789103382467
1 53 -0.42183416838171928
2 53 -0.57804782557574919
3 53 -0.14007971686283791
4 53 0.01858926625913513
5 53 -0.088238057794462241
6 53 0.8304743964755954
7 53 -0.22031958199970633
8 53 0.24723138160011196
9 53 -0.050777590729080724
10 53 0.25803165517325422
11 53 0.29466243552815591
12 53 -0.4372713879210281
13 53 0.05855838023763716
14 53 -0.60190909405690673
15 53 0.28483296789648538
16 53 -0.65262218269918681
17 53 -0.49501856794257065
18 53 0.15107158139243723
19 53 -0.26821169547155371
20 53 0.17017742866692537
21 53 -0.27312807978603759
22 53 -0.15739135009026409
23 53 0.23388638367772469
24 53 -0.50320636990851253
25 53 -0.26815388700599158
26 53 0.0077714923205154437
27 53 0.42267071734008443
28 53 -0.99944257165686368
29 53 0.22223743355238204
30 53 0.034994539391388045
1 54 0.12261502245800111
2 54 0.36709563627143799
3 54 0.11933221723186489
4 54 0.23206183658604371
5 54 -0.72990111182804396
6 54 0.63507337532731478
7 54 -0.055134164433275935
8 54 -0.16058180046940146
9 54 0.64204575359631311
10 54 0.052413635195059496
11 54 -0.13418939520831991
12 54 -0.58077480377551571
13 54 -0.22195258633891282
14 54 -0.5253019347977459
15 54 0.1119773835258025
16 54 0.50170197934509331
17 54 0.092377325572938082
18 54 0.14692357700358141
19 54 -0.23700756852044005
20 54 -0.030352043134767661
21 54 0.12394836415725934
22 54 0.14338813297818989
23 54 -0.11677568096359901
24 54 -0.071140216212351393
25 54 -0.3359343565990755
26 54 0.3509040822537986
27 54 -0.58829596027291431
28 54 0.4793673530656658
29 54 0.91341938674745626
30 54 0.65378314555454431
1 55 -0.11375707917664145
2 55 0.16184971965282091
3 55 0.39469431602253119
4 55 0.14999012658443248
5 55 -0.7437916750836232
6 55 -0.51360896691523117
7 55 0.015880626143845111
8 55 0.79287678905358228
9 55 -0.6146739664449179
10 55 0.59177557918660639
11 55 -0.38806815003626821
12 55 0.37635517475089453
13 55 -0.39500416434981428
14 55 -0.29811744236437643
15 55 -0.062486981253382812
16 55 -0.7245492791207524
17 55 0.55569423750052815
18 55 -0.20691455329973774
19 55 -0.64833056484415197
20 55 0.23702808316962012
21 55 0.53292216547382121
22 55 -0.085330144127396965
23 55 -0.36589435722608826
24 55 -0.0058895859685730604
25 55 -0.066481151563661231
26 55 -0.10332920559927695
27 55 0.12065252873571709
28 55 0.55449663042526476
29 55 0.92124981532429862
30 55 -0.40807162536206071
1 56 -1
2 56 0.60871019943153026
3 56 0.43928923201536868
4 56 -0.20964280656853548
5 56 -0.53933165185035581
6 56 -0.22261016965223276
7 56 -0.32167603658667226
8 56 0.25430320054442479
9 56 -0.36177321878288471
10 56 -0.066972678692331686
11 56 0.20911133067792692
12 56 -0.078369349784377859
13 56 0.14834272464150319
14 56 -0.10465930806434284
15 56 0.017062723306213154
16 56 0.74048811967749106
17 56 0.23269323939791595
18 56 0.0065290794208993407
19 56 -0.24210231660001869
20 56 -0.041850031969507255
21 56 -0.37630283260295516
22 56 0.36239258419137266
23 56 -0.014176191755329541
24 56 -0.8954712557045893
25 56 0.53089083571835094
26 56 0.0036751547326781464
27 56 -0.36841262473620312
28 56 -0.21172795178154899
29 56 -0.17812569950000839
30 56 0.13468471072578647
1 57 -0.092656765401301411
2 57 0.058835564966171552
3 57 -0.3882957107290268
4 57 -0.075084822290696185
5 57 -0.21319062247455597
6 57 0.22693430668389147
7 57 -0.44721252143023016
8 57 0.64586614539694753
9 57 0.072607371741868668
10 57 -0.32829440813100896
11 57 -0.059360140468391311
12 57 -0.22183083437924342
13 57 0.51668779662726905
14 57 -0.22692945222347544
15 57 0.75883040407445468
16 57 -0.36201362914569979
17 57 0.2830026197402945
18 57 -0.30758115281735782
19 57 0.39026898873059401
20 57 -0.19374044781853514
21 57 0.31928455723022936
22 57 0.51694463436958815
23 57 -0.54979687871859062
24 57 0.45899910028225649
25 57 -0.28009626160023804
26 57 0.26617706535917302
27 57 0.76620213685351324
28 57 0.15583668032084921
29 57 0.068939486857409291
30 57 0.34548217265545728
1 58 -0.33591776095519077
2 58 0.39548174262561397
3 58 -0.095378470933711698
4 58 0.55104257963455761
5 58 0.12212510493667107
6 58 -0.87958257853934119
7 58 0.34053249759943138
8 58 -0.039916752734066793
9 58 0.37227970130905608
10 58 0.37556083819689401
11 58 0.094546315542406931
12 58 0.16741043770704997
13 58 0.58804279977220031
14 58 0.21365076267843489
15 58 -0.052822072679701161
16 58 -0.05706753549996374
17 58 -0.0029972226918538645
18 58 -0.76605739398653439
19 58 0.29130805088068773
20 58 0.39297164991696643
21 58 0.2703389671289701
22 58 0.13083400043560969
23 58 0.10283967654358046
24 58 -0.11610711381157589
25 58 0.048760651604950571
26 58 0.066076169543008184
27 58 -0.047464660528329997
28 58 -0.45250635417795754
29 58 0.26747610856284987
30 58 0.17214637229049842
1 59 -0.36264724405912285
2 59 0.81830229678212829
3 59 -0.37663126408200059
4 59 0.5744351674370074
5 59 -0.49190600834291981
6 59 0.45445999943427939
7 59 0.67227366382383458
8 59 0.2729985794225871
9 59 0.078223139560277072
10 59 0.16916673273787106
11 59 -0.86466934316100563
12 59 0.038398975803208453
13 59 -0.032001958745232761
14 59 0.50337605231212312
15 59 -0.034329986943268553
16 59 0.091611062154728487
17 59 -0.36973384138244408
18 59 -0.50404409897110458
19 59 0.011828400289599455
20 59 -0.26568710492544623
21 59 -0.49031248240422148
22 59 0.91547533867964137
23 59 0.20343934726606175
24 59 0.17633158971183296
25 59 -0.62884284656423606
26 59 -0.2141164439154836
27 59 0.87807806618670459
28 59 0.17967761359843967
29 59 0.73801934697116855
30 59 -0.41443163100973712
1 60 -0.17539496558926468
2 60 -0.32871095498244451
3 60 -0.12725325642033763
4 60 0.22598195404792673
5 60 -0.19093452224955534
6 60 -0.27854855306928794
7 60 0.063563809324543752
8 60 0.51193255101700874
9 60 -0.020354345853446015
10 60 0.15206278310145518
11 60 0.0044582064287304679
12 60 0.31056352061036963
13 60 0.60937502758946416
14 60 0.44821249399325608
15 60 -0.067095500016118498
16 60 0.066129045774608278
17 60 -0.60345465649554519
18 60 -0.047133138887445157
19 60 -0.46146697231030243
20 60 0.29735464546707824
21 60 -0.46800392019727566
22 60 -0.76927027844422702
23 60 0.21734311419415792
24 60 0.013465263396714264
25 60 -0.74790924879257614
26 60 0.00095076478707698117
27 60 -0.66668837684956084
28 60 0.076151115017686705
29 60 -0.37543500893361081
30 60 0.5200765896542191
