%%MatrixMarket matrix coordinate real general
60 60 600
1 1 2.1518071074177092
2 1 0.56977581874769856
3 1 -0.50010776072526919
4 1 -0.21659510027151405
5 1 -0.14880726763378144
6 1 0.57538403742011179
7 1 0.046620631396260159
8 1 -0.46235074088551181
9 1 0.095315500882091758
10 1 -0.078325715598127177
1 2 0.56977581874769856
2 2 1.8807218933263581
3 2 -0.065688684203990877
4 2 -0.069772545012770817
5 2 -0.038372891414141602
6 2 0.10821276628556424
7 2 -0.0099535070325177093
8 2 -0.082553769657466691
9 2 0.03562799804077052
10 2 -0.019226982575805147
1 3 -0.50010776072526919
2 3 -0.065688684203990877
3 3 1.881159694487349
4 3 0.013821639615731348
5 3 0.020763188559300077
6 3 -0.093137028053004875
7 3 -0.010533041581534022
8 3 0.070435435918339673
9 3 0.00031304380167929483
10 3 -0.0065317880092173979
1 4 -0.21659510027151405
2 4 -0.069772545012770817
3 4 0.013821639615731348
4 4 1.8234786188262435
5 4 0.032980678866585976
6 4 -0.029254684755985284
7 4 0.0073723809352054335
8 4 0.014892570502211707
9 4 -0.0068368712900468056
10 4 -0.0022448907187524857
1 5 -0.14880726763378144
2 5 -0.038372891414141602
3 5 0.020763188559300077
4 5 0.032980678866585976
5 5 1.7950794227060967
6 5 -0.020432565223784963
7 5 -0.0090222980428631364
8 5 0.023650355369179889
9 5 0.0061506083986733635
10 5 -0.0081401805797643393
1 6 0.57538403742011179
2 6 0.10821276628556424
3 6 -0.093137028053004875
4 6 -0.029254684755985284
5 6 -0.020432565223784963
6 6 1.8758176263327913
7 6 -0.001254698626167867
8 6 -0.090309442277387325
9 6 0.039096271472195764
10 6 -0.022581538754184834
1 7 0.046620631396260159
2 7 -0.0099535070325177093
3 7 -0.010533041581534022
4 7 0.0073723809352054335
5 7 -0.0090222980428631364
6 7 -0.001254698626167867
7 7 1.787584392535402
8 7 -0.0074565250309161467
9 7 -0.019998692579046302
10 7 -0.023919848168386722
1 8 -0.46235074088551181
2 8 -0.082553769657466691
3 8 0.070435435918339673
4 8 0.014892570502211707
5 8 0.023650355369179889
6 8 -0.090309442277387325
7 8 -0.0074565250309161467
8 8 1.8375113069338727
9 8 -0.016903804542722983
10 8 0.018665052579575001
1 9 0.095315500882091758
2 9 0.03562799804077052
3 9 0.00031304380167929483
4 9 -0.0068368712900468056
5 9 0.0061506083986733635
6 9 0.039096271472195764
7 9 -0.019998692579046302
8 9 -0.016903804542722983
9 9 1.8026541299804559
10 9 -0.034983536874729389
1 10 -0.078325715598127177
2 10 -0.019226982575805147
3 10 -0.0065317880092173979
4 10 -0.0022448907187524857
5 10 -0.0081401805797643393
6 10 -0.022581538754184834
7 10 -0.023919848168386722
8 10 0.018665052579575001
9 10 -0.034983536874729389
10 10 1.8218342601394251
11 11 0.41623701764288606
12 11 -0.00092830836551657727
13 11 0.007574153849504283
14 11 0.007742224953123854
15 11 0.023251272635316657
16 11 0.028073613657704319
17 11 -0.0010720690649191006
18 11 -0.0113532175575246
19 11 0.0072489589252782601
20 11 0.00279402176142247
11 12 -0.00092830836551657727
12 12 0.38157475074147462
13 12 -0.0051100313195899466
14 12 0.006319708949497225
15 12 -0.013284356094642256
16 12 -0.011161057201682516
17 12 -0.0039597249596788515
18 12 -0.0044423450427097414
19 12 -0.0072792649089485463
20 12 -0.0015622244100407395
11 13 0.007574153849504283
12 13 -0.0051100313195899466
13 13 0.38336253074078785
14 13 0.0006615259870227959
15 13 0.012063415471306654
16 13 -0.0095335937530326466
17 13 -0.00088467327510624518
18 13 -0.023240194963608376
19 13 -0.0061355639495677614
20 13 -0.0035580177953018982
11 14 0.007742224953123854
12 14 0.006319708949497225
13 14 0.0006615259870227959
14 14 0.39954476567187436
15 14 0.0057445207119341448
16 14 0.0094180011461028005
17 14 -0.012982183451667104
18 14 -0.0019619531475560193
19 14 0.0057049175537422
20 14 -0.011228339294460281
11 15 0.023251272635316657
12 15 -0.013284356094642256
13 15 0.012063415471306654
14 15 0.0057445207119341448
15 15 0.38542187375719772
16 15 0.010190154710360728
17 15 0.0050419677443387656
18 15 0.0017075592638528445
19 15 -0.001031493100426878
20 15 0.00035798060494766134
11 16 0.028073613657704319
12 16 -0.011161057201682516
13 16 -0.0095335937530326466
14 16 0.0094180011461028005
15 16 0.010190154710360728
16 16 0.40689560126808699
17 16 -0.0074790660499887409
18 16 -0.0054778696358412995
19 16 0.018679146845530601
20 16 0.015298834643662834
11 17 -0.0010720690649191006
12 17 -0.0039597249596788515
13 17 -0.00088467327510624518
14 17 -0.012982183451667104
15 17 0.0050419677443387656
16 17 -0.0074790660499887409
17 17 0.38356892012666455
18 17 0.012846802133352346
19 17 -0.010458587941094839
20 17 0.0043556616578500785
11 18 -0.0113532175575246
12 18 -0.0044423450427097414
13 18 -0.023240194963608376
14 18 -0.0019619531475560193
15 18 0.0017075592638528445
16 18 -0.0054778696358412995
17 18 0.012846802133352346
18 18 0.41597051344610786
19 18 0.0040318374428635652
20 18 -0.013395722610442664
11 19 0.0072489589252782601
12 19 -0.0072792649089485463
13 19 -0.0061355639495677614
14 19 0.0057049175537422
15 19 -0.001031493100426878
16 19 0.018679146845530601
17 19 -0.010458587941094839
18 19 0.0040318374428635652
19 19 0.38262788809279075
20 19 -0.013705967755054279
11 20 0.00279402176142247
12 20 -0.0015622244100407395
13 20 -0.0035580177953018982
14 20 -0.011228339294460281
15 20 0.00035798060494766134
16 20 0.015298834643662834
17 20 0.0043556616578500785
18 20 -0.013395722610442664
19 20 -0.013705967755054279
20 20 0.40231204268967063
21 21 1.8691926720766889
22 21 -0.18805986130147248
23 21 0.26274884822976796
24 21 0.0077722246679699141
25 21 -0.67407381283524137
26 21 -0.14675905207377146
27 21 -0.074135744814064333
28 21 0.35042077413413752
29 21 -0.089354932566529002
30 21 0.47316419025774714
21 22 -0.18805986130147248
22 22 1.5098297493539914
23 22 -0.020177780185472505
24 22 -0.010548627806889643
25 22 0.039572124178557502
26 22 0.021260239702390084
27 22 -0.0046433811050517982
28 22 -0.026871964058036425
29 22 0.016545067667421788
30 22 -0.031023905738688524
21 23 0.26274884822976796
22 23 -0.020177780185472505
23 23 1.5210364504336105
24 23 0.00011144178977922888
25 23 -0.073276915419698704
26 23 -0.019224926183760292
27 23 -0.017896095771296597
28 23 0.04663117854261295
29 23 -0.00084750933072901338
30 23 0.044130660935110401
21 24 0.0077722246679699141
22 24 -0.010548627806889643
23 24 0.00011144178977922888
24 24 1.4965467994255266
25 24 0.00068450703616490093
26 24 -0.010153989862500056
27 24 0.0035526579809214685
28 24 -0.0052166559761598194
29 24 -0.0025166876356582648
30 24 -0.0018864538464292864
21 25 -0.67407381283524137
22 25 0.039572124178557502
23 25 -0.073276915419698704
24 25 0.00068450703616490093
25 25 1.7046112392949704
26 25 0.0088525025742554123
27 25 0.040252575721695959
28 25 -0.088814731600897937
29 25 0.017204185516694021
30 25 -0.10954736032312357
21 26 -0.14675905207377146
22 26 0.021260239702390084
23 26 -0.019224926183760292
24 26 -0.010153989862500056
25 26 0.0088525025742554123
26 26 1.5387368040009179
27 26 -0.010306777314606819
28 26 -0.032713384919261859
29 26 -0.0042504881341169139
30 26 -0.026758520668367525
21 27 -0.074135744814064333
22 27 -0.0046433811050517982
23 27 -0.017896095771296597
24 27 0.0035526579809214685
25 27 0.040252575721695959
26 27 -0.010306777314606819
27 27 1.5254584814640388
28 27 0.011372915231428112
29 27 -0.0081438784343539558
30 27 -0.012770487723261432
21 28 0.35042077413413752
22 28 -0.026871964058036425
23 28 0.04663117854261295
24 28 -0.0052166559761598194
25 28 -0.088814731600897937
26 28 -0.032713384919261859
27 28 0.011372915231428112
28 28 1.5674065145481637
29 28 -0.0062305742440289186
30 28 0.054590175523036862
21 29 -0.089354932566529002
22 29 0.016545067667421788
23 29 -0.00084750933072901338
24 29 -0.0025166876356582648
25 29 0.017204185516694021
26 29 -0.0042504881341169139
27 29 -0.0081438784343539558
28 29 -0.0062305742440289186
29 29 1.4952522767136198
30 29 -0.018080351119059319
21 30 0.47316419025774714
22 30 -0.031023905738688524
23 30 0.044130660935110401
24 30 -0.0018864538464292864
25 30 -0.10954736032312357
26 30 -0.026758520668367525
27 30 -0.012770487723261432
28 30 0.054590175523036862
29 30 -0.018080351119059319
30 30 1.5783674587262417
31 31 0.40441187282892599
32 31 0.026914099944473829
33 31 5.4978268862752172e-05
34 31 -0.0089376862082672856
35 31 0.0005843135644507929
36 31 0.02539826891427107
37 31 -0.0043712542493692975
38 31 -0.0087828136719466706
39 31 -0.0068540519635266854
40 31 -0.0020186854197127959
31 32 0.026914099944473829
32 32 0.40665406942911225
33 32 -0.00034988345461550469
34 32 0.0015229585948483145
35 32 -0.019841248223344893
36 32 0.010536446101924134
37 32 0.0069653757676045366
38 32 -0.007225041006954978
39 32 -0.014146657994112858
40 32 -0.023715591231066788
31 33 5.4978268862752172e-05
32 33 -0.00034988345461550469
33 33 0.38194458852226271
34 33 0.0026040913805814581
35 33 -0.006815744033747375
36 33 -0.0076763659596307985
37 33 -0.0069193888012801796
38 33 0.0014867826217229692
39 33 -0.018217989304561685
40 33 0.011299251765897578
31 34 -0.0089376862082672856
32 34 0.0015229585948483145
33 34 0.0026040913805814581
34 34 0.37730205636234726
35 34 -0.0085757349093737809
36 34 -0.00028913493749430704
37 34 -0.0032088957731201077
38 34 -0.0071872893083785401
39 34 -0.014254780113880912
40 34 -0.0032639680425498715
31 35 0.0005843135644507929
32 35 -0.019841248223344893
33 35 -0.006815744033747375
34 35 -0.0085757349093737809
35 35 0.39929328260296371
36 35 0.0044093973586879481
37 35 -0.0018215912266660904
38 35 0.0042716398750408321
39 35 0.012939693935000633
40 35 0.0036670455039496076
31 36 0.02539826891427107
32 36 0.010536446101924134
33 36 -0.0076763659596307985
34 36 -0.00028913493749430704
35 36 0.0044093973586879481
36 36 0.41109588381837753
37 36 -0.016482339239827559
38 36 -0.0030486349713267479
39 36 0.010807701115295078
40 36 -0.016771593641835468
31 37 -0.0043712542493692975
32 37 0.0069653757676045366
33 37 -0.0069193888012801796
34 37 -0.0032088957731201077
35 37 -0.0018215912266660904
36 37 -0.016482339239827559
37 37 0.40747879684801491
38 37 -0.0050459136213416023
39 37 -0.006180997194891959
40 37 -0.0015740393052184737
31 38 -0.0087828136719466706
32 38 -0.007225041006954978
33 38 0.0014867826217229692
34 38 -0.0071872893083785401
35 38 0.0042716398750408321
36 38 -0.0030486349713267479
37 38 -0.0050459136213416023
38 38 0.36864523355768325
39 38 0.011223879783193159
40 38 0.00045955323141479349
31 39 -0.0068540519635266854
32 39 -0.014146657994112858
33 39 -0.018217989304561685
34 39 -0.014254780113880912
35 39 0.012939693935000633
36 39 0.010807701115295078
37 39 -0.006180997194891959
38 39 0.011223879783193159
39 39 0.39833380329362866
40 39 -0.0091721819351318797
31 40 -0.0020186854197127959
32 40 -0.023715591231066788
33 40 0.011299251765897578
34 40 -0.0032639680425498715
35 40 0.0036670455039496076
36 40 -0.016771593641835468
37 40 -0.0015740393052184737
38 40 0.00045955323141479349
39 40 -0.0091721819351318797
40 40 0.38894785939818866
41 41 1.4739189047592678
42 41 0.16564411396211984
43 41 -0.22703408738351355
44 41 -0.22883141378616847
45 41 -0.1604315559753535
46 41 0.30396686719048438
47 41 0.26409840587797767
48 41 -0.059869232759504357
49 41 -0.018619072152212639
50 41 0.24919458835444858
41 42 0.16564411396211984
42 42 1.3051813034085222
43 42 -0.0040321930436715975
44 42 -0.0099081023744084038
45 42 1.4449494273848992e-05
46 42 0.027654464403971044
47 42 0.018831679320365023
48 42 -0.0060998068858754036
49 42 -0.016514791254552956
50 42 0.018710206504996808
41 43 -0.22703408738351355
42 43 -0.0040321930436715975
43 43 1.307040691933588
44 43 0.031403244135561587
45 43 0.016524019268486258
46 43 -0.031389884815107724
47 43 -0.032114018816887656
48 43 0.0047109005799307662
49 43 -0.00015372391780133074
50 43 -0.020824127535672237
41 44 -0.22883141378616847
42 44 -0.0099081023744084038
43 44 0.031403244135561587
44 44 1.3101587881541823
45 44 0.024249168484171489
46 44 -0.037902744830715221
47 44 -0.027663911171413584
48 44 0.01703291286315705
49 44 -0.015882188333173154
50 44 -0.025102967821435195
41 45 -0.1604315559753535
42 45 1.4449494273848992e-05
43 45 0.016524019268486258
44 45 0.024249168484171489
45 45 1.336656984195649
46 45 -0.020465973889626701
47 45 -0.020348902238784591
48 45 0.0085113309698345019
49 45 -0.017774286424950284
50 45 -0.048771509364132659
41 46 0.30396686719048438
42 46 0.027654464403971044
43 46 -0.031389884815107724
44 46 -0.037902744830715221
45 46 -0.020465973889626701
46 46 1.3178937703247953
47 46 0.032682735861687344
48 46 -0.017448854037087999
49 46 -0.00028179937577722629
50 46 0.036213079553574064
41 47 0.26409840587797767
42 47 0.018831679320365023
43 47 -0.032114018816887656
44 47 -0.027663911171413584
45 47 -0.020348902238784591
46 47 0.032682735861687344
47 47 1.3183022868600149
48 47 0.011070228957800422
49 47 0.0066584114049931965
50 47 0.037246964242708812
41 48 -0.059869232759504357
42 48 -0.0060998068858754036
43 48 0.0047109005799307662
44 48 0.01703291286315705
45 48 0.0085113309698345019
46 48 -0.017448854037087999
47 48 0.011070228957800422
48 48 1.2905056428522617
49 48 0.00427885594243847
50 48 -0.0039829547311507289
41 49 -0.018619072152212639
42 49 -0.016514791254552956
43 49 -0.00015372391780133074
44 49 -0.015882188333173154
45 49 -0.017774286424950284
46 49 -0.00028179937577722629
47 49 0.0066584114049931965
48 49 0.00427885594243847
49 49 1.309947668572526
50 49 0.0029659923881801614
41 50 0.24919458835444858
42 50 0.018710206504996808
43 50 -0.020824127535672237
44 50 -0.025102967821435195
45 50 -0.048771509364132659
46 50 0.036213079553574064
47 50 0.037246964242708812
48 50 -0.0039829547311507289
49 50 0.0029659923881801614
50 50 1.3144370727980608
51 51 0.41917859241646227
52 51 -0.0032282550351911505
53 51 -0.0052421991468290796
54 51 -0.0025898269413695873
55 51 0.030571313166232097
56 51 0.0020813638199204338
57 51 0.0078209381685332546
58 51 0.0065656997802220896
59 51 -0.0069186044921281213
60 51 -0.014095006337955629
51 52 -0.0032282550351911505
52 52 0.39991134263792993
53 52 -0.00067536771024194258
54 52 -0.00057020226027813825
55 52 -0.0061972269348995945
56 52 -0.0049871359322978363
57 52 -0.00066314550676136287
58 52 -0.0084612142586729406
59 52 0.006518148459455855
60 52 0.015072819547680687
51 53 -0.0052421991468290796
52 53 -0.00067536771024194258
53 53 0.43305099059430341
54 53 -0.023150952331593453
55 53 0.027487100665363945
56 53 0.0056268700651923844
57 53 -0.021960518346241742
58 53 -0.0089335951859453814
59 53 0.013622438412298514
60 53 -0.020235666455003794
51 54 -0.0025898269413695873
52 54 -0.00057020226027813825
53 54 -0.023150952331593453
54 54 0.40759706843286081
55 54 -0.010159625843391062
56 54 -0.0053484079054591117
57 54 0.0059856761696031081
58 54 0.0057324836754568103
59 54 0.0040171833318853522
60 54 0.0070719897808131336
51 55 0.030571313166232097
52 55 -0.0061972269348995945
53 55 0.027487100665363945
54 55 -0.010159625843391062
55 55 0.45844319071490269
56 55 -0.0021608621207550418
57 55 -0.01777788654841532
58 55 -0.010208001874946991
59 55 0.021473663118265814
60 55 -0.036285180870933006
51 56 0.0020813638199204338
52 56 -0.0049871359322978363
53 56 0.0056268700651923844
54 56 -0.0053484079054591117
55 56 -0.0021608621207550418
56 56 0.4035602938525919
57 56 0.0023274062644058008
58 56 0.0060010154025205058
59 56 -0.0050065915266745862
60 56 -0.0091595503377574477
51 57 0.0078209381685332546
52 57 -0.00066314550676136287
53 57 -0.021960518346241742
54 57 0.0059856761696031081
55 57 -0.01777788654841532
56 57 0.0023274062644058008
57 57 0.41435598023347209
58 57 0.014468769786146357
59 57 -0.02403586698489206
60 57 0.0020265172384638505
51 58 0.0065656997802220896
52 58 -0.0084612142586729406
53 58 -0.0089335951859453814
54 58 0.0057324836754568103
55 58 -0.010208001874946991
56 58 0.0060010154025205058
57 58 0.014468769786146357
58 58 0.42593410531953979
59 58 -0.013248923293059595
60 58 -0.016017696239627469
51 59 -0.0069186044921281213
52 59 0.006518148459455855
53 59 0.013622438412298514
54 59 0.0040171833318853522
55 59 0.021473663118265814
56 59 -0.0050065915266745862
57 59 -0.02403586698489206
58 59 -0.013248923293059595
59 59 0.44123953565348745
60 59 0.00021929785108477549
51 60 -0.014095006337955629
52 60 0.015072819547680687
53 60 -0.020235666455003794
54 60 0.0070719897808131336
55 60 -0.036285180870933006
56 60 -0.0091595503377574477
57 60 0.0020265172384638505
58 60 -0.016017696239627469
59 60 0.00021929785108477549
60 60 0.4370824524734811
