%%MatrixMarket matrix coordinate real general
1452 1452 7428
1 1 1.9056584627788493
2 1 -0.012079213740296472
3 1 -0.018064961334994797
4 1 -0.24665625570057775
5 1 -0.017653355105166996
6 1 -0.065889908630523852
7 1 0.075243600749665754
1 2 -0.012079213740296472
2 2 1.8868102924896852
3 2 5.753844183097101e-05
4 2 0.000785621201047364
5 2 5.6227440900881331e-05
6 2 0.00020986497588794774
7 2 -0.00023965728265914921
1 3 -0.018064961334994797
2 3 5.753844183097101e-05
3 3 1.8868578702722776
4 3 0.0011749288427215518
5 3 8.4090452216403582e-05
6 3 0.00031386170958610252
7 3 -0.00035841733062844106
1 4 -0.24665625570057775
2 4 0.000785621201047364
3 4 0.0011749288427215518
4 4 1.9028141202622419
5 4 0.0011481583436155434
6 4 0.0042854204146190325
7 4 -0.0048937761399882205
1 5 -0.017653355105166996
2 5 5.6227440900881331e-05
3 5 8.4090452216403582e-05
4 5 0.0011481583436155434
5 5 1.8868539936336917
6 5 0.00030671043853855337
7 5 -0.00035025086940944404
1 6 -0.065889908630523852
2 6 0.00020986497588794774
3 6 0.00031386170958610252
4 6 0.0042854204146190325
5 6 0.00030671043853855337
6 6 1.8879165943443907
7 6 -0.0013072867817854673
1 7 0.075243600749665754
2 7 -0.00023965728265914921
3 7 -0.00035841733062844106
4 7 -0.0048937761399882205
5 7 -0.00035025086940944404
6 7 -0.0013072867817854673
7 7 1.8882646875976068
8 8 1.9062361852973762
9 8 0.12943763363598093
10 8 -0.17158180790461147
11 8 0.016901852126152028
12 8 0.081803850192967167
13 8 0.04094192332208111
14 8 -0.00811362477686897
8 9 0.12943763363598093
9 9 1.8961888463987535
10 9 -0.0058475678711117232
11 9 0.00057602101680915814
12 9 0.0027879037525211608
13 9 0.0013953150297426537
14 9 -0.00027651516290031977
8 10 -0.17158180790461147
9 10 -0.0058475678711117232
10 10 1.8995290701659522
11 10 -0.00076357025911893668
12 10 -0.0036956297228587401
13 10 -0.0018496218501106013
14 10 0.00036654696343495512
8 11 0.016901852126152028
9 11 0.00057602101680915814
10 11 -0.00076357025911893668
11 11 1.8918527830057827
12 11 0.0003640420150106825
13 11 0.00018219900688567638
14 11 -3.610710627732672e-05
8 12 0.081803850192967167
9 12 0.0027879037525211608
10 12 -0.0036956297228587401
11 12 0.0003640420150106825
12 12 1.8935395060456213
13 12 0.00088183118354949941
14 12 -0.0001747560143566607
8 13 0.04094192332208111
9 13 0.0013953150297426537
10 13 -0.0018496218501106013
11 13 0.00018219900688567638
12 13 0.00088183118354949941
13 13 1.8922189134547021
14 13 -8.7463454629401101e-05
8 14 -0.00811362477686897
9 14 -0.00027651516290031977
10 14 0.00036654696343495512
11 14 -3.610710627732672e-05
12 14 -0.0001747560143566607
13 14 -8.7463454629401101e-05
14 14 1.8917948996718534
15 15 1.9204936844427631
16 15 0.29913750001932982
17 15 -0.094300345881659559
18 15 0.1901339751916922
19 15 -0.073891600678021224
20 15 0.092054366192925008
21 15 0.13293146048419205
15 16 0.29913750001932982
16 16 1.900308418927074
17 16 -0.0074287624424734721
18 16 0.01497831339574052
19 16 -0.0058210088499568401
20 16 0.0072518293739652412
21 16 0.010472032014679748
15 17 -0.094300345881659559
16 17 -0.0074287624424734721
17 17 1.8790849098092739
18 17 -0.0047217755508786258
19 17 0.0018350195074026522
20 17 -0.0022860725191442455
21 17 -0.0033012117872359727
15 18 0.1901339751916922
16 18 0.01497831339574052
17 18 -0.0047217755508786258
18 18 1.8862633859269871
19 18 -0.0036998756498158769
20 18 0.004609315603007964
21 18 0.0066560998709859669
15 19 -0.073891600678021224
16 19 -0.0058210088499568401
17 19 0.0018350195074026522
18 19 -0.0036998756498158769
19 19 1.8781809402090193
20 19 -0.0017913142961065011
21 19 -0.0025867542781034423
15 20 0.092054366192925008
16 20 0.0072518293739652412
17 20 -0.0022860725191442455
18 20 0.004609315603007964
19 20 -0.0017913142961065011
20 20 1.8789746852100973
21 20 0.0032225858336085303
15 21 0.13293146048419205
16 21 0.010472032014679748
17 21 -0.0033012117872359727
18 21 0.0066560998709859669
19 21 -0.0025867542781034423
20 21 0.0032225858336085303
21 21 1.8813966481974933
22 22 1.1543271897619651
23 22 -1.7610228554751934
24 22 -0.93573662917687117
22 23 -1.7610228554751934
23 23 13.801481862292476
24 23 -0.94653974737089042
22 24 -0.93573662917687117
23 24 -0.94653974737089042
24 24 3.3879006631370792
25 25 1.0602551888730978
26 25 -1.1690545967273756
27 25 -1.1555932966397755
25 26 -1.1690545967273756
26 26 12.522129222796744
27 26 -1.4970352139517784
25 27 -1.1555932966397755
26 27 -1.4970352139517784
27 27 4.4295146744558664
28 28 0.99827483212098445
29 28 -1.3062113709895824
30 28 -0.99930363873057881
28 29 -1.3062113709895824
29 29 13.224512781464281
30 29 -1.3918695137149091
28 30 -0.99930363873057881
29 30 -1.3918695137149091
30 30 3.9074296861067541
31 31 1.0287929968830223
32 31 -1.5674155176059528
33 31 -0.87542020003713716
31 32 -1.5674155176059528
32 32 14.421273479263689
33 32 -1.2175429828016651
31 33 -0.87542020003713716
32 33 -1.2175429828016651
33 33 3.4197913796542871
34 34 1.3135901953092086
35 34 -3.3986470404677442
36 34 -0.59130255663769704
34 35 -3.3986470404677442
35 35 21.576740056355654
36 35 -0.5653987033586525
34 36 -0.59130255663769704
35 36 -0.5653987033586525
36 36 2.1415875793384718
37 37 1.1927612809641346
38 37 -1.3124777497156574
39 37 -1.2044366386159291
37 38 -1.3124777497156574
38 38 12.50966931806553
39 38 -1.2586973742318099
37 39 -1.2044366386159291
38 39 -1.2586973742318099
39 39 4.3810463346306872
40 40 1.4519621393383568
41 40 -1.315316767230633
42 40 -1.5811147730892745
40 41 -1.315316767230633
41 41 11.035474772842383
42 41 -1.0329820213588259
40 42 -1.5811147730892745
41 42 -1.0329820213588259
42 42 5.2458854768289926
43 43 1.7418166990730151
44 43 -1.5812063497783055
45 43 -1.5229238093235695
43 44 -1.5812063497783055
44 44 10.34580618110258
45 44 -0.27763649920514055
43 45 -1.5229238093235695
44 45 -0.27763649920514055
45 45 4.5298064037086521
46 46 7.5804656615471417
47 47 7.2647600338223768
48 48 7.632953003901318
49 49 7.2999170171200154
50 50 6.8396085784211698
51 51 7.4774447605760272
52 52 8.408337654441473
53 53 9.0575221692737937
54 54 9.6977161149219793
55 55 9.9248575569412871
56 56 10.181287806234101
57 57 10.394066403883681
58 58 10.248278689037067
59 59 10.470679899284104
60 60 10.378565568573215
61 61 10.671475410569196
62 62 1.9176582312555277
63 62 -0.21426052927895028
64 62 0.080420968100939669
65 62 0.11316537297639774
66 62 -0.17221848254250413
67 62 0.10341824722978663
68 62 -0.15710464246608152
62 63 -0.21426052927895028
63 63 1.895477475487062
64 63 -0.004533221699029426
65 63 -0.006378979717223403
66 63 0.009707723998742538
67 63 -0.0058295473616933585
68 63 0.0088557771817867371
62 64 0.080420968100939669
63 64 -0.004533221699029426
64 64 1.8851014062567819
65 64 0.0023942987823364994
66 64 -0.0036437162022463993
67 64 0.0021880737623274269
68 64 -0.0033239448098174224
62 65 0.11316537297639774
63 65 -0.006378979717223403
64 65 0.0023942987823364994
65 65 1.886769065449349
66 65 -0.0051273009114962305
67 65 0.0030789754122688795
68 65 -0.0046773305897514416
62 66 -0.17221848254250413
63 66 0.009707723998742538
64 66 -0.0036437162022463993
65 66 -0.0051273009114962305
66 66 1.8912027793036614
67 66 -0.0046856777770459884
68 66 0.0071181029614476908
62 67 0.10341824722978663
63 67 -0.0058295473616933585
64 67 0.0021880737623274269
65 67 0.0030789754122688795
66 67 -0.0046856777770459884
67 67 1.8862136759475141
68 67 -0.0042744641632316742
62 68 -0.15710464246608152
63 68 0.0088557771817867371
64 68 -0.0033239448098174224
65 68 -0.0046773305897514416
66 68 0.0071181029614476908
67 68 -0.0042744641632316742
68 68 1.8898933183915412
69 69 1.1388887489898347
70 69 -0.96223133409921635
71 69 -1.4172888539585431
69 70 -0.96223133409921635
70 70 11.978064935278386
71 70 -1.9018148153670107
69 71 -1.4172888539585431
70 71 -1.9018148153670107
71 71 5.4564214702169807
72 72 1.0656095459227644
73 72 -1.6568829810012589
74 72 -0.90843582057658223
72 73 -1.6568829810012589
73 73 13.887908595924053
74 73 -1.0681916137535001
72 74 -0.90843582057658223
73 74 -1.0681916137535001
74 74 3.4084116454001663
75 75 0.99001441763051312
76 75 -1.5472737231912546
77 75 -0.87560376853044719
75 76 -1.5472737231912546
76 76 14.166306391096164
77 76 -1.2195988543466658
75 77 -0.87560376853044719
76 77 -1.2195988543466658
77 77 3.4283698732195735
78 78 0.89286609649317139
79 78 -1.6924682653359115
80 78 -0.73664572196090272
78 79 -1.6924682653359115
79 79 15.748597113606824
80 79 -1.2356737608063442
78 80 -0.73664572196090272
79 80 -1.2356737608063442
80 80 3.0472966293508521
81 81 0.91215771259153167
82 81 -3.1807015960881424
83 81 -0.48018039948369129
81 82 -3.1807015960881424
82 82 25.027879739366892
83 82 -0.6871142599699791
81 83 -0.48018039948369129
82 83 -0.6871142599699791
83 83 1.977461590768641
84 84 0.90729069579970356
85 84 -2.0960086324057565
86 84 -0.50775566438901787
84 85 -2.0960086324057565
85 85 21.497189121396303
86 85 -1.3347624265972358
84 86 -0.50775566438901787
85 86 -1.3347624265972358
86 86 2.4116560257333335
87 87 1.352593874101937
88 87 -6.7951815886184628
89 87 -0.30959782790408652
87 88 -6.7951815886184628
88 88 56.595044429567857
89 88 -0.21055930389109467
87 89 -0.30959782790408652
88 89 -0.21055930389109467
89 89 1.213053506880023
90 90 1.4688475424356326
91 90 -10.569254857697791
92 90 -0.30094548480026423
90 91 -10.569254857697791
91 91 99.982296727228928
92 91 0.64121180138223188
90 92 -0.30094548480026423
91 92 0.64121180138223188
92 92 0.92030436092090162
93 93 1.8756112813868666
94 93 0.044690324567519771
95 93 -0.22394608817473452
96 93 -0.066161029036209143
97 93 -0.23447561763503716
98 93 -0.23635336391396444
99 93 -0.18685836406102832
93 94 0.044690324567519771
94 94 1.8214284217287635
95 94 -0.0027074868083215428
96 94 -0.0007998805194612198
97 94 -0.0028347878134159406
98 94 -0.0028574895865123465
99 94 -0.0022590997674629427
93 95 -0.22394608817473452
94 95 -0.0027074868083215428
95 95 1.8344555103524156
96 95 0.0040082526827451984
97 95 0.014205303894375845
98 95 0.014319063938160926
99 95 0.011320494102821321
93 96 -0.066161029036209143
94 96 -0.0007998805194612198
95 96 0.0040082526827451984
96 96 1.8220722894519135
97 96 0.0041967132852557994
98 96 0.0042303217381712737
99 96 0.0033444457331025389
93 97 -0.23447561763503716
94 97 -0.0028347878134159406
95 97 0.014205303894375845
96 97 0.0041967132852557994
97 97 1.8357613308957079
98 97 0.014992319750797321
99 97 0.011852762726633289
93 98 -0.23635336391396444
94 98 -0.0028574895865123465
95 98 0.014319063938160926
96 98 0.0042303217381712737
97 98 0.014992319750797321
98 98 1.8360005024123567
99 98 0.011947682963242223
93 99 -0.18685836406102832
94 99 -0.0022590997674629427
95 99 0.011320494102821321
96 99 0.0033444457331025389
97 99 0.011852762726633289
98 99 0.011947682963242223
99 99 1.8303338264198847
100 100 1.8799802128805991
101 100 -0.096033765377592686
102 100 -0.20303984459830451
103 100 -0.23446814281560438
104 100 -0.13706544139234833
105 100 -0.16053944638916445
106 100 -0.026484711481278071
100 101 -0.096033765377592686
101 101 1.8419472086163011
102 101 0.0052423589116801488
103 101 0.006053817468321396
104 101 0.0035389420218880068
105 101 0.0041450258155953179
106 101 0.00068381830931678648
100 102 -0.20303984459830451
101 102 0.0052423589116801488
102 102 1.8505513604525057
103 102 0.012799312337296687
104 102 0.0074822249793217738
105 102 0.0087636405189919116
106 102 0.0014457661085269847
100 103 -0.23446814281560438
101 103 0.006053817468321396
102 103 0.012799312337296687
103 103 1.8542481810300391
104 103 0.0086403897643879003
105 103 0.010120154105007483
106 103 0.0016695545403057127
100 104 -0.13706544139234833
101 104 0.0035389420218880068
102 104 0.0074822249793217738
103 104 0.0086403897643879003
104 104 1.8445186792784813
105 104 0.005916042037541658
106 104 0.00097598858099699174
100 105 -0.16053944638916445
101 105 0.0041450258155953179
102 105 0.0087636405189919116
103 105 0.010120154105007483
104 105 0.005916042037541658
105 105 1.8463969092812649
106 105 0.001143137649313769
100 106 -0.026484711481278071
101 106 0.00068381830931678648
102 106 0.0014457661085269847
103 106 0.0016695545403057127
104 106 0.00097598858099699174
105 106 0.001143137649313769
106 106 1.839656265336592
107 107 1.8970733009803487
108 107 -0.063992490755605758
109 107 -0.14389547675924566
110 107 -0.21311156961386418
111 107 -0.32205804501299445
112 107 -0.14138194659384265
113 107 -0.19876805833554467
107 108 -0.063992490755605758
108 108 1.8356138576228018
109 108 0.0024676426287075395
110 108 0.0036546193507514561
111 108 0.0055229266318214103
112 108 0.0024245384650160825
113 108 0.0034086445593759906
107 109 -0.14389547675924566
108 109 0.0024676426287075395
109 109 1.8400652765686134
110 109 0.0082178891248091968
111 109 0.012419022160387759
112 109 0.0054518915301645272
113 109 0.0076647826671952142
107 110 -0.21311156961386418
108 110 0.0036546193507514561
109 110 0.0082178891248091968
110 110 1.846687288755464
111 110 0.018392776237836431
112 110 0.0080743410948339034
113 110 0.011351669293177827
107 111 -0.32205804501299445
108 111 0.0055229266318214103
109 111 0.012419022160387759
110 111 0.018392776237836431
111 111 1.8623119546468627
112 111 0.012202089790253773
113 111 0.017154847232456652
107 112 -0.14138194659384265
108 112 0.0024245384650160825
109 112 0.0054518915301645272
110 112 0.0080743410948339034
111 112 0.012202089790253773
112 112 1.8398731189481099
113 112 0.0075308961623574908
107 113 -0.19876805833554467
108 113 0.0034086445593759906
109 113 0.0076647826671952142
110 113 0.011351669293177827
111 113 0.017154847232456652
112 113 0.0075308961623574908
113 113 1.8451041029103687
114 114 1.8892377423776505
115 114 -0.047465467350563374
116 114 -0.062528077359896655
117 114 -0.11704027156298485
118 114 -0.35206817291567194
119 114 -0.21951616165585916
120 114 -0.15104009517680062
114 115 -0.047465467350563374
115 115 1.8321091712401394
116 115 0.00079767016777337115
117 115 0.0014930817801502502
118 115 0.0044913307815446389
119 115 0.0028003658658677976
120 115 0.0019268172499008632
114 116 -0.062528077359896655
115 116 0.00079767016777337115
116 116 1.8325544561150395
117 116 0.0019668937917405537
118 116 0.0059166019894666654
119 116 0.0036890291673261559
120 116 0.0025382701316382281
114 117 -0.11704027156298485
115 117 0.0014930817801502502
116 117 0.0019668937917405537
117 117 1.835185293269429
118 117 0.011074716076611818
119 117 0.0069051375602433643
120 117 0.0047511428153664643
114 118 -0.35206817291567194
115 118 0.0044913307815446389
116 118 0.0059166019894666654
117 118 0.011074716076611818
118 118 1.8648174448885388
119 118 0.020771304885925389
120 118 0.014291885587152969
114 119 -0.21951616165585916
115 119 0.0028003658658677976
116 119 0.0036890291673261559
117 119 0.0069051375602433643
118 119 0.020771304885925389
119 119 1.8444546609519032
120 119 0.0089110578810200122
114 120 -0.15104009517680062
115 120 0.0019268172499008632
116 120 0.0025382701316382281
117 120 0.0047511428153664643
118 120 0.014291885587152969
119 120 0.0089110578810200122
120 120 1.8376349892334447
121 121 1.88846210936452
122 121 0.0868187328731337
123 121 -0.16661329481837597
124 121 -0.1869219152937478
125 121 -0.21486642034702827
126 121 -0.23448398558568728
127 121 -0.22364987848909854
121 122 0.0868187328731337
122 122 1.8309295738278888
123 122 -0.0038912398637853183
124 122 -0.0043655460328002153
125 122 -0.0050181876611625296
126 122 -0.0054763542916843808
127 122 -0.0052233246071761797
121 123 -0.16661329481837597
122 123 -0.0038912398637853183
123 123 1.8363695838515264
124 123 0.0083778924678502998
125 123 0.009630372991794053
126 123 0.010509637746770701
127 123 0.010024050039744728
121 124 -0.1869219152937478
122 124 -0.0043655460328002153
123 124 0.0083778924678502998
124 124 1.8383010095423988
125 124 0.010804226436921683
126 124 0.011790665437660995
127 124 0.011245889077891274
121 125 -0.21486642034702827
122 125 -0.0050181876611625296
123 125 0.009630372991794053
124 125 0.010804226436921683
125 125 1.8413213691462733
126 125 0.013553349654685375
127 125 0.012927130165496778
121 126 -0.23448398558568728
122 126 -0.0054763542916843808
123 126 0.010509637746770701
124 126 0.011790665437660995
125 126 0.013553349654685375
126 126 1.8436927163728063
127 126 0.014107392855965979
121 127 -0.22364987848909854
122 127 -0.0052233246071761797
123 127 0.010024050039744728
124 127 0.011245889077891274
125 127 0.012927130165496778
126 127 0.014107392855965979
127 127 1.8423575037608144
128 128 1.8668765472389206
129 128 -0.077680887278750083
130 128 -0.094593282820077326
131 128 -0.13797209964094961
132 128 -0.045531329236221413
133 128 0.14666105382052222
134 128 -0.093717442207235407
128 129 -0.077680887278750083
129 129 1.8506355539200898
130 129 0.0019774788125695849
131 129 0.0028843158375703205
132 129 0.00095183543892873163
133 129 -0.0030659589974358519
134 129 0.001959169306826168
128 130 -0.094593282820077326
129 130 0.0019774788125695849
130 130 1.8514196380387209
131 130 0.0035122784165256718
132 130 0.0011590655311346837
133 130 -0.003733468253503667
134 130 0.0023857124039791803
128 131 -0.13797209964094961
129 131 0.0028843158375703205
130 131 0.0035122784165256718
131 131 1.8541345774136064
132 131 0.0016905926106431967
133 131 -0.0054455711708252244
134 131 0.0034797581784168788
128 132 -0.045531329236221413
129 132 0.00095183543892873163
130 132 0.0011590655311346837
131 132 0.0016905926106431967
132 132 1.8495695319846561
133 132 -0.0017970596555633637
134 132 0.0011483337261391446
128 133 0.14666105382052222
129 133 -0.0030659589974358519
130 133 -0.003733468253503667
131 133 -0.0054455711708252244
132 133 -0.0017970596555633637
133 133 1.8548001422289477
134 133 -0.0036989000154037787
128 134 -0.093717442207235407
129 134 0.001959169306826168
130 134 0.0023857124039791803
131 134 0.0034797581784168788
132 134 0.0011483337261391446
133 134 -0.0036989000154037787
134 134 1.85137525290845
135 135 1.8780980989218203
136 135 0.044245971185942506
137 135 0.086830019135898467
138 135 0.016788187343892935
139 135 0.032314029461274096
140 135 0.041290764577545415
141 135 0.31079033384503968
135 136 0.044245971185942506
136 136 1.8493448338840817
137 136 0.0010308461015636769
138 136 0.00019930938226198996
139 136 0.00038363220033192869
140 136 0.00049020401145746925
141 136 0.0036897032528163767
135 137 0.086830019135898467
136 137 0.0010308461015636769
137 137 1.8508425182413077
138 137 0.00039113250341018694
139 137 0.0007528547888796585
140 137 0.00096199546658090964
141 137 0.0072408175357131848
135 138 0.016788187343892935
136 138 0.00019930938226198996
137 138 0.00039113250341018694
138 138 1.8488951693377422
139 138 0.00014556103251200659
140 138 0.0001859974266694476
141 138 0.0013999789764210823
135 139 0.032314029461274096
136 139 0.00038363220033192869
137 139 0.0007528547888796585
138 139 0.00014556103251200659
139 139 1.849099722627735
140 139 0.0003580092479313488
141 139 0.0026946900795511942
135 140 0.041290764577545415
136 140 0.00049020401145746925
137 140 0.00096199546658090964
138 140 0.0001859974266694476
139 140 0.0003580092479313488
140 140 1.8492770087398485
141 140 0.0034432664554428006
135 141 0.31079033384503968
136 141 0.0036897032528163767
137 141 0.0072408175357131848
138 141 0.0013999789764210823
139 141 0.0026946900795511942
140 141 0.0034432664554428006
141 141 1.8747365743704876
142 142 1.886445188128602
143 142 0.12770379592810982
144 142 0.13745568694908664
145 142 0.099804721026138826
146 142 0.086046639676346875
147 142 0.33515354086321608
148 142 0.10395688841020011
142 143 0.12770379592810982
143 143 1.8436632501164003
144 143 0.0047114544390189916
145 143 0.0034209235452573494
146 143 0.0029493492154744638
147 143 0.01148777961029589
148 143 0.0035632439387411883
142 144 0.13745568694908664
143 144 0.0047114544390189916
144 144 1.8443572900813741
145 144 0.0036821567635966336
146 144 0.0031745714332094927
147 144 0.01236502506739781
148 144 0.0038353452206116322
142 145 0.099804721026138826
143 145 0.0034209235452573494
144 145 0.0036821567635966336
145 145 1.8419596175287829
146 145 0.0023050135160022811
147 145 0.0089780779880715735
148 145 0.0027847924540500236
142 146 0.086046639676346875
143 146 0.0029493492154744638
144 146 0.0031745714332094927
145 146 0.0023050135160022811
146 146 1.841273320537957
147 146 0.0077404498873696534
148 146 0.0024009087987360359
142 147 0.33515354086321608
143 147 0.01148777961029589
144 147 0.01236502506739781
145 147 0.0089780779880715735
146 147 0.0077404498873696534
147 147 1.869435274516583
148 147 0.0093515922087452231
142 148 0.10395688841020011
143 148 0.0035632439387411883
144 148 0.0038353452206116322
145 148 0.0027847924540500236
146 148 0.0024009087987360359
147 148 0.0093515922087452231
148 148 1.8421867010874284
149 149 1.8680527430042242
150 149 0.092756570403841193
151 149 0.1202369804213619
152 149 0.12599616206509578
153 149 0.063489337555783648
154 149 0.053308854665687237
155 149 -0.011292298569075491
149 150 0.092756570403841193
150 150 1.858027361660358
151 150 0.0029950214790490939
152 150 0.0031384787803242992
153 150 0.0015814762563380791
154 150 0.0013278873453717703
155 150 -0.00028128348403040648
149 151 0.1202369804213619
150 151 0.0029950214790490939
151 151 1.8595991963155865
152 151 0.0040682962944809933
153 151 0.0020500103533614028
154 151 0.0017212922389444874
155 151 -0.00036461758574049086
149 152 0.12599616206509578
150 152 0.0031384787803242992
151 152 0.0040682962944809933
152 152 1.8599800204658523
153 152 0.0021482029556304286
154 152 0.0018037397075293645
155 152 -0.00038208225342775529
149 153 0.063489337555783648
150 153 0.0015814762563380791
151 153 0.0020500103533614028
152 153 0.0021482029556304286
153 153 1.8567993357996988
154 153 0.00090890259891358079
155 153 -0.00019253085780038506
149 154 0.053308854665687237
150 154 0.0013278873453717703
151 154 0.0017212922389444874
152 154 0.0018037397075293645
153 154 0.00090890259891358079
154 154 1.8564800190522239
155 154 -0.00016165863296530565
149 155 -0.011292298569075491
150 155 -0.00028128348403040648
151 155 -0.00036461758574049086
152 155 -0.00038208225342775529
153 155 -0.00019253085780038506
154 155 -0.00016165863296530565
155 155 1.8557511023175037
156 156 1.8634519460428924
157 156 0.051437183373474762
158 156 0.075586344613707113
159 156 0.017172945324613501
160 156 0.069310301522747836
161 156 0.067405780331306439
162 156 -0.04433035493340224
156 157 0.051437183373474762
157 157 1.8587977306099828
158 157 0.0010447153560951112
159 157 0.00023735556708945557
160 157 0.00095797113495108748
161 157 0.0009316478282099574
162 157 -0.00061271123477075096
156 158 0.075586344613707113
157 158 0.0010447153560951112
158 158 1.8596219895722561
159 158 0.00034879125397945562
160 158 0.0014077274762625772
161 158 0.0013690456821942531
162 158 -0.00090037205582984095
156 159 0.017172945324613501
157 159 0.00023735556708945557
158 159 0.00034879125397945562
159 159 1.8581660365856949
160 159 0.00031983061365596763
161 159 0.0003110422493292076
162 159 -0.0002045612890211358
156 160 0.069310301522747836
157 160 0.00095797113495108748
158 160 0.0014077274762625772
159 160 0.00031983061365596763
160 160 1.859377634304507
161 160 0.0012553718468096438
162 160 -0.00082561286686306894
156 161 0.067405780331306439
157 161 0.0009316478282099574
158 161 0.0013690456821942531
159 161 0.0003110422493292076
160 161 0.0012553718468096438
161 161 1.8593076689774215
162 161 -0.00080292652491502055
156 162 -0.04433035493340224
157 162 -0.00061271123477075096
158 162 -0.00090037205582984095
159 162 -0.0002045612890211358
160 162 -0.00082561286686306894
161 162 -0.00080292652491502055
162 162 1.8586148483366285
163 163 1.8681229814497502
164 163 0.09106221328013582
165 163 0.021964868645441005
166 163 -0.023784492428613857
167 163 0.17819035709041253
168 163 -0.056304448280495627
169 163 -0.057269505958712934
163 164 0.09106221328013582
164 164 1.8575817747944214
165 164 0.00053717779577589072
166 164 -0.00058167892659367329
167 164 0.004357863677469073
168 164 -0.0013769943225211134
169 164 -0.0014005959913837667
163 165 0.021964868645441005
164 165 0.00053717779577589072
165 165 1.8554843079035153
166 165 -0.00014030519088248649
167 165 0.0010511484380011974
168 165 -0.00033214105313528539
169 165 -0.00033783394745124702
163 166 -0.023784492428613857
164 166 -0.00058167892659367329
165 166 -0.00014030519088248649
166 166 1.8555066651275345
167 166 -0.0011382281619142728
168 166 0.0003596564355128843
169 166 0.00036582094320653684
163 167 0.17819035709041253
164 167 0.004357863677469073
165 167 0.0010511484380011974
166 167 -0.0011382281619142728
167 167 1.8638821956504728
168 167 -0.0026944997403772954
169 167 -0.0027406834388739279
163 168 -0.056304448280495627
164 168 -0.0013769943225211134
165 168 -0.00033214105313528539
166 168 0.0003596564355128843
167 168 -0.0026944997403772954
168 168 1.8562061426088639
169 168 0.00086599898814384668
163 169 -0.057269505958712934
164 169 -0.0014005959913837667
165 169 -0.00033783394745124702
166 169 0.00036582094320653684
167 169 -0.0027406834388739279
168 169 0.00086599898814384668
169 169 1.8562355789113962
170 170 1.866238466579484
171 170 -0.098372227404235763
172 170 -0.10527769198589355
173 170 0.0095595277334246456
174 170 -0.032356002596148202
175 170 -0.060209678140750053
176 170 0.13741182629132098
170 171 -0.098372227404235763
171 171 1.8569040988386092
172 171 0.0027835735334391302
173 171 -0.00025275676061082056
174 171 0.00085550234599172275
175 171 0.0015919618237065579
176 171 -0.0036332096157399422
170 172 -0.10527769198589355
171 172 0.0027835735334391302
172 172 1.8572820807203527
173 172 -0.00027049960230739303
174 172 0.00091555629928379424
175 172 0.0017037132425677278
176 172 -0.0038882511145578338
170 173 0.0095595277334246456
171 173 -0.00025275676061082056
172 173 -0.00027049960230739303
173 173 1.8543276700144089
174 173 -8.3135236624372504e-05
175 173 -0.00015470223258989496
176 173 0.00035306477244120615
170 174 -0.032356002596148202
171 174 0.00085550234599172275
172 174 0.00091555629928379424
173 174 -8.3135236624372504e-05
174 174 1.8545844945423442
175 174 0.00052361852791187589
176 174 -0.0011950134998587052
170 175 -0.060209678140750053
171 175 0.0015919618237065579
172 175 0.0017037132425677278
173 175 -0.00015470223258989496
174 175 0.00052361852791187589
175 175 1.8552774835565065
176 175 -0.0022237412667567686
170 176 0.13741182629132098
171 176 -0.0036332096157399422
172 176 -0.0038882511145578338
173 176 0.00035306477244120615
174 176 -0.0011950134998587052
175 176 -0.0022237412667567686
176 176 1.8593781781348924
177 177 1.867715667711761
178 177 -0.047246387332846203
179 177 -0.12499052205075301
180 177 -0.1111119956742757
181 177 -0.092575552001373504
182 177 0.051296602069214735
183 177 0.11713789646742094
177 178 -0.047246387332846203
178 178 1.8534999108017354
179 178 0.0015871971801126017
180 178 0.0014109601537569667
181 178 0.0011755743769458265
182 178 -0.00065139196810903616
183 178 -0.001487480297761444
177 179 -0.12499052205075301
178 179 0.0015871971801126017
179 179 1.8570988876539627
180 179 0.0037327011897963455
181 179 0.0031099870990939512
182 179 -0.0017232602691933934
183 179 -0.0039351355617439588
177 180 -0.1111119956742757
178 180 0.0014109601537569667
179 180 0.0037327011897963455
180 180 1.8562181852767461
181 180 0.0027646646116196339
182 180 -0.0015319152559305114
183 180 -0.0034981913695555215
177 181 -0.092575552001373504
178 181 0.0011755743769458265
179 181 0.0031099870990939512
180 181 0.0027646646116196339
181 181 1.8552033954834308
182 181 -0.0012763509428165701
183 181 -0.0029145997700590234
177 182 0.051296602069214735
178 182 -0.00065139196810903616
179 182 -0.0017232602691933934
180 182 -0.0015319152559305114
181 182 -0.0012763509428165701
182 182 1.8536071834438952
183 182 0.0016149951187277207
177 183 0.11713789646742094
178 183 -0.001487480297761444
179 183 -0.0039351355617439588
180 183 -0.0034981913695555215
181 183 -0.0029145997700590234
182 183 0.0016149951187277207
183 183 1.8565878582951854
184 184 1.8737604624394812
185 184 -0.077165350601890656
186 184 -0.14557428096159614
187 184 -0.06652457235270344
188 184 -0.20093059873893643
189 184 -0.069163174309646053
190 184 0.11605785580976936
184 185 -0.077165350601890656
185 185 1.8511344142818749
186 185 0.0030170288808542976
187 185 0.0013787226338939354
188 185 0.0041642892923004857
189 185 0.0014334076940336082
190 185 -0.0024053005827346023
184 186 -0.14557428096159614
185 186 0.0030170288808542976
186 186 1.855226858579474
187 186 0.002600993250326397
188 186 0.0078560314275026993
189 186 0.0027041579252365827
190 186 -0.0045376571232674315
184 187 -0.06652457235270344
185 187 0.0013787226338939354
186 187 0.002600993250326397
187 187 1.8507237639437653
188 187 0.0035900512621586445
189 187 0.0012357467841314284
190 187 -0.0020736197191878925
184 188 -0.20093059873893643
185 188 0.0041642892923004857
186 188 0.0078560314275026993
187 188 0.0035900512621586445
188 188 1.860378540360903
189 188 0.003732445507635837
190 188 -0.0062631541548926091
184 189 -0.069163174309646053
185 189 0.0014334076940336082
186 189 0.0027041579252365827
187 189 0.0012357467841314284
188 189 0.003732445507635837
189 189 1.8508199222911139
190 189 -0.0021558668777264716
184 190 0.11605785580976936
185 190 -0.0024053005827346023
186 190 -0.0045376571232674315
187 190 -0.0020736197191878925
188 190 -0.0062631541548926091
189 190 -0.0021558668777264716
190 190 1.8531527698788823
191 191 1.3727716648774073
192 191 -8.0377157184922368
193 191 -0.28717082169135921
191 192 -8.0377157184922368
192 192 72.192580421755878
193 192 0.020623528148021819
191 193 -0.28717082169135921
192 193 0.020623528148021819
193 193 1.0732769158708066
194 194 1.0712283153951554
195 194 -5.5140114343340478
196 194 -0.30545359362683355
194 195 -5.5140114343340478
195 195 50.361680005483457
196 195 -0.36101736911302851
194 196 -0.30545359362683355
195 196 -0.36101736911302851
196 196 1.3063369442175956
197 197 1.020065654567238
198 197 -2.7463595262700711
199 197 -0.37294752231709449
197 198 -2.7463595262700711
198 198 27.628507987079587
199 198 -1.2759234217300903
197 199 -0.37294752231709449
198 199 -1.2759234217300903
199 199 1.9504381089453797
200 200 1.2706039132222342
201 200 -8.9346120268868816
202 200 -0.33812189942647813
200 201 -8.9346120268868816
201 201 77.996370433846252
202 201 0.62816736433119114
200 202 -0.33812189942647813
201 202 0.62816736433119114
202 202 1.0358235052877085
203 203 1.1943453033465392
204 203 -3.3951167658470824
205 203 -0.46258585504123884
203 204 -3.3951167658470824
204 204 26.042487952970401
205 204 -0.81061259925357354
203 205 -0.46258585504123884
204 205 -0.81061259925357354
205 205 1.9408307257979718
206 206 1.0747149009633881
207 206 -2.2547545852366566
208 206 -0.69284149650454285
206 207 -2.2547545852366566
207 207 17.266056931592079
208 207 -0.90172814190243444
206 208 -0.69284149650454285
207 208 -0.90172814190243444
208 208 2.6749136875227251
209 209 0.92635304535667018
210 209 -0.8775705794713573
211 209 -0.93527116337097282
209 210 -0.8775705794713573
210 210 11.460484208486783
211 210 -1.6924147705038985
209 211 -0.93527116337097282
210 211 -1.6924147705038985
211 211 4.0948655939436041
212 212 1.3080675410225633
213 212 -2.6451091706165717
214 212 -0.77141454157004941
212 213 -2.6451091706165717
213 213 16.384904134457983
214 213 -0.58824737901367541
212 214 -0.77141454157004941
213 214 -0.58824737901367541
214 214 2.651226923033803
215 215 10.486182493694313
216 216 10.160985246984737
217 217 10.213676088508832
218 218 10.341554521647387
219 219 10.979433745684918
220 220 12.631136857510839
221 221 14.276273186443076
222 222 14.1947403381022
223 223 14.019802154259102
224 224 14.391647014441443
225 225 14.614495469807757
226 226 13.795310402082638
227 227 13.190123483768982
228 228 14.100555481734302
229 229 14.485609318006802
230 230 12.296421918967408
231 231 10.041676211386974
232 232 9.2237281874791357
233 233 8.0518303543749195
234 234 7.9249434237129037
235 235 8.0184703357921947
236 236 7.6572552900724027
237 237 8.2714784431649235
238 238 9.4631715734898716
239 239 10.906753287982365
240 240 11.372975708663265
241 241 11.313893285420097
242 242 10.765624996592058
243 243 10.061433962401185
244 244 10.29590602401152
245 245 10.448794428645439
246 246 10.460422132845075
247 247 1.9103316423734924
248 247 -0.087221341857151774
249 247 -0.11001834875840946
250 247 -0.11777542658532915
251 247 -0.05507877722703184
252 247 -0.084027366888848612
253 247 -0.072912200535806063
247 248 -0.087221341857151774
248 248 1.8994630089224276
249 248 0.0025200788307316959
250 248 0.0026977623520767144
251 248 0.0012616337372707597
252 248 0.0019247297463417608
253 248 0.0016701258939618854
247 249 -0.11001834875840946
248 249 0.0025200788307316959
249 249 1.9006438688451328
250 249 0.0034028754086835498
251 249 0.0015913864377339745
252 249 0.0024277955829379362
253 249 0.0021066460244704753
247 250 -0.11777542658532915
248 250 0.0026977623520767144
249 250 0.0034028754086835498
250 250 1.901107920409598
251 250 0.0017035905254113343
252 250 0.002598972477494463
253 250 0.0022551795859173281
247 251 -0.05507877722703184
248 251 0.0012616337372707597
249 251 0.0015913864377339745
250 251 0.0017035905254113343
251 251 1.8982618180337483
252 251 0.0012154337305956828
253 251 0.001054655776854245
247 252 -0.084027366888848612
248 252 0.0019247297463417608
249 252 0.0024277955829379362
250 252 0.002598972477494463
251 252 0.0012154337305956828
252 252 1.8993193657283431
253 252 0.0016089672350184628
247 253 -0.072912200535806063
248 253 0.0016701258939618854
249 253 0.0021066460244704753
250 253 0.0022551795859173281
251 253 0.001054655776854245
252 253 0.0016089672350184628
253 253 1.8988612505743412
254 254 1.8914231023275854
255 254 0.0025598852557702193
256 254 0.012534097864110576
257 254 0.037153173958379214
258 254 0.02416966004635894
259 254 0.0094234605217573143
260 254 0.0048452705990049113
254 255 0.0025598852557702193
255 255 1.8908324723064747
256 255 8.4832625351216414e-06
257 255 2.5145816804609789e-05
258 255 1.6358382851389417e-05
259 255 6.3779372446358629e-06
260 255 3.2793506952549623e-06
254 256 0.012534097864110576
255 256 8.4832625351216414e-06
256 256 1.8908722767730786
257 256 0.00012312275637805644
258 256 8.0096391467441539e-05
259 256 3.1228622226416462e-05
260 256 1.6056853506387907e-05
254 257 0.037153173958379214
255 257 2.5145816804609789e-05
256 257 0.00012312275637805644
257 257 1.8911956962940821
258 257 0.00023741917431083202
259 257 9.2566888071037858e-05
260 257 4.7595214112314061e-05
254 258 0.02416966004635894
255 258 1.6358382851389417e-05
256 258 8.0096391467441539e-05
257 258 0.00023741917431083202
258 258 1.8909851906269135
259 258 6.0218548722988974e-05
260 258 3.0962634476854803e-05
254 259 0.0094234605217573143
255 259 6.3779372446358629e-06
256 259 3.1228622226416462e-05
257 259 9.2566888071037858e-05
258 259 6.0218548722988974e-05
259 259 1.8908542182281174
260 259 1.2071959766194474e-05
254 260 0.0048452705990049113
255 260 3.2793506952549623e-06
256 260 1.6056853506387907e-05
257 260 4.7595214112314061e-05
258 260 3.0962634476854803e-05
259 260 1.2071959766194474e-05
260 260 1.8908369467905684
261 261 1.8612722499732601
262 261 -0.0077177752245167416
263 261 -0.020189693578809894
264 261 0.0064507443136738356
265 261 -0.0076346451235064818
266 261 -0.0039567150937742076
267 261 0.032013619115808599
261 262 -0.0077177752245167416
262 262 1.8608563434146324
263 262 4.1863192769945862e-05
264 262 -1.3375574604876113e-05
265 262 1.58303849084132e-05
266 262 8.2042219244115933e-06
267 262 -6.6380022216648156e-05
261 263 -0.020189693578809894
262 263 4.1863192769945862e-05
263 263 1.8609498547375478
264 263 -3.4990492059824061e-05
265 263 4.1412273775502685e-05
266 263 2.1462237741809318e-05
267 263 -0.00017365008299948735
261 264 0.0064507443136738356
262 264 -1.3375574604876113e-05
263 264 -3.4990492059824061e-05
264 264 1.8608515203600422
265 264 -1.3231502921570092e-05
266 264 -6.8573308223459119e-06
267 264 5.5482381696649929e-05
261 265 -0.0076346451235064818
262 265 1.58303849084132e-05
263 265 4.1412273775502685e-05
264 265 -1.3231502921570092e-05
265 265 1.8608560005318682
266 265 8.1158521834634011e-06
267 265 -6.566502627657414e-05
261 266 -0.0039567150937742076
262 266 8.2042219244115933e-06
263 266 2.1462237741809318e-05
264 266 -6.8573308223459119e-06
265 266 8.1158521834634011e-06
266 266 1.8608445467644739
267 266 -3.4031418146947257e-05
261 267 0.032013619115808599
262 267 -6.6380022216648156e-05
263 267 -0.00017365008299948735
264 267 5.5482381696649929e-05
265 267 -6.566502627657414e-05
266 267 -3.4031418146947257e-05
267 267 1.8611156874648112
268 268 1.8633875607750909
269 268 0.082477910846568525
270 268 -0.071945579298324513
271 268 -0.040969947805203841
272 268 -0.031021310289276877
273 268 -0.029826537871185024
274 268 0.011377127624265937
268 269 0.082477910846568525
269 269 1.8610139112781325
270 269 -0.0015940370692812448
271 269 -0.00090773632188313746
272 269 -0.00068731281367185562
273 269 -0.00066084125638692375
274 269 0.00025207334977210902
268 270 -0.071945579298324513
269 270 -0.0015940370692812448
270 270 1.8605769987110488
271 270 0.00079181946848172144
272 270 0.0005995437812528001
273 270 0.00057645261048665263
274 270 -0.0002198838815008381
268 271 -0.040969947805203841
269 271 -0.00090773632188313746
270 271 0.00079181946848172144
271 271 1.8596374258017863
272 271 0.00034141468682890718
273 271 0.00032826524706795518
274 271 -0.00012521451958765115
268 272 -0.031021310289276877
269 272 -0.00068731281367185562
270 272 0.0005995437812528001
271 272 0.00034141468682890718
272 272 1.8594450280372594
273 272 0.00024855335757073484
274 272 -9.480896786394958e-05
268 273 -0.029826537871185024
269 273 -0.00066084125638692375
270 273 0.00057645261048665263
271 273 0.00032826524706795518
272 273 0.00024855335757073484
273 273 1.8594254987198735
274 273 -9.1157441260614604e-05
268 274 0.011377127624265937
269 274 0.00025207334977210902
270 274 -0.0002198838815008381
271 274 -0.00012521451958765115
272 274 -9.480896786394958e-05
273 274 -9.1157441260614604e-05
274 274 1.8592212896666063
275 275 1.8638516086743726
276 275 0.11545750622633559
277 275 -0.046291792807162259
278 275 -0.013671313213913345
279 275 -0.017597255486355594
280 275 -0.01515204863861987
281 275 0.021760203473953056
275 276 0.11545750622633559
276 276 1.8629538414894724
277 276 -0.0014355121722065625
278 276 -0.00042394850876427062
279 276 -0.00054569229049568769
280 276 -0.00046986623190881034
281 276 0.00067478563828096444
275 277 -0.046291792807162259
276 277 -0.0014355121722065625
277 277 1.8599490525360693
278 277 0.00016997887075569397
279 277 0.00021879109703419334
280 277 0.00018838922617959124
281 277 -0.00027055007489349401
275 278 -0.013671313213913345
276 278 -0.00042394850876427062
277 278 0.00016997887075569397
278 278 1.8594236947556999
279 278 6.46153763892975e-05
280 278 5.563681942405718e-05
281 278 -7.9901308409563166e-05
275 279 -0.017597255486355594
276 279 -0.00054569229049568769
277 279 0.00021879109703419334
278 279 6.46153763892975e-05
279 279 1.859456665793507
280 279 7.1613846492594261e-05
281 279 -0.00010284628226835153
275 280 -0.01515204863861987
276 280 -0.00046986623190881034
277 280 0.00018838922617959124
278 280 5.563681942405718e-05
279 280 7.1613846492594261e-05
280 280 1.8594351578748414
281 280 -8.8555392767899308e-05
275 281 0.021760203473953056
276 281 0.00067478563828096444
277 281 -0.00027055007489349401
278 281 -7.9901308409563166e-05
279 281 -0.00010284628226835153
280 281 -8.8555392767899308e-05
281 281 1.8595006714740692
282 282 1.8644625701386346
283 282 -0.0034485482388876376
284 282 0.14943116230387496
285 282 0.018404117191899164
286 282 0.0079231305287535032
287 282 0.0027907529019062117
288 282 0.02885004757682888
282 283 -0.0034485482388876376
283 283 1.858130614859455
284 283 -0.00013843065525300324
285 283 -1.704928184287835e-05
286 283 -7.3398622739748295e-06
287 283 -2.5853091611138405e-06
288 283 -2.6726225832462636e-05
282 284 0.14943116230387496
283 284 -0.00013843065525300324
284 284 1.8641258439447366
285 284 0.00073877290550804242
286 284 0.00031804808132949482
287 284 0.00011202561950669137
288 284 0.0011580905104082164
282 285 0.018404117191899164
283 285 -1.704928184287835e-05
284 285 0.00073877290550804242
285 285 1.858218408316566
286 285 3.9171174681379768e-05
287 285 1.3797206674359042e-05
288 285 0.00014263178539049908
282 286 0.0079231305287535032
283 286 -7.3398622739748295e-06
284 286 0.00031804808132949482
285 286 3.9171174681379768e-05
286 286 1.8581442837062934
287 286 5.9398159810269642e-06
288 286 6.1404208711271786e-05
282 287 0.0027907529019062117
283 287 -2.5853091611138405e-06
284 287 0.00011202561950669137
285 287 1.3797206674359042e-05
286 287 5.9398159810269642e-06
287 287 1.8581295123520052
288 287 2.1628316361613193e-05
282 288 0.02885004757682888
283 288 -2.6726225832462636e-05
284 288 0.0011580905104082164
285 288 0.00014263178539049908
286 288 6.1404208711271786e-05
287 288 2.1628316361613193e-05
288 288 1.8583510078552894
289 289 1.8641202619511521
290 289 0.12885049898375067
291 289 -0.014109334509195166
292 289 0.0064859959685019024
293 289 0.056640678481058505
294 289 -0.0032732609919750408
295 289 0.030306725553164712
289 290 0.12885049898375067
290 290 1.8629440639791162
291 290 -0.0004883663652722319
292 290 0.00022449976462343495
293 290 0.0019605036834530005
294 290 -0.00011329737573352183
295 290 0.0010490066269288839
289 291 -0.014109334509195166
290 291 -0.0004883663652722319
291 291 1.8585376388261166
292 291 -2.4583081177722728e-05
293 291 -0.00021467827051128481
294 291 1.2406242784048695e-05
295 291 -0.00011486789355444131
289 292 0.0064859959685019024
290 292 0.00022449976462343495
291 292 -2.4583081177722728e-05
292 292 1.8584954626616061
293 292 9.8686610353855751e-05
294 292 -5.7030925611094384e-06
295 292 5.2804240626577255e-05
289 293 0.056640678481058505
290 293 0.0019605036834530005
291 293 -0.00021467827051128481
292 293 9.8686610353855751e-05
293 293 1.8593459689079259
294 293 -4.980376701901144e-05
295 293 0.00046112702355829912
289 294 -0.0032732609919750408
290 294 -0.00011329737573352183
291 294 1.2406242784048695e-05
292 294 -5.7030925611094384e-06
293 294 -4.980376701901144e-05
294 294 1.858487040088963
295 294 -2.664849961258318e-05
289 295 0.030306725553164712
290 295 0.0010490066269288839
291 295 -0.00011486789355444131
292 295 5.2804240626577255e-05
293 295 0.00046112702355829912
294 295 -2.664849961258318e-05
295 295 1.858730897150543
296 296 1.8827267748893308
297 296 -0.027722576274948819
298 296 0.012584374410741136
299 296 0.10246361378059664
300 296 -0.0056114480213992242
301 296 0.033586986956350394
302 296 0.047005318928589147
296 297 -0.027722576274948819
297 297 1.8789979016318059
298 297 -9.2747412242147304e-05
299 297 -0.00075516149765997667
300 297 4.1356627348267595e-05
301 297 -0.00024753762273263416
302 297 -0.00034643134016438686
296 298 0.012584374410741136
297 298 -9.2747412242147304e-05
298 298 1.8788356867033635
299 298 0.00034279768708641439
300 298 -1.8773409720451981e-05
301 298 0.0001123671225328067
302 298 0.00015725889430352069
296 299 0.10246361378059664
297 299 -0.00075516149765997667
298 299 0.00034279768708641439
299 299 1.8815846883517346
300 299 -0.00015285554451554211
301 299 0.00091490773152865955
302 299 0.0012804223780664395
296 300 -0.0056114480213992242
297 300 4.1356627348267595e-05
298 300 -1.8773409720451981e-05
299 300 -0.00015285554451554211
300 300 1.8788019561587237
301 300 -5.0105173831196239e-05
302 300 -7.0122684090972675e-05
296 301 0.033586986956350394
297 301 -0.00024753762273263416
298 301 0.0001123671225328067
299 301 0.00091490773152865955
300 301 -5.0105173831196239e-05
301 301 1.8790934865078899
302 301 0.00041971513714930621
296 302 0.047005318928589147
297 302 -0.00034643134016438686
298 302 0.00015725889430352069
299 302 0.0012804223780664395
300 302 -7.0122684090972675e-05
301 302 0.00041971513714930621
302 302 1.8793809804495174
303 303 1.9192010979360434
304 303 -0.013354826596613131
305 303 0.10963175427574849
306 303 -0.00992221492577006
307 303 0.019891984237973052
308 303 0.0042443727088239411
309 303 0.15263605819140477
303 304 -0.013354826596613131
304 304 1.9098438089469867
305 304 -0.00038237495619188836
306 304 3.4606821013052926e-05
307 304 -6.9379502789250149e-05
308 304 -1.4803574377880863e-05
309 304 -0.0005323658865974345
303 305 0.10963175427574849
304 305 -0.00038237495619188836
305 305 1.9129362026067893
306 305 -0.00028409253164919499
307 305 0.00056954663892780594
308 305 0.0001215247399026648
309 305 0.004370270601569806
303 306 -0.00992221492577006
304 306 3.4606821013052926e-05
305 306 -0.00028409253164919499
306 306 1.9098229415979953
307 306 -5.1546782216744439e-05
308 306 -1.0998588831112753e-05
309 306 -0.00039553106195384729
303 307 0.019891984237973052
304 307 -6.9379502789250149e-05
305 307 0.00056954663892780594
306 307 -5.1546782216744439e-05
307 307 1.9099005704352126
308 307 2.2049890806156028e-05
309 307 0.0007929577930810693
303 308 0.0042443727088239411
304 308 -1.4803574377880863e-05
305 308 0.0001215247399026648
306 308 -1.0998588831112753e-05
307 308 2.2049890806156028e-05
308 308 1.909801934628951
309 308 0.00016919420284768432
303 309 0.15263605819140477
304 309 -0.0005323658865974345
305 309 0.004370270601569806
306 309 -0.00039553106195384729
307 309 0.0007929577930810693
308 309 0.00016919420284768432
309 309 1.9158817888278303
310 310 1.9217723497049117
311 310 0.11867372911394987
312 310 -0.0074238117216914009
313 310 0.0041555603627692521
314 310 0.0089176103008356405
315 310 0.21339559016977827
316 310 -0.0039815343880909761
310 311 0.11867372911394987
311 311 1.9098323484696078
312 311 -0.00023015374950657844
313 311 0.00012883109575607011
314 311 0.00027646464165826084
315 311 0.0066157113147467857
316 311 -0.00012343592517722674
310 312 -0.0074238117216914009
311 312 -0.00023015374950657844
312 312 1.9061676113244053
313 312 -8.0592209070460197e-06
314 312 -1.7294657062685589e-05
315 312 -0.0004138556660554993
316 312 7.7217179829971453e-06
310 313 0.0041555603627692521
311 313 0.00012883109575607011
312 313 -8.0592209070460197e-06
313 313 1.9061577249517672
314 313 9.6808747408547276e-06
315 313 0.00023166026648314172
316 313 -4.3223166731004733e-06
310 314 0.0089176103008356405
311 314 0.00027646464165826084
312 314 -1.7294657062685589e-05
313 314 9.6808747408547276e-06
314 314 1.9061739883535804
315 314 0.00049713054277659779
316 314 -9.2754604247472245e-06
310 315 0.21339559016977827
311 315 0.0066157113147467857
312 315 -0.0004138556660554993
313 315 0.00023166026648314172
314 315 0.00049713054277659779
315 315 1.9180493901547135
316 315 -0.00022195883029895109
310 316 -0.0039815343880909761
311 316 -0.00012343592517722674
312 316 7.7217179829971453e-06
313 316 -4.3223166731004733e-06
314 316 -9.2754604247472245e-06
315 316 -0.00022195883029895109
316 316 1.9061573550214168
317 317 2.3205091847588966
318 317 -1.8478010788676644
319 317 -1.0325263165660195
317 318 -1.8478010788676644
318 318 9.5259975846829903
319 318 0.42019653551177227
317 319 -1.0325263165660195
318 319 0.42019653551177227
319 319 2.5353283782339364
320 320 1.9874607742202388
321 320 -1.4567305548461595
322 320 -0.65427112470605631
320 321 -1.4567305548461595
321 321 8.9878772078003379
322 321 0.23999601717706817
320 322 -0.65427112470605631
321 322 0.23999601717706817
322 322 1.720883013796944
323 323 2.4251276826484705
324 323 -1.9138057157768837
325 323 -1.0520095588243605
323 324 -1.9138057157768837
324 324 9.5581585194425234
325 324 0.46723467085104492
323 325 -1.0520095588243605
324 325 0.46723467085104492
325 325 2.5270267225302576
326 326 2.0690570294942843
327 326 -1.4985021324687531
328 326 -0.66652924100994193
326 327 -1.4985021324687531
327 327 8.9940387937078334
328 327 0.2748123593696955
326 328 -0.66652924100994193
327 328 0.2748123593696955
328 328 1.7158791878394903
329 329 2.5434286630998457
330 329 -1.9772713465779195
331 329 -1.0771434894269483
329 330 -1.9772713465779195
330 330 9.5367258728125961
331 330 0.54495540855893032
329 331 -1.0771434894269483
330 331 0.54495540855893032
331 331 2.512079320316297
332 332 2.7406883716816819
333 332 -2.093213329966217
334 332 -1.1122671408332387
332 333 -2.093213329966217
333 333 9.5834555705595399
334 333 0.63014223335195463
332 334 -1.1122671408332387
333 334 0.63014223335195463
334 334 2.4960245590187657
335 335 2.0919626037616053
336 335 -1.5091894701957345
337 335 -0.66963287958660789
335 336 -1.5091894701957345
336 336 8.9933263214296524
337 336 0.28526415846588099
335 337 -0.66963287958660789
336 337 0.28526415846588099
337 337 1.7127613165004272
338 338 1.6548417009135035
339 338 -1.2724255470012855
340 338 -0.6041696108004162
338 339 -1.2724255470012855
339 339 8.9459169944154162
340 339 0.096930482483596536
338 340 -0.6041696108004162
339 340 0.096930482483596536
340 340 1.7460660563078538
341 341 2.0888815513285315
342 341 -1.8885224683314303
343 341 -1.8134918437330481
341 342 -1.8885224683314303
342 342 10.619732829003336
343 342 -0.04175895875211566
341 343 -1.8134918437330481
342 343 -0.04175895875211566
343 343 4.9516071570898639
344 344 1.625969183520914
345 344 -1.6325291861409463
346 344 -1.5452921680242206
344 345 -1.6325291861409463
345 345 11.166575269417867
346 345 -0.56231770879746268
344 346 -1.5452921680242206
345 346 -0.56231770879746268
346 346 4.7462476969878589
347 347 1.2826309392788957
348 347 -1.2614235296025182
349 347 -1.3954829656878858
347 348 -1.2614235296025182
348 348 11.573303129977994
349 348 -1.1994028419539746
347 349 -1.3954829656878858
348 349 -1.1994028419539746
349 349 4.8741321750419253
350 350 1.3087488657064117
351 350 -1.1141757429994987
352 350 -1.5381462602817484
350 351 -1.1141757429994987
351 351 11.217848012708611
352 351 -1.5189080696312858
350 352 -1.5381462602817484
351 352 -1.5189080696312858
352 352 5.4652417013606076
353 353 1.2657007092857608
354 353 -1.6571304805370495
355 353 -1.1216364758581554
353 354 -1.6571304805370495
354 354 12.385177187064635
355 354 -0.83786533529807472
353 355 -1.1216364758581554
354 355 -0.83786533529807472
355 355 3.8210622763410007
356 356 1.1342310166139238
357 356 -0.95525118472869952
358 356 -1.4148043220030093
356 357 -0.95525118472869952
357 357 12.058779571164656
358 357 -1.9357236113579606
356 358 -1.4148043220030093
357 358 -1.9357236113579606
358 358 5.4730098631610336
359 359 1.1183531575151562
360 359 -3.0792806604842546
361 359 -0.55506401582148102
359 360 -3.0792806604842546
360 360 21.981110179401888
361 360 -0.70585744538298723
359 361 -0.55506401582148102
360 361 -0.70585744538298723
361 361 2.1556053493989067
362 362 1.1141269388832649
363 362 -3.8204543770488173
364 362 -0.43223617406674431
362 363 -3.8204543770488173
363 363 29.340918784982147
364 363 -0.6558255794490464
362 364 -0.43223617406674431
363 364 -0.6558255794490464
364 364 1.7829634395031437
365 365 1.1208457615224665
366 365 -4.1783595550646044
367 365 -0.37800278442623281
365 366 -4.1783595550646044
366 366 34.013862483778645
367 366 -0.66829301968816091
365 367 -0.37800278442623281
366 367 -0.66829301968816091
367 367 1.6331585437317617
368 368 1.1876767814866254
369 368 -6.0358499960117635
370 368 -0.34370879359208673
368 369 -6.0358499960117635
369 369 49.266444690467139
370 369 -0.15358494523035948
368 370 -0.34370879359208673
369 370 -0.15358494523035948
370 370 1.3092851171747255
371 371 1.8720058755705555
372 371 0.20093082121992134
373 371 -0.087198247133688581
374 371 -0.099827613288908906
375 371 0.021413800387262576
376 371 0.070514311559942908
377 371 0.089407822076233295
371 372 0.20093082121992134
372 372 1.863685098406979
373 372 -0.0047037613643528984
374 372 -0.0053850310748106501
375 372 0.0011551310976600597
376 372 0.0038037747919528841
377 372 0.0048229531323989872
371 373 -0.087198247133688581
372 373 -0.0047037613643528984
373 373 1.8548875247811785
374 373 0.0023369499394519798
375 373 -0.00050129395935392918
376 373 -0.0016507298001164877
377 373 -0.0020930241393520396
371 374 -0.099827613288908906
372 374 -0.0053850310748106501
373 374 0.0023369499394519798
374 374 1.8555216487697466
375 374 -0.00057389891612988884
376 374 -0.0018898134027609541
377 374 -0.0023961674833583128
371 375 0.021413800387262576
372 375 0.0011551310976600597
373 375 -0.00050129395935392918
374 375 -0.00057389891612988884
375 375 1.8529693322569043
376 375 0.00040537969047480606
377 375 0.00051399658363649391
371 376 0.070514311559942908
372 376 0.0038037747919528841
373 376 -0.0016507298001164877
374 376 -0.0018898134027609541
375 376 0.00040537969047480606
376 376 1.8541811165544
377 376 0.0016925587510775912
371 377 0.089407822076233295
372 377 0.0048229531323989872
373 377 -0.0020930241393520396
374 377 -0.0023961674833583128
375 377 0.00051399658363649391
376 377 0.0016925587510775912
377 377 1.8549922871541635
378 378 1.8695641587965428
379 378 0.068020487681390199
380 378 -0.21606712160830643
381 378 0.0093019291963405172
382 378 0.0041120341954787431
383 378 -0.02574754193123556
384 378 0.032532166602135724
378 379 0.068020487681390199
379 379 1.856540937795955
380 379 -0.0039456460921078497
381 379 0.00016986443985281426
382 379 7.509070113599742e-05
383 379 -0.00047018115225568431
384 379 0.00059407657706578006
378 380 -0.21606712160830643
379 380 -0.0039456460921078497
380 380 1.8678321489738567
381 380 -0.00053957449929672064
382 380 -0.00023852565906320992
383 380 0.0014935307238345026
384 380 -0.0018870846181339063
378 381 0.0093019291963405172
379 381 0.00016986443985281426
380 381 -0.00053957449929672064
381 381 1.8553220309782292
382 381 1.0268794139529739e-05
383 381 -6.4298153935946441e-05
384 381 8.1241085523444382e-05
378 382 0.0041120341954787431
379 382 7.509070113599742e-05
380 382 -0.00023852565906320992
381 382 1.0268794139529739e-05
382 382 1.8553033411466067
383 382 -2.8423803504630448e-05
384 382 3.5913638418323123e-05
378 383 -0.02574754193123556
379 383 -0.00047018115225568431
380 383 0.0014935307238345026
381 383 -6.4298153935946441e-05
382 383 -2.8423803504630448e-05
383 383 1.8554767776185328
384 383 -0.00022487359470301058
378 384 0.032532166602135724
379 384 0.00059407657706578006
380 384 -0.0018870846181339063
381 384 8.1241085523444382e-05
382 384 3.5913638418323123e-05
383 384 -0.00022487359470301058
384 384 1.8555829307716882
385 385 1.8687250780093434
386 385 0.0048044243263323976
387 385 -0.0093721213491838075
388 385 -0.039195982250382157
389 385 -0.0061546756595051468
390 385 -0.20576394668086592
391 385 -0.056612704885683249
385 386 0.0048044243263323976
386 386 1.8560515878658421
387 386 -1.208870403583531e-05
388 386 -5.0557244316943084e-05
389 386 -7.9386565444755673e-06
390 386 -0.00026540623621854921
391 386 -7.3022340250717392e-05
385 387 -0.0093721213491838075
386 387 -1.208870403583531e-05
387 387 1.8560689726056585
388 387 9.8623393071618122e-05
389 387 1.5486153476604822e-05
390 387 0.00051773517152454204
391 387 0.00014244666739366676
385 388 -0.039195982250382157
386 388 -5.0557244316943084e-05
387 388 9.8623393071618122e-05
388 388 1.8564578525052662
389 388 6.476601979215283e-05
390 388 0.0021652663081706456
391 388 0.00059573887690586634
385 389 -0.0061546756595051468
386 389 -7.9386565444755673e-06
387 389 1.5486153476604822e-05
388 389 6.476601979215283e-05
389 389 1.8560555606044284
390 389 0.00033999688432644163
391 389 9.3544780730114724e-05
385 390 -0.20576394668086592
386 390 -0.00026540623621854921
387 390 0.00051773517152454204
388 390 0.0021652663081706456
389 390 0.00033999688432644163
390 390 1.8674122125310268
391 390 0.0031274017250118146
385 391 -0.056612704885683249
386 391 -7.3022340250717392e-05
387 391 0.00014244666739366676
388 391 0.00059573887690586634
389 391 9.3544780730114724e-05
390 391 0.0031274017250118146
391 391 1.8569058461048331
392 392 1.8634180162220155
393 392 -0.090424520781084025
394 392 -0.016537392539803457
395 392 0.012071292529914525
396 392 -0.0020392792968818947
397 392 -0.03602055867209096
398 392 -0.066604045118279262
392 393 -0.090424520781084025
393 393 1.8617642524013833
394 393 0.00040166301629380031
395 393 -0.00029318961598452279
396 393 4.9530364081254201e-05
397 393 0.00087487348504287313
398 393 0.0016176904306520359
392 394 -0.016537392539803457
393 394 0.00040166301629380031
394 394 1.8596414647897983
395 394 -5.3620320309671668e-05
396 394 9.0584176324706716e-06
397 394 0.00016000224407986533
398 394 0.00029585317598025657
392 395 0.012071292529914525
393 395 -0.00029318961598452279
394 395 -5.3620320309671668e-05
395 395 1.8596071457652563
396 395 -6.6120949137843223e-06
397 395 -0.00011679192406433581
398 395 -0.00021595485652083353
392 396 -0.0020392792968818947
393 396 4.9530364081254201e-05
394 396 9.0584176324706716e-06
395 396 -6.6120949137843223e-06
396 396 1.8595691232095872
397 396 1.9730393592664336e-05
398 396 3.6482610861486124e-05
392 397 -0.03602055867209096
393 397 0.00087487348504287313
394 397 0.00016000224407986533
395 397 -0.00011679192406433581
396 397 1.9730393592664336e-05
397 397 1.8599165115637777
398 397 0.0006444061032034944
392 398 -0.066604045118279262
393 398 0.0016176904306520359
394 398 0.00029585317598025657
395 398 -0.00021595485652083353
396 398 3.6482610861486124e-05
397 398 0.0006444061032034944
398 398 1.8607595494264442
399 399 1.863830016721802
400 399 -0.061183808788002829
401 399 -0.024413445111327571
402 399 -0.084847974906286303
403 399 0.0043500595207168827
404 399 -0.0074347982395252497
405 399 -0.064846191192797761
399 400 -0.061183808788002829
400 400 1.8605871782941779
401 400 0.00040116635852816896
402 400 0.0013942380096879897
403 400 -7.1481002756840656e-05
404 400 0.00012217001420901862
405 400 0.0010655649076404148
399 401 -0.024413445111327571
400 401 0.00040116635852816896
401 401 1.8597418669734571
402 401 0.00055632615549620163
403 401 -2.8522211543799309e-05
404 401 4.8748042909136837e-05
405 401 0.00042517964965817971
399 402 -0.084847974906286303
400 402 0.0013942380096879897
401 402 0.00055632615549620163
402 402 1.8615152841721299
403 402 -9.9127832155781892e-05
404 402 0.0001694219190541802
405 402 0.0014776952650620431
399 403 0.0043500595207168827
400 403 -7.1481002756840656e-05
401 403 -2.8522211543799309e-05
402 403 -9.9127832155781892e-05
403 403 1.8595868765201706
404 403 -8.6860697949923407e-06
405 403 -7.5759761663152543e-05
399 404 -0.0074347982395252497
400 404 0.00012217001420901862
401 404 4.8748042909136837e-05
402 404 0.0001694219190541802
403 404 -8.6860697949923407e-06
404 404 1.859596639933103
405 404 0.00012948295074069122
399 405 -0.064846191192797761
400 405 0.0010655649076404148
401 405 0.00042517964965817971
402 405 0.0014776952650620431
403 405 -7.5759761663152543e-05
404 405 0.00012948295074069122
405 405 1.8607111425715197
406 406 1.8625221642541008
407 406 0.014931347082760763
408 406 -0.070921152630625942
409 406 -0.029475869142889105
410 406 0.0069753634082781665
411 406 -0.026701779188636483
412 406 0.021421626240008613
406 407 0.014931347082760763
407 407 1.860609989842962
408 407 -0.00028442862992004509
409 407 -0.00011821270192377141
410 407 2.7974630752888041e-05
411 407 -0.00010708723969288396
412 407 8.5911234886978192e-05
406 408 -0.070921152630625942
407 408 -0.00028442862992004509
408 408 1.8619010914959744
409 408 0.00056148859373137989
410 408 -0.00013287435128352403
411 408 0.00050864469420981414
412 408 -0.00040806256584441901
406 409 -0.029475869142889105
407 409 -0.00011821270192377141
408 409 0.00056148859373137989
409 409 1.8607834706912572
410 409 -5.5224525344052709e-05
411 409 0.00021140018020912699
412 409 -0.00016959677538782135
406 410 0.0069753634082781665
407 410 2.7974630752888041e-05
408 410 -0.00013287435128352403
409 410 -5.5224525344052709e-05
410 410 1.8605631765075519
411 410 -5.0027128102171415e-05
412 410 4.0134495626486811e-05
406 411 -0.026701779188636483
407 411 -0.00010708723969288396
408 411 0.00050864469420981414
409 411 0.00021140018020912699
410 411 -5.0027128102171415e-05
411 411 1.8607416122908551
412 411 -0.00015363535594345212
406 412 0.021421626240008613
407 412 8.5911234886978192e-05
408 412 -0.00040806256584441901
409 412 -0.00016959677538782135
410 412 4.0134495626486811e-05
411 412 -0.00015363535594345212
412 412 1.8606733624900176
413 413 1.866859918129808
414 413 0.032489326845977204
415 413 -0.068255410193363439
416 413 -0.064194568098603189
417 413 0.015721084447696199
418 413 -0.023635105161105039
419 413 0.058340854077245
413 414 0.032489326845977204
414 414 1.8633775245185642
415 414 -0.00059453067364985933
416 414 -0.00055915918911341063
417 414 0.00013693664576502589
418 414 -0.00020587078670260953
419 414 0.00050817110581550824
413 415 -0.068255410193363439
414 415 -0.00059453067364985933
415 415 1.8643435536515707
416 415 0.001174713160332836
417 415 -0.00028768422847001658
418 415 0.00043250495954664343
419 415 -0.0010675945192797163
413 416 -0.064194568098603189
414 416 -0.00055915918911341063
415 416 0.001174713160332836
416 416 1.8641993539154167
417 416 -0.00027056851234348367
418 416 0.00040677316274190662
419 416 -0.0010040781950536267
413 417 0.015721084447696199
414 417 0.00013693664576502589
415 417 -0.00028768422847001658
416 417 -0.00027056851234348367
417 417 1.8631607916136674
418 417 -9.9617700249955113e-05
419 417 0.00024589616480139405
413 418 -0.023635105161105039
414 418 -0.00020587078670260953
415 418 0.00043250495954664343
416 418 0.00040677316274190662
417 418 -9.9617700249955113e-05
418 418 1.8632442955020097
419 418 -0.00036968071338393162
413 419 0.058340854077245
414 419 0.00050817110581550824
415 419 -0.0010675945192797163
416 419 -0.0010040781950536267
417 419 0.00024589616480139405
418 419 -0.00036968071338393162
419 419 1.8640070493366712
420 420 1.862857490690613
421 420 -0.036384577312946517
422 420 0.025344930373495628
423 420 -0.061904467570927685
424 420 -0.029579494722042802
425 420 -0.054849207733996846
426 420 0.0093949389796241563
420 421 -0.036384577312946517
421 421 1.8605888982769287
422 421 -0.00024768790897324277
423 421 0.00060497258831610022
424 421 0.00028907095376555053
425 421 0.00053602378749004838
426 421 -9.1813737757503712e-05
420 422 0.025344930373495628
421 422 -0.00024768790897324277
422 422 1.8604058589677555
423 422 -0.00042141449100438347
424 422 -0.00020136232814173469
425 422 -0.00037338582926559511
426 422 6.3956021002511696e-05
420 423 -0.061904467570927685
421 423 0.00060497258831610022
422 423 -0.00042141449100438347
423 423 1.8612626195918878
424 423 0.00049182331648825451
425 423 0.00091198715556100403
426 423 -0.00015621125683800799
420 424 -0.029579494722042802
421 424 0.00028907095376555053
422 424 -0.00020136232814173469
423 424 0.00049182331648825451
424 424 1.8604683288413058
425 424 0.00043577015218779452
426 424 -7.4641624885463597e-05
420 425 -0.054849207733996846
421 425 0.00053602378749004838
422 425 -0.00037338582926559511
423 425 0.00091198715556100403
424 425 0.00043577015218779452
425 425 1.8610413712911293
426 425 -0.00013840784054688281
420 426 0.0093949389796241563
421 426 -9.1813737757503712e-05
422 426 6.3956021002511696e-05
423 426 -0.00015621125683800799
424 426 -7.4641624885463597e-05
425 426 -0.00013840784054688281
426 426 1.8602570308448676
427 427 1.8628540057789817
428 427 -0.015720359274951867
429 427 -0.082972283779057882
430 427 0.0020985679633262681
431 427 -0.0037636925960700001
432 427 0.0079437934964496186
433 427 -0.052772003476299692
427 428 -0.015720359274951867
428 428 1.8602349086992611
429 428 0.00035034816425724409
430 428 -8.8611449514662237e-06
431 428 1.5892087475535051e-05
432 428 -3.3542447453063945e-05
433 428 0.00022282831928949507
427 429 -0.082972283779057882
428 429 0.00035034816425724409
429 429 1.862017672600403
430 429 -4.6769251304065555e-05
431 429 8.3878667707213927e-05
432 429 -0.00017703752312799991
433 429 0.0011760910942765406
427 430 0.0020985679633262681
428 430 -8.8611449514662237e-06
429 430 -4.6769251304065555e-05
430 430 1.8601697128252344
431 430 -2.1214925857118241e-06
432 430 4.4777033657693106e-06
433 430 -2.9746163176299475e-05
427 431 -0.0037636925960700001
428 431 1.5892087475535051e-05
429 431 8.3878667707213927e-05
430 431 -2.1214925857118241e-06
431 431 1.860172334725684
432 431 -8.0305709891958149e-06
433 431 5.3348481471468317e-05
427 432 0.0079437934964496186
428 432 -3.3542447453063945e-05
429 432 -0.00017703752312799991
430 432 4.4777033657693106e-06
431 432 -8.0305709891958149e-06
432 432 1.8601854795489257
433 432 -0.00011259934475016063
427 433 -0.052772003476299692
428 433 0.00022282831928949507
429 433 0.0011760910942765406
430 433 -2.9746163176299475e-05
431 433 5.3348481471468317e-05
432 433 -0.00011259934475016063
433 433 1.8609165469732272
434 434 1.8627686701105757
435 434 -0.034590455505860554
436 434 -0.012214999041126965
437 434 -0.093293110638805771
438 434 -0.0045722259510513471
439 434 -0.022183318764066338
440 434 0.014454244289945363
434 435 -0.034590455505860554
435 435 1.8601966430765708
436 435 0.00011350061729402157
437 435 0.00086687077183814261
438 435 4.2484691656938024e-05
439 435 0.00020612530257876178
440 435 -0.00013430747263292665
434 436 -0.012214999041126965
435 436 0.00011350061729402157
436 436 1.8599153125388899
437 436 0.00030611986722724346
438 436 1.5002706968231413e-05
439 436 7.2789454100279037e-05
440 436 -4.7428275385082143e-05
434 437 -0.093293110638805771
435 437 0.00086687077183814261
436 437 0.00030611986722724346
437 437 1.8622132487681993
438 437 0.00011458447080972203
439 437 0.00055593574521386828
440 437 -0.00036223755139157076
434 438 -0.0045722259510513471
435 438 4.2484691656938024e-05
436 438 1.5002706968231413e-05
437 438 0.00011458447080972203
438 438 1.8598808475310065
439 438 2.724599730868676e-05
440 438 -1.7752992922812e-05
434 439 -0.022183318764066338
435 439 0.00020612530257876178
436 439 7.2789454100279037e-05
437 439 0.00055593574521386828
438 439 2.724599730868676e-05
439 439 1.8600074227269299
440 439 -8.6133166916739203e-05
434 440 0.014454244289945363
435 440 -0.00013430747263292665
436 440 -4.7428275385082143e-05
437 440 -0.00036223755139157076
438 440 -1.7752992922812e-05
439 440 -8.6133166916739203e-05
440 440 1.8599313546256411
441 441 1.8626214027303185
442 441 0.059731023169794832
443 441 0.034215144011553733
444 441 0.02835443093304232
445 441 0.023388839565692397
446 441 0.03385858619366279
447 441 0.028040928565897447
441 442 0.059731023169794832
442 442 1.8614249805477596
443 442 0.00054892753221856354
444 442 0.00045490171820644127
445 442 0.00037523670746252133
446 442 0.00054320712949274073
447 442 0.00044987207166503256
441 443 0.034215144011553733
442 443 0.00054892753221856354
443 443 1.8607811281895532
444 443 0.00026057694935665177
445 443 0.00021494321213542882
446 443 0.00031116008361121598
447 443 0.00025769586559801065
441 444 0.02835443093304232
442 444 0.00045490171820644127
443 444 0.00026057694935665177
444 444 1.8606826340586251
445 444 0.0001781255826648652
446 444 0.00025786146324255241
447 444 0.00021355513279038054
441 445 0.023388839565692397
442 445 0.00037523670746252133
443 445 0.00021494321213542882
444 445 0.0001781255826648652
445 445 1.8606136225469943
446 445 0.00021270327760048732
447 445 0.00017615612709912434
441 446 0.03385858619366279
442 446 0.00054320712949274073
443 446 0.00031116008361121598
444 446 0.00025786146324255241
445 446 0.00021270327760048732
446 446 1.8607746088109931
447 446 0.00025501040340950969
441 447 0.028040928565897447
442 447 0.00044987207166503256
443 447 0.00025769586559801065
444 447 0.00021355513279038054
445 447 0.00017615612709912434
446 447 0.00025501040340950969
447 447 1.860677885291405
448 448 1.9184769370416321
449 448 -0.29804954612007856
450 448 -0.26228505855121204
451 448 -0.33476427101155626
452 448 -0.053945246996609429
453 448 -0.14937654417111884
454 448 -0.20279061433720885
448 449 -0.29804954612007856
449 449 1.8525069010216004
450 449 0.020861529139453147
451 449 0.026626353148483984
452 449 0.0042906765195510769
453 449 0.011881054705097326
454 449 0.016129482684112802
448 450 -0.26228505855121204
449 450 0.020861529139453147
450 450 1.8471589973756661
451 450 0.023431321018491911
452 450 0.0037758163258580176
453 450 0.010455386258904544
454 450 0.014194023662424532
448 451 -0.33476427101155626
449 451 0.026626353148483984
450 451 0.023431321018491911
451 451 1.8587070247236177
452 451 0.0048192161870806308
453 451 0.013344602160870014
454 451 0.018116365493021605
448 452 -0.053945246996609429
449 452 0.0042906765195510769
450 452 0.0037758163258580176
451 452 0.0048192161870806308
452 452 1.8295773373617692
453 452 0.0021504023038789889
454 452 0.0029193432388970974
448 453 -0.14937654417111884
449 453 0.011881054705097326
450 453 0.010455386258904544
451 453 0.013344602160870014
452 453 0.0021504023038789889
453 453 1.8347552995778362
454 453 0.008083778063027092
448 454 -0.20279061433720885
449 454 0.016129482684112802
450 454 0.014194023662424532
451 454 0.018116365493021605
452 454 0.0029193432388970974
453 454 0.008083778063027092
454 454 1.8397751254053663
455 455 1.8995177427883183
456 455 -0.22410050152815725
457 455 -0.15043870387698305
458 455 -0.2095240865784227
459 455 -0.19192066655909146
460 455 -0.1480500212080626
461 455 -0.20042404337108755
455 456 -0.22410050152815725
456 456 1.8552950587822445
457 456 0.0090109268600740804
458 456 0.012550003230058797
459 456 0.011495599501540454
460 456 0.0088678503493965517
461 456 0.012004931904318951
455 457 -0.15043870387698305
456 457 0.0090109268600740804
457 457 1.8479209990516958
458 457 0.0084248192516640872
459 457 0.007716997853676597
460 457 0.0059529894116307847
461 457 0.0080589127802119988
455 458 -0.2095240865784227
456 458 0.012550003230058797
457 458 0.0084248192516640872
458 458 1.8536056619466355
459 458 0.010747878602712563
460 458 0.0082910490235471694
461 458 0.011224081938846326
455 459 -0.19192066655909146
456 459 0.011495599501540454
457 459 0.007716997853676597
458 459 0.010747878602712563
459 459 1.8517168449131352
460 459 0.007594466493367571
461 459 0.010281077094260361
455 460 -0.1480500212080626
456 460 0.0088678503493965517
457 460 0.0059529894116307847
458 460 0.0082910490235471694
459 460 0.007594466493367571
460 460 1.8477304295305634
461 460 0.0079309524562239976
455 461 -0.20042404337108755
456 461 0.012004931904318951
457 461 0.0080589127802119988
458 461 0.011224081938846326
459 461 0.010281077094260361
460 461 0.0079309524562239976
461 461 1.8526085603375251
462 462 1.8978501307541671
463 462 -0.05792513607471679
464 462 -0.27642090013845005
465 462 -0.20703405728260665
466 462 -0.20694451048369372
467 462 -0.18507249460497385
468 462 -0.10329019427050082
462 463 -0.05792513607471679
463 463 1.8424893777079878
464 463 0.0042818466685850291
465 463 0.0032070226528282011
466 463 0.0032056355447534651
467 463 0.0028668311407499042
468 463 0.0015999975906782903
462 464 -0.27642090013845005
463 464 0.0042818466685850291
464 464 1.8620252304242497
465 464 0.015304031177686027
466 464 0.015297411846449354
467 464 0.013680624650563715
468 464 0.0076352479114449225
462 465 -0.20703405728260665
463 465 0.0032070226528282011
464 465 0.015304031177686027
465 465 1.8530545307593824
466 465 0.011457473870127525
467 465 0.01024653065722605
468 465 0.0057186571372614828
462 466 -0.20694451048369372
463 466 0.0032056355447534651
464 466 0.015297411846449354
465 466 0.011457473870127525
466 466 1.8530446173944251
467 466 0.010242098806580988
468 466 0.0057161836918417112
462 467 -0.18507249460497385
463 467 0.0028668311407499042
464 467 0.013680624650563715
465 467 0.01024653065722605
466 467 0.010242098806580988
467 467 1.8507517080157228
468 467 0.005112038840734425
462 468 -0.10329019427050082
463 468 0.0015999975906782903
464 468 0.0076352479114449225
465 468 0.0057186571372614828
466 468 0.0057161836918417112
467 468 0.005112038840734425
468 468 1.8444451621254359
469 469 1.8942166965594727
470 469 -0.25636213833136695
471 469 -0.22811303103824349
472 469 -0.16288752603948634
473 469 -0.17445754030966673
474 469 -0.17881045823412059
475 469 0.055831372531415346
469 470 -0.25636213833136695
470 470 1.8556086272702232
471 470 0.015668852860084473
472 470 0.01118857904188735
473 470 0.011983311593392226
474 470 0.012282309112998447
475 470 -0.0038350003820020492
469 471 -0.22811303103824349
470 471 0.015668852860084473
471 471 1.8519416394031067
472 471 0.0099556849340868905
473 471 0.010662844159581434
474 471 0.01092889448555481
475 471 -0.0034124132637735611
469 472 -0.16288752603948634
470 472 0.01118857904188735
471 472 0.0099556849340868905
472 472 1.8451083777905377
473 472 0.0076139635591779102
474 472 0.0078039407788157347
475 472 -0.0024366847953864465
469 473 -0.17445754030966673
470 473 0.011983311593392226
471 473 0.010662844159581434
472 473 0.0076139635591779102
473 473 1.8461541605533991
474 473 0.0083582601203265917
475 473 -0.0026097642112265429
469 474 -0.17881045823412059
470 474 0.012282309112998447
471 474 0.01092889448555481
472 474 0.0078039407788157347
473 474 0.0083582601203265917
474 474 1.8465661802689795
475 474 -0.0026748808544709781
469 475 0.055831372531415346
470 475 -0.0038350003820020492
471 475 -0.0034124132637735611
472 475 -0.0024366847953864465
473 475 -0.0026097642112265429
474 475 -0.0026748808544709781
475 475 1.8388345706070226
476 476 1.8733155751919737
477 476 -0.11858756776637398
478 476 -0.10210853965830158
479 476 0.14602480590316239
480 476 -0.076978898188758763
481 476 -0.060190830185424336
482 476 -0.13524014751780669
476 477 -0.11858756776637398
477 477 1.857326823690014
478 477 0.003249055281541945
479 477 -0.0046464543361749494
480 477 0.0024494395528957317
481 477 0.0019152495508092172
482 477 0.0043032905674654552
476 478 -0.10210853965830158
477 478 0.003249055281541945
478 478 1.856350975767763
479 478 -0.0040007791355540171
480 478 0.0021090633734912106
481 478 0.0016491048631642486
482 478 0.0037053016926268056
476 479 0.14602480590316239
477 479 -0.0046464543361749494
478 479 -0.0040007791355540171
479 479 1.8592749020194053
480 479 -0.0030161587932031894
481 479 -0.0023583749054033438
482 479 -0.0052989295732670761
476 480 -0.076978898188758763
477 480 0.0024494395528957317
478 480 0.0021090633734912106
479 480 -0.0030161587932031894
480 480 1.8551434197414216
481 480 0.0012432483687351093
482 480 0.0027934004610178044
476 481 -0.060190830185424336
477 481 0.0019152495508092172
478 481 0.0016491048631642486
479 481 -0.0023583749054033438
480 481 0.0012432483687351093
481 481 1.8545255244690371
482 481 0.0021841971857887907
476 482 -0.13524014751780669
477 482 0.0043032905674654552
478 482 0.0037053016926268056
479 482 -0.0052989295732670761
480 482 0.0027934004610178044
481 482 0.0021841971857887907
482 482 1.8584609892017314
483 483 1.8749156496595663
484 483 -0.029577303240443768
485 483 -0.076337159116408357
486 483 0.19598913750308772
487 483 -0.018644979873258027
488 483 0.19279331433347371
489 483 -0.0044837987823375912
483 484 -0.029577303240443768
484 484 1.8529779921229474
485 484 0.00060570114606806156
486 484 -0.0015550859709291269
487 484 0.00014793955929676304
488 484 -0.0015297285463292114
489 484 3.5576933863349633e-05
483 485 -0.076337159116408357
484 485 0.00060570114606806156
485 485 1.8543065860338381
486 485 -0.0040135790689729573
487 485 0.00038182269647240794
488 485 -0.0039481331511781537
489 485 9.182182835001796e-05
483 486 0.19598913750308772
484 486 -0.0015550859709291269
485 486 -0.0040135790689729573
486 486 1.8630478310121037
487 486 -0.00098029716886131055
488 486 0.010136494729477441
489 486 -0.0002357447035045401
483 487 -0.018644979873258027
484 487 0.00014793955929676304
485 487 0.00038182269647240794
486 487 -0.00098029716886131055
487 487 1.8528365678139422
488 487 -0.00096431232171484741
489 487 2.2427035028918799e-05
483 488 0.19279331433347371
484 488 -0.0015297285463292114
485 488 -0.0039481331511781537
486 488 0.010136494729477441
487 488 -0.00096431232171484741
488 488 1.8627145172671664
489 488 -0.00023190062114787519
483 489 -0.0044837987823375912
484 489 3.5576933863349633e-05
485 489 9.182182835001796e-05
486 489 -0.0002357447035045401
487 489 2.2427035028918799e-05
488 489 -0.00023190062114787519
489 489 1.8527487027955636
490 490 1.8721152135449757
491 490 0.021014744730567008
492 490 -0.058364663046585503
493 490 0.05208738363711489
494 490 0.23710910403205235
495 490 -0.045853920151561818
496 490 -0.013673138172737982
490 491 0.021014744730567008
491 491 1.8547731733085766
492 491 -0.00032911033742507266
493 491 0.00029371361898752494
494 491 0.0013370257474502919
495 491 -0.00025856397254101366
496 491 -7.7100952576350052e-05
490 492 -0.058364663046585503
491 492 -0.00032911033742507266
492 492 1.8555687186429761
493 492 -0.0008157365994298976
494 492 -0.0037133478533783698
495 492 0.00071811479638828198
496 492 0.00021413398903409012
490 493 0.05208738363711489
491 493 0.00029371361898752494
492 493 -0.0008157365994298976
493 493 1.8553826759359415
494 493 0.0033139671184701843
495 493 -0.00064087958265276698
496 493 -0.00019110329186106603
490 494 0.23710910403205235
491 494 0.0013370257474502919
492 494 -0.0037133478533783698
493 494 0.0033139671184701843
494 494 1.8697403189605177
495 494 -0.0029173740937710529
496 494 -0.00086992909120637521
490 495 -0.045853920151561818
491 495 -0.00025856397254101366
492 495 0.00071811479638828198
493 495 -0.00064087958265276698
494 495 -0.0029173740937710529
495 495 1.8552188575196429
496 495 0.00016823335083880031
490 496 -0.013673138172737982
491 496 -7.7100952576350052e-05
492 496 0.00021413398903409012
493 496 -0.00019110329186106603
494 496 -0.00086992909120637521
495 496 0.00016823335083880031
496 496 1.8547048393903895
497 497 1.8682457834008797
498 497 -0.075470786491560138
499 497 0.043273160283416379
500 497 0.023514109034854999
501 497 0.0057154347920426504
502 497 -0.057369753608968933
503 497 0.18381248898384595
497 498 -0.075470786491560138
498 498 1.8576301048440489
499 498 -0.00087689462015387392
500 498 -0.00047649387230629288
501 498 -0.00011581853481829398
502 498 0.0011625503653944463
503 498 -0.0037248072858870568
497 499 0.043273160283416379
498 499 -0.00087689462015387392
499 499 1.8566035426870902
500 499 0.00027321029326601501
501 499 6.6407602914578698e-05
502 499 -0.00066657882656203651
503 499 0.0021357162181561851
497 500 0.023514109034854999
498 500 -0.00047649387230629288
499 500 0.00027321029326601501
500 500 1.8562492112454174
501 500 3.6085083812914384e-05
502 500 -0.0003622108278075589
503 500 0.0011605222196003644
497 501 0.0057154347920426504
498 501 -0.00011581853481829398
499 501 6.6407602914578698e-05
500 501 3.6085083812914384e-05
501 501 1.8561095230816327
502 501 -8.8040434117118464e-05
503 501 0.00028208124156482142
497 502 -0.057369753608968933
498 502 0.0011625503653944463
499 502 -0.00066657882656203651
500 502 -0.0003622108278075589
501 502 -8.8040434117118464e-05
502 502 1.8569844745404283
503 502 -0.0028314436110471668
497 503 0.18381248898384595
498 503 -0.0037248072858870568
499 503 0.0021357162181561851
500 503 0.0011605222196003644
501 503 0.00028208124156482142
502 503 -0.0028314436110471668
503 503 1.865172687475674
504 504 1.8641762613227353
505 504 0.056807830750681555
506 504 -0.027103123596416392
507 504 0.02863553398769322
508 504 -0.054626763911395877
509 504 0.10094233150465083
510 504 0.054428352585859575
504 505 0.056807830750681555
505 505 1.8594242543316302
506 505 -0.0004135857692285835
507 505 0.00043696990531147769
508 505 -0.00083358850105934442
509 505 0.0015403505678805857
510 505 0.00083056080204141857
504 506 -0.027103123596416392
505 506 -0.0004135857692285835
506 506 1.8587547059395613
507 506 -0.00020847916907000113
508 506 0.00039770665195646164
509 506 -0.00073490417203752885
510 506 -0.00039626213102314636
504 507 0.02863553398769322
505 507 0.00043696990531147769
506 507 -0.00020847916907000113
507 507 1.8587776499657072
508 507 -0.0004201929828758462
509 507 0.00077645564804422441
510 507 0.0004186667887405195
504 508 -0.054626763911395877
505 508 -0.00083358850105934442
506 508 0.00039770665195646164
507 508 -0.0004201929828758462
508 508 1.859358967281209
509 508 -0.0014812107010684931
510 508 -0.00079867244088759439
504 509 0.10094233150465083
505 509 0.0015403505678805857
506 509 -0.00073490417203752885
507 509 0.00077645564804422441
508 509 -0.0014812107010684931
509 509 1.8612944457875493
510 509 0.0014758307561924936
504 510 0.054428352585859575
505 510 0.00083056080204141857
506 510 -0.00039626213102314636
507 510 0.0004186667887405195
508 510 -0.00079867244088759439
509 510 0.0014758307561924936
510 510 1.8593531549475086
511 511 1.8624473651647786
512 511 0.024802441950562804
513 511 0.028438855172178455
514 511 0.036994252977759129
515 511 0.064233967259189367
516 511 -0.046646815120358356
517 511 -0.022595355015927954
511 512 0.024802441950562804
512 512 1.860032249092417
513 512 0.00018949314539352558
514 512 0.00024649928120515092
515 512 0.0004280023377648555
516 512 -0.00031081601795259167
517 512 -0.00015055686550421649
511 513 0.028438855172178455
512 513 0.00018949314539352558
513 513 1.8600842617217996
514 513 0.00028263980507291572
515 513 0.00049075395565122311
516 513 -0.00035638634846382126
517 513 -0.00017263077973475135
511 514 0.036994252977759129
512 514 0.00024649928120515092
513 514 0.00028263980507291572
514 514 1.8602346537137335
515 514 0.00063838983233608943
516 514 -0.0004635997705627928
517 514 -0.00022456412885083106
511 515 0.064233967259189367
512 515 0.0004280023377648555
513 515 0.00049075395565122311
514 515 0.00063838983233608943
515 515 1.8609754368761224
516 515 -0.00080495888108893883
517 515 -0.00038991583122018254
511 516 -0.046646815120358356
512 516 -0.00031081601795259167
513 516 -0.00035638634846382126
514 516 -0.0004635997705627928
515 516 -0.00080495888108893883
516 516 1.8604515485085633
517 516 0.00028315753280561492
511 517 -0.022595355015927954
512 517 -0.00015055686550421649
513 517 -0.00017263077973475135
514 517 -0.00022456412885083106
515 517 -0.00038991583122018254
516 517 0.00028315753280561492
517 517 1.8600041453245604
518 518 1.8681912746301936
519 518 -0.020868831607866452
520 518 -0.0061105368489537586
521 518 0.047725168156808578
522 518 0.18033580313267827
523 518 0.089987362195248319
524 518 0.03141148434059822
518 519 -0.020868831607866452
519 519 1.856398885146163
520 519 3.4238335656528539e-05
521 519 -0.00026741190946207239
522 519 -0.0010104509491017087
523 519 -0.00050421388297724589
524 519 -0.00017600367543930848
518 520 -0.0061105368489537586
519 520 3.4238335656528539e-05
520 520 1.8562919788945436
521 520 -7.8300038896338413e-05
522 520 -0.00029586695961545192
523 520 -0.0001476372788654415
524 520 -5.1535081816357834e-05
518 521 0.047725168156808578
519 521 -0.00026741190946207239
520 521 -7.8300038896338413e-05
521 521 1.8568935010099361
522 521 0.0023108117582350892
523 521 0.001153092458852163
524 521 0.00040250480546266291
518 522 0.18033580313267827
519 522 -0.0010104509491017087
520 522 -0.00029586695961545192
521 522 0.0023108117582350892
522 522 1.8650136587777695
523 522 0.0043571109895329686
524 522 0.0015209171630234783
518 523 0.089987362195248319
519 523 -0.00050421388297724589
520 523 -0.0001476372788654415
521 523 0.001153092458852163
522 523 0.0043571109895329686
523 523 1.858456147140678
524 523 0.00075893594749606638
518 524 0.03141148434059822
519 524 -0.00017600367543930848
520 524 -5.1535081816357834e-05
521 524 0.00040250480546266291
522 524 0.0015209171630234783
523 524 0.00075893594749606638
524 524 1.8565468720377356
525 525 1.8785950883741005
526 525 -0.026351263662798968
527 525 -0.031078593014937244
528 525 0.10784593986410042
529 525 0.24798786212859428
530 525 0.16649248617045728
531 525 -0.028293205582126533
525 526 -0.026351263662798968
526 526 1.8510806368972192
527 526 0.00021959042673043826
528 526 -0.0007620015469979864
529 526 -0.0017521951667057174
530 526 -0.0011763774527376598
531 526 0.00019990985706351254
525 527 -0.031078593014937244
526 527 0.00021959042673043826
527 527 1.8511534323413423
528 527 -0.00089870209865250753
529 527 -0.0020665331714495453
530 527 -0.0013874156683117856
531 527 0.00023577302276103681
525 528 0.10784593986410042
526 528 -0.0007620015469979864
527 528 -0.00089870209865250753
528 528 1.85401303757606
529 528 0.0071710843546939247
530 528 0.0048144762106620631
531 528 -0.00081815683296997859
525 529 0.24798786212859428
526 529 -0.0017521951667057174
527 529 -0.0020665331714495453
528 529 0.0071710843546939247
529 529 1.8673840988245165
530 529 0.011070714987097023
531 529 -0.0018813222282618826
525 530 0.16649248617045728
526 530 -0.0011763774527376598
527 530 -0.0013874156683117856
528 530 0.0048144762106620631
529 530 0.011070714987097023
530 530 1.858327033110466
531 530 -0.0012630699437565286
525 531 -0.028293205582126533
526 531 0.00019990985706351254
527 531 0.00023577302276103681
528 531 -0.00081815683296997859
529 531 -0.0018813222282618826
530 531 -0.0012630699437565286
531 531 1.8511090902242624
532 532 1.8726076423722797
533 532 -0.055524416148896652
534 532 -0.043677956280794829
535 532 -0.022271431337210486
536 532 -0.048839926760068417
537 532 0.18100423744518826
538 532 0.15925908773214095
532 533 -0.055524416148896652
533 533 1.8557290514264484
534 533 0.00065062019269096342
535 533 0.00033175185338263634
536 533 0.00072751211973762263
537 533 -0.002696211587542856
538 533 -0.0023722991451784799
532 534 -0.043677956280794829
533 534 0.00065062019269096342
534 534 1.8554137747279029
535 534 0.00026097064954743132
536 534 0.00057229314171329093
537 534 -0.0021209590305040862
538 534 -0.0018661552076515008
532 535 -0.022271431337210486
533 535 0.00033175185338263634
534 535 0.00026097064954743132
535 535 1.8550350373513267
536 535 0.00029181281579395563
537 535 -0.0010814790214366844
538 535 -0.00095155431047635672
532 536 -0.048839926760068417
533 536 0.00072751211973762263
534 536 0.00057229314171329093
535 536 0.00029181281579395563
536 536 1.8555418963509058
537 536 -0.0023716192910901517
538 536 -0.0020867021130449512
532 537 0.18100423744518826
533 537 -0.002696211587542856
534 537 -0.0021209590305040862
535 537 -0.0010814790214366844
536 537 -0.0023716192910901517
537 537 1.8636913577074306
538 537 0.0077334662396704081
532 538 0.15925908773214095
533 538 -0.0023722991451784799
534 538 -0.0018661552076515008
535 538 -0.00095155431047635672
536 538 -0.0020867021130449512
537 538 0.0077334662396704081
538 538 1.8617063656561921
539 539 1.8845386787141669
540 539 -0.051696528379926381
541 539 -0.038089002962400614
542 539 -0.061028053865986732
543 539 0.2487941130624142
544 539 0.17796569244774765
545 539 0.17084473896680677
539 540 -0.051696528379926381
540 540 1.8502778418512953
541 540 0.00052732085237774463
542 540 0.00084489912784891546
543 540 -0.0034444147539421047
544 540 -0.0024638350530776696
545 540 -0.0023652494517948331
539 541 -0.038089002962400614
540 541 0.00052732085237774463
541 541 1.8499506522649261
542 541 0.0006225053478845007
543 541 -0.0025377782198926068
544 541 -0.0018153060481326555
545 541 -0.0017426700824887792
539 542 -0.061028053865986732
540 542 0.00084489912784891546
541 542 0.0006225053478845007
542 542 1.8505595408105167
543 542 -0.0040661517461199692
544 542 -0.0029085716787612347
545 542 -0.0027921908003145529
539 543 0.2487941130624142
540 543 -0.0034444147539421047
541 543 -0.0025377782198926068
542 543 -0.0040661517461199692
543 543 1.8661386829595117
544 543 0.011857424008389824
545 543 0.011382972086751464
539 544 0.17796569244774765
540 544 -0.0024638350530776696
541 544 -0.0018153060481326555
542 544 -0.0029085716787612347
543 544 0.011857424008389824
544 544 1.8580439033767766
545 544 0.0081423892414363777
539 545 0.17084473896680677
540 545 -0.0023652494517948331
541 545 -0.0017426700824887792
542 545 -0.0027921908003145529
543 545 0.011382972086751464
544 545 0.0081423892414363777
545 545 1.8573787197137266
546 546 1.8762255795783247
547 546 -0.12907461755103794
548 546 0.20759792550242273
549 546 0.16174220429189565
550 546 0.11046490893508387
551 546 -0.11044495568194475
552 546 -0.093045180570724514
546 547 -0.12907461755103794
547 547 1.8487249250178315
548 547 -0.0072022096034108415
549 547 -0.0056113338040766425
550 547 -0.0038323669470525625
551 547 0.0038316747074214103
552 547 0.0032280230712119873
546 548 0.20759792550242273
547 548 -0.0072022096034108415
548 548 1.8558306465916399
549 548 0.009025021953424037
550 548 0.006163810074103662
551 548 -0.0061626967063935388
552 548 -0.0051918100225444288
546 549 0.16174220429189565
547 549 -0.0056113338040766425
548 549 0.009025021953424037
549 549 1.8512784403921492
550 549 0.0048023034228754109
551 549 -0.0048014359838237583
552 549 -0.0040450057257498586
546 550 0.11046490893508387
547 550 -0.0038323669470525625
548 550 0.006163810074103662
549 550 0.0048023034228754109
550 550 1.8475267544149623
551 550 -0.0032792318556109988
552 550 -0.0027626134507877493
546 551 -0.11044495568194475
547 551 0.0038316747074214103
548 551 -0.0061626967063935388
549 551 -0.0048014359838237583
550 551 -0.0032792318556109988
551 551 1.8475255696540378
552 551 0.0027621144405043881
546 552 -0.093045180570724514
547 552 0.0032280230712119873
548 552 -0.0051918100225444288
549 552 -0.0040450057257498586
550 552 -0.0027626134507877493
551 552 0.0027621144405043881
552 552 1.846573894134621
553 553 1.3353624016968277
554 553 -1.1469549357991382
555 553 -1.5512705191055178
553 554 -1.1469549357991382
554 554 11.537092803528871
555 554 -1.5236191304963032
553 555 -1.5512705191055178
554 555 -1.5236191304963032
555 555 5.5044121284109107
556 556 1.2223045341513885
557 556 -1.844958499616872
558 556 -0.96028087065996659
556 557 -1.844958499616872
557 557 13.691175187328033
558 557 -0.84622800840578472
556 558 -0.96028087065996659
557 558 -0.84622800840578472
558 558 3.3765919656887187
559 559 1.223822023871683
560 559 -2.1560306051077696
561 559 -0.84449973057314121
559 560 -2.1560306051077696
560 560 14.991245576360146
561 560 -0.7584581620333386
559 561 -0.84449973057314121
560 561 -0.7584581620333386
561 561 2.9865445773971904
562 562 1.2436296093020267
563 562 -1.0929517024862749
564 562 -1.4618068630034879
562 563 -1.0929517024862749
563 563 12.461170723801535
564 563 -1.8901007635210849
562 564 -1.4618068630034879
563 564 -1.8901007635210849
564 564 5.6904259827827008
565 565 1.3825020886832298
566 565 -3.1381524142398165
567 565 -0.69545028406399223
565 566 -3.1381524142398165
566 566 18.477268910110524
567 566 -0.49915472207036415
565 567 -0.69545028406399223
566 567 -0.49915472207036415
567 567 2.3725884308267973
568 568 1.1765693251960505
569 568 -1.1332674086298096
570 568 -1.3417667107430382
568 569 -1.1332674086298096
569 569 11.943417149015831
570 569 -1.4834695636117639
568 570 -1.3417667107430382
569 570 -1.4834695636117639
570 570 4.9455099294673488
571 571 1.1911416054968345
572 571 -1.1495510407574008
573 571 -1.3461380740408893
571 572 -1.1495510407574008
572 572 11.968602284467217
573 572 -1.4577512904214276
571 573 -1.3461380740408893
572 573 -1.4577512904214276
573 573 4.937096298742552
574 574 1.2994511649598808
575 574 -2.2478514134096903
576 574 -0.86426568826773909
574 575 -2.2478514134096903
575 575 14.88573975799633
576 575 -0.67922382452378594
574 576 -0.86426568826773909
575 576 -0.67922382452378594
576 576 2.9750475355125467
577 577 1.0738323538894425
578 577 -3.0316178106733123
579 577 -0.41412357012266759
577 578 -3.0316178106733123
578 578 26.93949447733257
579 578 -1.0514080292106645
577 579 -0.41412357012266759
578 579 -1.0514080292106645
579 579 1.9459006791690305
580 580 1.2917895382906821
581 580 -6.4608294491534508
582 580 -0.37250589302927017
580 581 -6.4608294491534508
581 581 48.445676152216137
582 581 -0.019929440599610437
580 582 -0.37250589302927017
581 582 -0.019929440599610437
582 582 1.3118304767219702
583 583 0.9683668066988389
584 583 -2.0062342644522397
585 583 -0.63465185746705455
583 584 -2.0062342644522397
584 584 18.204041197327069
585 584 -1.1682329368107582
583 585 -0.63465185746705455
584 585 -1.1682329368107582
585 585 2.6881513531475321
586 586 0.97367622897799144
587 586 -1.8152750947914282
588 586 -0.7663660425636567
586 587 -1.8152750947914282
587 587 15.503256124373863
588 587 -1.0949505745571706
586 588 -0.7663660425636567
587 588 -1.0949505745571706
588 588 3.0300078828232837
589 589 1.0991665602481651
590 589 -0.91504990471393177
591 589 -1.3974862834255697
589 590 -0.91504990471393177
590 590 12.095046607345203
591 590 -2.0325626566975243
589 591 -1.3974862834255697
590 591 -2.0325626566975243
591 591 5.4931854652601917
592 592 1.3626689944411641
593 592 -3.1081843270651959
594 592 -0.69073675079021979
592 593 -3.1081843270651959
593 593 18.515093933326177
594 593 -0.5158545339039301
592 594 -0.69073675079021979
593 594 -0.5158545339039301
594 594 2.3735397884161844
595 595 1.2415160584112097
596 595 -1.0585647154150641
597 595 -1.516133471581105
595 596 -1.0585647154150641
596 596 12.231792054793686
597 596 -1.8352017012650288
595 597 -1.516133471581105
596 597 -1.8352017012650288
597 597 5.6636046958012258
598 598 1.2809047779388179
599 598 -2.5864056924924936
600 598 -0.75843234093572287
598 599 -2.5864056924924936
599 599 16.579105472956947
600 599 -0.63627832991889466
598 600 -0.75843234093572287
599 600 -0.63627832991889466
600 600 2.6526922959477033
601 601 1.8656713280471358
602 601 0.086396455019224147
603 601 0.069352941669364718
604 601 0.064555458762074316
605 601 0.077057191951262857
606 601 0.046378405813666236
607 601 0.052430729322543133
601 602 0.086396455019224147
602 602 1.8603504650347555
603 602 0.0016089742988183847
604 602 0.001497673660214608
605 602 0.0017877113559187912
606 602 0.0010759696874879752
607 602 0.0012163823756813992
601 603 0.069352941669364718
602 603 0.0016089742988183847
603 603 1.8596376550160265
604 603 0.0012022261095492389
605 603 0.0014350477847859529
606 603 0.00086371209279077483
607 603 0.00097642543238034957
601 604 0.064555458762074316
602 604 0.001497673660214608
603 604 0.0012022261095492389
604 604 1.8594651468907901
605 604 0.0013357784956550389
606 604 0.00080396489386533776
607 604 0.0009088812992933805
601 605 0.077057191951262857
602 605 0.0017877113559187912
603 605 0.0014350477847859529
604 605 0.0013357784956550389
605 605 1.8599405484207061
606 605 0.00095965977682825718
607 605 0.0010848941682637156
601 606 0.046378405813666236
602 606 0.0010759696874879752
603 606 0.00086371209279077483
604 606 0.00080396489386533776
605 606 0.00095965977682825718
606 606 1.85892367500527
607 606 0.00065296516426965271
601 607 0.052430729322543133
602 607 0.0012163823756813992
603 607 0.00097642543238034957
604 607 0.0009088812992933805
605 607 0.0010848941682637156
606 607 0.00065296516426965271
607 607 1.8590842609492124
608 608 1.8667702854596189
609 608 0.072829194966983576
610 608 0.068502431073355505
611 608 0.08934662090911466
612 608 0.093469203304101342
613 608 0.062791184487446736
614 608 0.067524305391936879
608 609 0.072829194966983576
609 609 1.8587376629600163
610 609 0.0013396522033104589
611 609 0.0017472868580542297
612 609 0.0018279092024329089
613 609 0.0012279615092346693
614 609 0.0013205237110263846
608 610 0.068502431073355505
609 610 0.0013396522033104589
610 610 1.8585734591909859
611 610 0.0016434809915652868
612 610 0.0017193135830318894
613 610 0.0011550086292346877
614 610 0.0012420717342313792
608 611 0.08934662090911466
609 611 0.0017472868580542297
610 611 0.0016434809915652868
611 611 1.8594569612513296
612 611 0.0022424730994224729
613 611 0.0015064592091991703
614 611 0.0016200142190787462
608 612 0.093469203304101342
609 612 0.0018279092024329089
610 612 0.0017193135830318894
611 612 0.0022424730994224729
612 612 1.8596593394369496
613 612 0.0015759694173236333
614 612 0.0016947640197007058
608 613 0.062791184487446736
609 613 0.0012279615092346693
610 613 0.0011550086292346877
611 613 0.0015064592091991703
612 613 0.0015759694173236333
613 613 1.8583721075893878
614 613 0.0011385166072025821
608 614 0.067524305391936879
609 614 0.0013205237110263846
610 614 0.0012420717342313792
611 614 0.0016200142190787462
612 614 0.0016947640197007058
613 614 0.0011385166072025821
614 614 1.8585377319475351
615 615 1.0000000000000002e-08
616 616 1.0000000000000002e-08
617 617 1.0000000000000002e-08
618 618 1.0000000000000002e-08
619 619 1.0000000000000002e-08
620 620 1.0000000000000002e-08
621 621 1.0000000000000002e-08
622 622 1.0000000000000002e-08
623 623 1.0000000000000002e-08
624 624 1.0000000000000002e-08
625 625 1.0000000000000002e-08
626 626 1.0000000000000002e-08
627 627 1.0000000000000002e-08
628 628 1.0000000000000002e-08
629 629 1.0000000000000002e-08
630 630 1.0000000000000002e-08
631 631 1.8941989144615876
632 631 0.055704110511737862
633 631 -0.20355635656084362
634 631 -0.17917159199393412
635 631 -0.25838796813360398
636 631 -0.18323310796762732
637 631 -0.1568124210461144
631 632 0.055704110511737862
632 632 1.8410537390257584
633 632 -0.0030363270523425297
634 632 -0.0026725942681129198
635 632 -0.003854217037969909
636 632 -0.0027331774453361762
637 632 -0.0023390760387447117
631 633 -0.20355635656084362
632 633 -0.0030363270523425297
633 633 1.8513183114134562
634 633 0.0097663089273784358
635 633 0.014084245676601593
636 633 0.0099876945793734954
637 633 0.0085475522684329407
631 634 -0.17917159199393412
632 634 -0.0026725942681129198
633 634 0.0097663089273784358
634 634 1.8488192013648184
635 634 0.012397042089698194
636 634 0.0087912319141978997
637 634 0.0075236095470628522
631 635 -0.25838796813360398
632 635 -0.003854217037969909
633 635 0.014084245676601593
634 635 0.012397042089698194
635 635 1.8581009282367762
636 635 0.012678061998677739
637 635 0.010849991130078084
631 636 -0.18323310796762732
632 636 -0.0027331774453361762
633 636 0.0099876945793734954
634 636 0.0087912319141978997
635 636 0.012678061998677739
636 636 1.8492133487259845
637 636 0.00769415700949909
631 637 -0.1568124210461144
632 637 -0.0023390760387447117
633 637 0.0085475522684329407
634 637 0.0075236095470628522
635 637 0.010849991130078084
636 637 0.00769415700949909
637 637 1.8468075582006838
638 638 1.871772233470764
639 638 -0.070400852404089151
640 638 -0.071055637685635595
641 638 -0.084430233499758867
642 638 -0.14332652171947297
643 638 0.14585377839083385
644 638 -0.066131988832352245
638 639 -0.070400852404089151
639 639 1.856109867105723
640 639 0.0013423607972797142
641 639 0.0015950294620768759
642 639 0.0027076796470095459
643 639 -0.0027554237865429574
644 639 0.0012493447690588471
638 640 -0.071055637685635595
639 640 0.0013423607972797142
640 640 1.8561347221526836
641 640 0.0016098645355132907
642 640 0.0027328632736200345
643 640 -0.0027810514725473169
644 640 0.0012609646932276808
638 641 -0.084430233499758867
639 641 0.0015950294620768759
640 641 0.0016098645355132907
641 641 1.8566927609565569
642 641 0.0032472621713069208
643 641 -0.0033045206946258352
644 641 0.0014983124063312327
638 642 -0.14332652171947297
639 642 0.0027076796470095459
640 642 0.0027328632736200345
641 642 0.0032472621713069208
642 642 1.8602923423133251
643 642 -0.0056096665551930557
644 642 0.0025434953422129591
638 643 0.14585377839083385
639 643 -0.0027554237865429574
640 643 -0.0027810514725473169
641 643 -0.0033045206946258352
642 643 -0.0056096665551930557
643 643 1.8604884573336309
644 643 -0.002588344442679965
638 644 -0.066131988832352245
639 644 0.0012493447690588471
640 644 0.0012609646932276808
641 644 0.0014983124063312327
642 644 0.0025434953422129591
643 644 -0.002588344442679965
644 644 1.8559534651408152
645 645 1.8623849127164831
646 645 0.028081915172813075
647 645 0.035363154145623986
648 645 0.032655583927806348
649 645 0.044152049261763714
650 645 0.050577443951020803
651 645 0.0042684281901073382
645 646 0.028081915172813075
646 646 1.8605468371279328
647 646 0.00026675793964454588
648 646 0.0002463336910106795
649 646 0.00033305597242971153
650 646 0.0003815252079976404
651 646 3.219840359332405e-05
645 647 0.035363154145623986
646 647 0.00026675793964454588
647 647 1.8606709288462573
648 647 0.00031020449399066187
649 647 0.00041941262266738567
650 647 0.00048044923780425587
651 647 4.0546989138977229e-05
645 648 0.032655583927806348
646 648 0.0002463336910106795
647 648 0.00031020449399066187
648 648 1.8606214581598877
649 648 0.00038730041001139087
650 648 0.00044366377341679931
651 648 3.7442520013774627e-05
645 649 0.044152049261763714
646 649 0.00033305597242971153
647 649 0.00041941262266738567
648 649 0.00038730041001139087
649 649 1.8608586547022032
650 649 0.0005998565152858491
651 649 5.0624236020017266e-05
645 650 0.050577443951020803
646 650 0.0003815252079976404
647 650 0.00048044923780425587
648 650 0.00044366377341679931
649 650 0.0005998565152858491
650 650 1.861022157301421
651 650 5.799152027317229e-05
645 651 0.0042684281901073382
646 651 3.219840359332405e-05
647 651 4.0546989138977229e-05
648 651 3.7442520013774627e-05
649 651 5.0624236020017266e-05
650 651 5.799152027317229e-05
651 651 1.8603398985191433
652 652 1.0000000000000002e-08
653 653 1.0000000000000002e-08
654 654 1.0000000000000002e-08
655 655 1.0000000000000002e-08
656 656 1.0000000000000002e-08
657 657 1.0000000000000002e-08
658 658 1.0000000000000002e-08
659 659 1.0000000000000002e-08
660 660 1.0000000000000002e-08
661 661 1.0000000000000002e-08
662 662 1.0000000000000002e-08
663 663 1.0000000000000002e-08
664 664 1.0000000000000002e-08
665 665 1.0000000000000002e-08
666 666 1.0000000000000002e-08
667 667 1.0000000000000002e-08
668 668 1.900970525290421
669 668 -0.31073684310238031
670 668 0.053809764496674829
671 668 0.058380269418899053
672 668 -0.2388002197391379
673 668 -0.20953287253683206
674 668 -0.1902194948818548
668 669 -0.31073684310238031
669 669 1.8626005881202097
670 669 -0.004473474684117738
671 669 -0.0048534436034106121
672 669 0.019852655880528893
673 669 0.017419515018355265
674 669 0.015813897398347192
668 670 0.053809764496674829
669 670 -0.004473474684117738
670 670 1.8375421450875304
671 670 0.00084046247844312143
672 670 -0.0034378502622967638
673 670 -0.0030165074454179103
674 670 -0.0027384654046294608
668 671 0.058380269418899053
669 671 -0.0048534436034106121
670 671 0.00084046247844312143
671 671 1.8376793310276229
672 671 -0.003729855099944179
673 671 -0.0032727241796141828
674 671 -0.0029710657463754859
668 672 -0.2388002197391379
669 672 0.019852655880528893
670 672 -0.0034378502622967638
671 672 -0.003729855099944179
672 672 1.852024180505387
673 672 0.013386838755911224
674 672 0.012152927010374723
668 673 -0.20953287253683206
669 673 0.017419515018355265
670 673 -0.0030165074454179103
671 673 -0.0032727241796141828
672 673 0.013386838755911224
673 673 1.8485136294043645
674 673 0.010663464669320508
668 674 -0.1902194948818548
669 674 0.015813897398347192
670 674 -0.0027384654046294608
671 674 -0.0029710657463754859
672 674 0.012152927010374723
673 674 0.010663464669320508
674 674 1.8464480570108266
675 675 1.0000000000000002e-08
676 676 1.0000000000000002e-08
677 677 1.0000000000000002e-08
678 678 1.0000000000000002e-08
679 679 1.0000000000000002e-08
680 680 1.0000000000000002e-08
681 681 1.0000000000000002e-08
682 682 1.0000000000000002e-08
683 683 1.0000000000000002e-08
684 684 1.0000000000000002e-08
685 685 1.0000000000000002e-08
686 686 1.0000000000000002e-08
687 687 1.0000000000000002e-08
688 688 1.0000000000000002e-08
689 689 1.0000000000000002e-08
690 690 1.0000000000000002e-08
691 691 13.166049204005359
692 692 13.895465455995266
693 693 13.906851310147006
694 694 14.317291180221691
695 695 14.291335758265074
696 696 14.024109071777138
697 697 14.103234005226533
698 698 14.88101515425967
699 699 14.636382789405909
700 700 13.508433139568124
701 701 12.807040511665429
702 702 14.054741827720614
703 703 15.465414296723781
704 704 14.394453255662166
705 705 13.330987936054212
706 706 13.602081981823556
707 707 6.0912901422522419
708 708 6.6955055115726987
709 709 6.8117921098681151
710 710 7.6719573525484739
711 711 8.2900202253898936
712 712 11.143919157289194
713 713 12.633407104880275
714 714 12.748693274033194
715 715 12.857331555203249
716 716 13.72793910977745
717 717 13.995843244224657
718 718 14.719771330136393
719 719 14.563248427639392
720 720 14.10393722280954
721 721 13.021955535923732
722 722 12.988406316256281
723 723 1.9284373233430347
724 723 -0.054884689469524947
725 723 -0.023951961961986887
726 723 -0.021415614745443963
727 723 -0.030700872234538011
728 723 0.031657548300195168
729 723 -0.027008783821520051
723 724 -0.054884689469524947
724 724 1.9274758663695448
725 724 0.00034099897484958091
726 724 0.00030488954038753737
727 724 0.000437081771237791
728 724 -0.00045070176437947846
729 724 0.00038451829581597619
723 725 -0.023951961961986887
724 725 0.00034099897484958091
725 725 1.9268432984632495
726 725 0.00013305537016884881
727 725 0.00019074474248011153
728 725 -0.00019668857783392834
729 725 0.00016780577031753405
723 726 -0.021415614745443963
724 726 0.00030488954038753737
725 726 0.00013305537016884881
726 726 1.9268134504755201
727 726 0.0001705461926733175
728 726 -0.00017586061694677401
729 726 0.00015003629910928013
723 727 -0.030700872234538011
724 727 0.000437081771237791
725 727 0.00019074474248011153
726 727 0.0001705461926733175
727 727 1.9269389753667885
728 727 -0.00025210923880289541
729 727 0.00021508816367164473
723 728 0.031657548300195168
724 728 -0.00045070176437947846
725 728 -0.00019668857783392834
726 728 -0.00017586061694677401
727 728 -0.00025210923880289541
728 728 1.9269544500149685
729 728 -0.00022179056927819693
723 729 -0.027008783821520051
724 729 0.00038451829581597619
725 729 0.00016780577031753405
726 729 0.00015003629910928013
727 729 0.00021508816367164473
728 729 -0.00022179056927819693
729 729 1.9268837063998503
730 730 1.9076158678133976
731 730 -0.043365281262337664
732 730 -0.0092239045021875743
733 730 -0.036590297948922074
734 730 -0.047859778231660932
735 730 0.015986398041481904
736 730 -0.061676083568487354
730 731 -0.043365281262337664
731 731 1.9055768944201743
732 731 0.00010491181116243475
733 731 0.00041617456337325739
734 731 0.00054435255860738865
735 731 -0.0001818277685006067
736 731 0.00070149789940269992
730 732 -0.0092239045021875743
731 732 0.00010491181116243475
732 732 1.9051059768483249
733 732 8.8521377402628736e-05
734 732 0.00011578515969356244
735 732 -3.8675224134936385e-05
736 732 0.00014921036931438746
730 733 -0.036590297948922074
731 733 0.00041617456337325739
732 733 8.8521377402628736e-05
733 733 1.9054348172093274
734 733 0.00045930803926322116
735 733 -0.00015342070963582127
736 733 0.00059190247134359496
730 734 -0.047859778231660932
731 734 0.00054435255860738865
732 734 0.00011578515969356244
733 734 0.00045930803926322116
734 734 1.9056844325962705
735 734 -0.00020067289830666058
736 734 0.00077420307024613963
730 735 0.015986398041481904
731 735 -0.0001818277685006067
732 735 -3.8675224134936385e-05
733 735 -0.00015342070963582127
734 735 -0.00020067289830666058
735 735 1.9051506917561611
736 735 -0.00025860375670743341
730 736 -0.061676083568487354
731 736 0.00070149789940269992
732 736 0.00014921036931438746
733 736 0.00059190247134359496
734 736 0.00077420307024613963
735 736 -0.00025860375670743341
736 736 1.9060813641929495
737 737 1.918083486561567
738 737 -0.012533421066448629
739 737 0.0086052797667651622
740 737 -0.0017238415968718797
741 737 0.033965215811618266
742 737 0.01102815524613885
743 737 0.0034170299827352511
737 738 -0.012533421066448629
738 738 1.9177278983737127
739 738 -2.8117844023192512e-05
740 738 5.6326709247426822e-06
741 738 -0.00011098170731108751
742 738 -3.6034615663756691e-05
743 738 -1.1165182153425739e-05
737 739 0.0086052797667651622
738 739 -2.8117844023192512e-05
739 739 1.9177062506225659
740 739 -3.8673167433342194e-06
741 739 7.6198560260751195e-05
742 739 2.4740886580805542e-05
743 739 7.6658651750177184e-06
737 740 -0.0017238415968718797
738 740 5.6326709247426822e-06
739 740 -3.8673167433342194e-06
740 740 1.9176877200010713
741 740 -1.5264378539619438e-05
742 740 -4.9561862702244659e-06
743 740 -1.5356545775239416e-06
737 741 0.033965215811618266
738 741 -0.00011098170731108751
739 741 7.6198560260751195e-05
740 741 -1.5264378539619438e-05
741 741 1.9179877025666923
742 741 9.7652786994015603e-05
743 741 3.0257327142092816e-05
737 742 0.01102815524613885
738 742 -3.6034615663756691e-05
739 742 2.4740886580805542e-05
740 742 -4.9561862702244659e-06
741 742 9.7652786994015603e-05
742 742 1.9177186521385361
743 742 9.8242420394711473e-06
737 743 0.0034170299827352511
738 743 -1.1165182153425739e-05
739 743 7.6658651750177184e-06
740 743 -1.5356545775239416e-06
741 743 3.0257327142092816e-05
742 743 9.8242420394711473e-06
743 743 1.917689989288091
744 744 1.913050134477575
745 744 0.046698925176542165
746 744 0.031656748352802973
747 744 0.038956131273315694
748 744 0.01902802550320783
749 744 0.047021349798424199
750 744 0.052140263208976252
744 745 0.046698925176542165
745 745 1.9110071276012026
746 745 0.00038664605453412747
747 745 0.00047579853397695525
748 745 0.00023240261142419715
749 745 0.00057430470040110884
750 745 0.00063682557751818458
744 746 0.031656748352802973
745 746 0.00038664605453412747
746 746 1.9106988645082135
747 746 0.00032253921048073977
748 746 0.00015754347575617635
749 746 0.00038931558509535698
750 746 0.00043169788118053504
744 747 0.038956131273315694
745 747 0.00047579853397695525
746 747 0.00032253921048073977
747 747 1.9108336708934883
748 747 0.00019386970052685852
749 747 0.00047908360235550135
750 747 0.00053123836795424114
744 748 0.01902802550320783
745 748 0.00023240261142419715
746 748 0.00015754347575617635
747 748 0.00019386970052685852
748 748 1.9105314560720827
749 748 0.00023400719490935379
750 748 0.00025948206054639478
744 749 0.047021349798424199
745 749 0.00057430470040110884
746 749 0.00038931558509535698
747 749 0.00047908360235550135
748 749 0.00023400719490935379
749 749 1.9110150307861875
750 749 0.00064122242916433883
744 750 0.052140263208976252
745 750 0.00063682557751818458
746 750 0.00043169788118053504
747 750 0.00053123836795424114
748 750 0.00025948206054639478
749 750 0.00064122242916433883
750 750 1.9111477891098132
751 751 1.9293247688623096
752 751 -0.054071636572420222
753 751 -0.057599201842262401
754 751 -0.063422209864335735
755 751 -0.032117206379994122
756 751 -0.016167342648246048
757 751 -0.058197004773513653
751 752 -0.054071636572420222
752 752 1.9262065996830082
753 752 0.00080795501925061506
754 752 0.00088963546634178859
755 752 0.00045051419584054572
756 752 0.00022678240709597051
757 752 0.00081634051528838806
751 753 -0.057599201842262401
752 753 0.00080795501925061506
753 753 1.9263087914805379
754 753 0.00094767416043021275
755 753 0.00047990517291388593
756 753 0.00024157740487658141
757 753 0.00086959753935200224
751 754 -0.063422209864335735
752 754 0.00088963546634178859
753 754 0.00094767416043021275
754 754 1.9264916060510302
755 754 0.00052842132560928026
756 754 0.00026599974271383672
757 754 0.00095750975489778355
751 755 -0.032117206379994122
752 755 0.00045051419584054572
753 755 0.00047990517291388593
754 755 0.00052842132560928026
755 755 1.925715720716249
756 755 0.00013470310561615605
757 755 0.00048488594886068138
751 756 -0.016167342648246048
752 756 0.00022678240709597051
753 756 0.00024157740487658141
754 756 0.00026599974271383672
755 756 0.00013470310561615605
756 756 1.9255159341144816
757 756 0.00024408465629917542
751 757 -0.058197004773513653
752 757 0.00081634051528838806
753 757 0.00086959753935200224
754 757 0.00095750975489778355
755 757 0.00048488594886068138
756 757 0.00024408465629917542
757 757 1.9263267492989677
758 758 1.9242647400113262
759 758 0.04098690913791108
760 758 0.0018276868526698122
761 758 0.0078818818980837431
762 758 -0.0078127392633941129
763 758 0.023025319491746021
764 758 0.054546739791488837
758 759 0.04098690913791108
759 759 1.9233206601722836
760 759 1.9471884290863479e-05
761 759 8.3972312920863742e-05
762 759 -8.3235678316158232e-05
763 759 0.0002453080823164622
764 759 0.00058113226787849103
758 760 0.0018276868526698122
759 760 1.9471884290863479e-05
760 760 1.9228848604675777
761 760 3.7444905103073594e-06
762 760 -3.7116425251686948e-06
763 760 1.0938769629953419e-05
764 760 2.5913830244918077e-05
758 761 0.0078818818980837431
759 761 8.3972312920863742e-05
760 761 3.7444905103073594e-06
761 761 1.9229001402571351
762 761 -1.6006422538166662e-05
763 761 4.7173338369039592e-05
764 761 0.00011175314262346141
758 762 -0.0078127392633941129
759 762 -8.3235678316158232e-05
760 762 -3.7116425251686948e-06
761 762 -1.6006422538166662e-05
762 762 1.9228998581865595
763 762 -4.6759517286192136e-05
764 762 -0.00011077280482904323
758 763 0.023025319491746021
759 763 0.0002453080823164622
760 763 1.0938769629953419e-05
761 763 4.7173338369039592e-05
762 763 -4.6759517286192136e-05
763 763 1.9230217995191037
764 763 0.00032646414224215268
758 764 0.054546739791488837
759 764 0.00058113226787849103
760 764 2.5913830244918077e-05
761 764 0.00011175314262346141
762 764 -0.00011077280482904323
763 764 0.00032646414224215268
764 764 1.9236573822985592
765 765 1.9123901370971719
766 765 0.028958371617358196
767 765 -0.0083265575516530202
768 765 0.0079131030023701279
769 765 -0.019422891464519549
770 765 0.051389144899040742
771 765 0.034804305451050628
765 766 0.028958371617358196
766 766 1.9112494355560947
767 766 -6.3064882360260179e-05
768 766 5.9933400670487481e-05
769 766 -0.00014710789635542177
770 766 0.00038921851648151797
771 766 0.00026360586776528366
765 767 -0.0083265575516530202
766 767 -6.3064882360260179e-05
767 767 1.9110482398524931
768 767 -1.7232975546524185e-05
769 767 4.2298730795062981e-05
770 767 -0.00011191410969081363
771 767 -7.5796023958245914e-05
765 768 0.0079131030023701279
766 768 5.9933400670487481e-05
767 768 -1.7232975546524185e-05
768 768 1.911046483738567
769 768 -4.0198390700417348e-05
770 768 0.0001063570235248235
771 768 7.2032378450641082e-05
765 769 -0.019422891464519549
766 769 -0.00014710789635542177
767 769 4.2298730795062981e-05
768 769 -4.0198390700417348e-05
769 769 1.9111287743301508
770 769 -0.0002610557355051822
771 769 -0.00017680511275525518
765 770 0.051389144899040742
766 770 0.00038921851648151797
767 770 -0.00011191410969081363
768 770 0.0001063570235248235
769 770 -0.0002610557355051822
770 770 1.9117208085184993
771 770 0.00046779150132556202
765 771 0.034804305451050628
766 771 0.00026360586776528366
767 771 -7.5796023958245914e-05
768 771 7.2032378450641082e-05
769 771 -0.00017680511275525518
770 771 0.00046779150132556202
771 771 1.9113469274265813
772 772 1.9278254420121654
773 772 -0.043155334069689556
774 772 -0.010405441490404147
775 772 0.0015987319690577361
776 772 0.050915326317162439
777 772 0.035111092086281485
778 772 -0.020131046120248179
772 773 -0.043155334069689556
773 773 1.9266990276475215
774 773 0.00011651414076063979
775 773 -1.7901679794471938e-05
776 773 -0.00057012049924672244
777 773 -0.00039315378683099926
778 773 0.00022541585991104609
772 774 -0.010405441490404147
773 774 0.00011651414076063979
774 774 1.9262438924955265
775 774 -4.3163814090865614e-06
776 774 -0.00013746517377925718
777 774 -9.4795668108941519e-05
778 774 5.4351370273853173e-05
772 775 0.0015987319690577361
773 775 -1.7901679794471938e-05
774 775 -4.3163814090865614e-06
775 775 1.9262164622574756
776 775 2.1120676922324402e-05
777 775 1.4564770295783517e-05
778 775 -8.3507531419052215e-06
772 776 0.050915326317162439
773 776 -0.00057012049924672244
774 776 -0.00013746517377925718
775 776 2.1120676922324402e-05
776 776 1.9268884359983027
777 776 0.0004638488794224841
778 776 -0.00026594909556025711
772 777 0.035111092086281485
773 777 -0.00039315378683099926
774 777 -9.4795668108941519e-05
775 777 1.4564770295783517e-05
776 777 0.0004638488794224841
777 777 1.9265356681939527
778 777 -0.00018339788546797368
772 778 -0.020131046120248179
773 778 0.00022541585991104609
774 778 5.4351370273853173e-05
775 778 -8.3507531419052215e-06
776 778 -0.00026594909556025711
777 778 -0.00018339788546797368
778 778 1.9263209507797294
779 779 1.9085238790709165
780 779 -0.20239846223864658
781 779 0.4306456116520484
782 779 -0.1016545033565109
783 779 0.20553893218666291
784 779 -0.054417506549972662
785 779 0.17219269942053345
779 780 -0.20239846223864658
780 780 1.8360340164024822
781 780 -0.023345387911261686
782 780 0.0055107117071980316
783 780 -0.011142308136745023
784 780 0.0029499843147111583
785 780 -0.0093346019434365646
779 781 0.4306456116520484
780 781 -0.023345387911261686
781 781 1.8747342128856495
782 781 -0.011725206740880373
783 781 0.023707621341047612
784 781 -0.0062767166584241077
785 781 0.019861343406452358
779 782 -0.1016545033565109
780 782 0.0055107117071980316
781 782 -0.011725206740880373
782 782 1.8278297053634041
783 782 -0.0055962174186407988
784 782 0.0014816278103332355
785 782 -0.0046882980932528989
779 783 0.20553893218666291
780 783 -0.011142308136745023
781 783 0.023707621341047612
782 783 -0.0055962174186407988
783 783 1.8363771490329386
784 783 -0.0029957570789159896
785 783 0.009479440182600123
779 784 -0.054417506549972662
780 784 0.0029499843147111583
781 784 -0.0062767166584241077
782 784 0.0014816278103332355
783 784 -0.0029957570789159896
784 784 1.8258550961368933
785 784 -0.0025097313328369467
779 785 0.17219269942053345
780 785 -0.0093346019434365646
781 785 0.019861343406452358
782 785 -0.0046882980932528989
783 785 0.009479440182600123
784 785 -0.0025097313328369467
785 785 1.8330034682138632
786 786 2.2039511320722438
787 786 -1.5619935854609195
788 786 -0.68648519052096713
786 787 -1.5619935854609195
787 787 8.9961709062158395
788 787 0.3360932531138861
786 788 -0.68648519052096713
787 788 0.3360932531138861
788 788 1.7057679152432468
789 789 2.4583320811084599
790 789 -1.9312685624550396
791 789 -1.0594133658089269
789 790 -1.9312685624550396
790 790 9.5482730786176013
791 790 0.49080765253782721
789 791 -1.0594133658089269
790 791 0.49080765253782721
791 791 2.523274976584073
792 792 2.4923459524871427
793 792 -1.94921584621446
794 792 -1.0669499188398572
792 793 -1.94921584621446
793 793 9.5396728916012421
794 793 0.51447747960815338
792 794 -1.0669499188398572
793 794 0.51447747960815338
794 794 2.5190869901686144
795 795 2.4772755068684797
796 795 -1.6997197518403369
797 795 -0.72276543061523912
795 796 -1.6997197518403369
796 796 9.0471992012824725
797 796 0.42382744477859613
795 797 -0.72276543061523912
796 797 0.42382744477859613
797 797 1.6908453107452588
798 798 2.4338797226677595
799 798 -1.6819071260794534
800 798 -0.71687306706831389
798 799 -1.6819071260794534
799 799 9.0466971992968475
800 799 0.40493042014467695
798 800 -0.71687306706831389
799 800 0.40493042014467695
800 800 1.6935609164900294
801 801 2.3600367009102907
802 801 -1.6411976014846721
803 801 -0.70735456880659742
801 802 -1.6411976014846721
802 802 9.0247487483567017
803 802 0.38761292346899279
801 803 -0.70735456880659742
802 803 0.38761292346899279
803 803 1.6968184942112989
804 804 2.5232517874953939
805 804 -2.1333106094649001
806 804 -1.4381324267756612
804 805 -2.1333106094649001
805 805 9.9723128729376924
806 805 0.57819715446009212
804 806 -1.4381324267756612
805 806 0.57819715446009212
806 806 3.4512935680218533
807 807 2.1670932499387567
808 807 -1.9582600103583419
809 807 -1.8410359458846184
807 808 -1.9582600103583419
808 808 10.670197755484839
809 808 0.048193726229014633
807 809 -1.8410359458846184
808 809 0.048193726229014633
809 809 4.9408420172582819
810 810 1.590392726226693
811 810 -1.4306294615351107
812 810 -1.6357446766736201
810 811 -1.4306294615351107
811 811 11.01233893811543
812 811 -0.79667700406107844
810 812 -1.6357446766736201
811 812 -0.79667700406107844
812 812 5.221087261336498
813 813 1.1686329911544067
814 813 -2.4773926315459756
815 813 -0.74423376855933188
813 814 -2.4773926315459756
814 814 16.457318853260894
815 814 -0.69210955689529474
813 815 -0.74423376855933188
814 815 -0.69210955689529474
815 815 2.6675249214291363
816 816 0.75570357392270171
817 816 -2.1553446621391985
818 816 -0.55764626220288394
816 817 -2.1553446621391985
817 817 19.447943441785533
818 817 -1.05801983036825
816 818 -0.55764626220288394
817 818 -1.05801983036825
818 818 2.4431332830460102
819 819 1.8717883905443751
820 819 -0.023527201228105855
821 819 -0.02825981599113209
822 819 0.01301554925989175
823 819 -0.040340605750384208
824 819 0.25618905080292226
825 819 -0.008759469540721496
819 820 -0.023527201228105855
820 820 1.8534519443524382
821 820 0.00017848536999312645
822 820 -8.2204538275993183e-05
823 820 0.00025478608726127553
824 820 -0.0016180571570280652
825 820 5.5323685136867242e-05
819 821 -0.02825981599113209
820 821 0.00017848536999312645
821 821 1.8535177381688925
822 821 -9.8740394269266466e-05
823 821 0.00030603758914182798
824 821 -0.0019435374857134588
825 821 6.6452322431428785e-05
819 822 0.01301554925989175
820 822 -8.2204538275993183e-05
821 822 -9.8740394269266466e-05
822 822 1.8533488261739099
823 822 -0.00014095092898354025
824 822 0.00089512995738144977
825 822 -3.0605771683434888e-05
819 823 -0.040340605750384208
820 823 0.00025478608726127553
821 823 0.00030603758914182798
822 823 -0.00014095092898354025
823 823 1.85374021517893
824 823 -0.0027743803957132125
825 823 9.4860028148976337e-05
819 824 0.25618905080292226
820 824 -0.0016180571570280652
821 824 -0.0019435374857134588
822 824 0.00089512995738144977
823 824 -0.0027743803957132125
824 824 1.8709224672533535
825 824 -0.00060242279754049754
819 825 -0.008759469540721496
820 825 5.5323685136867242e-05
821 825 6.6452322431428785e-05
822 825 -3.0605771683434888e-05
823 825 9.4860028148976337e-05
824 825 -0.00060242279754049754
825 825 1.8533239472655858
826 826 1.8616562322667944
827 826 -0.042130431479414886
828 826 -0.027111336972613094
829 826 0.017228122268271574
830 826 -0.0073210322101320393
831 826 0.030378932735109714
832 826 -0.0083183837382769434
826 827 -0.042130431479414886
827 827 1.8610981047837931
828 827 0.00030685845669631566
829 827 -0.00019499573246268065
830 827 8.2862776103387673e-05
831 827 -0.00034384259339898053
832 827 9.4151254831655994e-05
826 828 -0.027111336972613094
827 828 0.00030685845669631566
828 828 1.8608187197384249
829 828 -0.00012548162516684165
830 828 5.3322991636646178e-05
831 828 -0.00022126600862684581
832 828 6.0587236031099926e-05
826 829 0.017228122268271574
827 829 -0.00019499573246268065
828 829 -0.00012548162516684165
829 829 1.8607009917084105
830 829 -3.3884534007089188e-05
831 829 0.00014060530671307272
832 829 -3.8500657909081815e-05
826 830 -0.0073210322101320393
827 830 8.2862776103387673e-05
828 830 5.3322991636646178e-05
829 830 -3.3884534007089188e-05
830 830 1.8606356524946612
831 830 -5.9749748889213859e-05
832 830 1.6360724185407184e-05
826 831 0.030378932735109714
827 831 -0.00034384259339898053
828 831 -0.00022126600862684581
829 831 0.00014060530671307272
830 831 -5.9749748889213859e-05
831 831 1.8608691874863041
832 831 -6.7889516841396788e-05
826 832 -0.0083183837382769434
827 832 9.4151254831655994e-05
828 832 6.0587236031099926e-05
829 832 -3.8500657909081815e-05
830 832 1.6360724185407184e-05
831 832 -6.7889516841396788e-05
832 832 1.8606398429386717
833 833 1.8617637952604815
834 833 -0.0188776690651054
835 833 -0.00095919583281838428
836 833 0.041505980018567881
837 833 -0.029594246563115774
838 833 -0.0043426502974535227
839 833 0.031847435920236145
833 834 -0.0188776690651054
834 834 1.8607879331803068
835 834 4.8643641533020971e-06
836 834 -0.00021048903095914807
837 834 0.00015008112754474534
838 834 2.2022856766579906e-05
839 834 -0.00016150771340383275
833 835 -0.00095919583281838428
834 835 4.8643641533020971e-06
835 835 1.8606924461327132
836 835 -1.0695187030436877e-05
837 835 7.6257927622909309e-06
838 835 1.1190063966269481e-06
839 835 -8.2063905840653287e-06
833 836 0.041505980018567881
834 836 -0.00021048903095914807
835 836 -1.0695187030436877e-05
836 836 1.8611549972880055
837 836 -0.00032998058497332586
838 836 -4.8421245745593033e-05
839 836 0.00035510400686996268
833 837 -0.029594246563115774
834 837 0.00015008112754474534
835 837 7.6257927622909309e-06
836 837 -0.00032998058497332586
837 837 1.8609274789643568
838 837 3.4524911466907819e-05
839 837 -0.00025319328757347184
833 838 -0.0043426502974535227
834 838 2.2022856766579906e-05
835 838 1.1190063966269481e-06
836 838 -4.8421245745593033e-05
837 838 3.4524911466907819e-05
838 838 1.8606972651433309
839 838 -3.7153502227171107e-05
833 839 0.031847435920236145
834 839 -0.00016150771340383275
835 839 -8.2063905840653287e-06
836 839 0.00035510400686996268
837 839 -0.00025319328757347184
838 839 -3.7153502227171107e-05
839 839 1.8609646693959616
840 840 1.8613147650180173
841 840 -0.025065664146685377
842 840 -0.010125326672615426
843 840 0.0092459411948026433
844 840 0.01077126921116155
845 840 0.0030600498671827675
846 840 0.0062272453048696262
840 841 -0.025065664146685377
841 841 1.8612201551956868
842 841 6.8181911364376357e-05
843 841 -6.2260306596254505e-05
844 841 -7.2531558376629833e-05
845 841 -2.0605759750853972e-05
846 841 -4.193301620274312e-05
840 842 -0.010125326672615426
841 842 6.8181911364376357e-05
842 842 1.8610789102831524
843 842 -2.5150179118937613e-05
844 842 -2.9299272436568126e-05
845 842 -8.3237391035743668e-06
846 842 -1.6938928285967472e-05
840 843 0.0092459411948026433
841 843 -6.2260306596254505e-05
842 843 -2.5150179118937613e-05
843 843 1.8610743339435232
844 843 2.6754628147620658e-05
845 843 7.6008216584925731e-06
846 843 1.5467780931810625e-05
840 844 0.01077126921116155
841 844 -7.2531558376629833e-05
842 844 -2.9299272436568126e-05
843 844 2.6754628147620658e-05
844 844 1.8610825364713643
845 844 8.8547498393859787e-06
846 844 1.8019542738326894e-05
840 845 0.0030600498671827675
841 845 -2.0605759750853972e-05
842 845 -8.3237391035743668e-06
843 845 7.6008216584925731e-06
844 845 8.8547498393859787e-06
845 845 1.8610538836383499
846 845 5.1192388085493943e-06
840 846 0.0062272453048696262
841 846 -4.193301620274312e-05
842 846 -1.6938928285967472e-05
843 846 1.5467780931810625e-05
844 846 1.8019542738326894e-05
845 846 5.1192388085493943e-06
846 846 1.8610617857838794
847 847 1.8621528849004583
848 847 -0.032437550743365406
849 847 0.0097349252252332853
850 847 -0.039804226760249167
851 847 -0.036511717201721652
852 847 -0.026868501737123299
853 847 -0.031389862844235096
847 848 -0.032437550743365406
848 848 1.8608851436413969
849 848 -8.4823497089543814e-05
850 848 0.00034682687690275793
851 848 0.00031813819481292077
852 848 0.00023411379401167055
853 848 0.00027350985015350745
847 849 0.0097349252252332853
848 849 -8.4823497089543814e-05
849 849 1.8606279615735939
850 849 -0.00010408719633186588
851 849 -9.5477354696021151e-05
852 849 -7.0260553792441654e-05
853 849 -8.2083815781120519e-05
847 850 -0.039804226760249167
848 850 0.00034682687690275793
849 850 -0.00010408719633186588
850 850 1.8610280973716373
851 850 0.00039038844047187786
852 850 0.00028728181786193574
853 850 0.00033562484981695836
847 851 -0.036511717201721652
848 851 0.00031813819481292077
849 851 -9.5477354696021151e-05
850 851 0.00039038844047187786
851 851 1.860960601404632
852 851 0.0002635185593266338
853 851 0.00030786277236830755
847 852 -0.026868501737123299
848 852 0.00023411379401167055
849 852 -7.0260553792441654e-05
850 852 0.00028728181786193574
851 852 0.0002635185593266338
852 852 1.8607964248624165
853 852 0.00022655224317369058
847 853 -0.031389862844235096
848 853 0.00027350985015350745
849 853 -8.2083815781120519e-05
850 853 0.00033562484981695836
851 853 0.00030786277236830755
852 853 0.00022655224317369058
853 853 1.860867180814983
854 854 1.8613869305468773
855 854 0.011084160581535054
856 854 0.013306158169489437
857 854 0.02065925364720721
858 854 0.0091290190557544258
859 854 -0.031962143212180841
860 854 0.0072483840089383866
854 855 0.011084160581535054
855 855 1.8609137471489052
856 855 3.962304887712662e-05
857 855 6.1519080609249735e-05
858 855 2.7184373102958332e-05
859 855 -9.51768005898096e-05
860 855 2.1584222147974721e-05
854 856 0.013306158169489437
855 856 3.962304887712662e-05
856 856 1.8609283068835132
857 856 7.3851566025839868e-05
858 856 3.2633916261458847e-05
859 856 -0.00011425651526771477
860 856 2.5911125317400777e-05
854 857 0.02065925364720721
855 857 6.1519080609249735e-05
856 857 7.3851566025839868e-05
857 857 1.8609954033252747
858 857 5.0667694232967874e-05
859 857 -0.00017739563138323148
860 857 4.0229832187339381e-05
854 858 0.0091290190557544258
855 858 2.7184373102958332e-05
856 858 3.2633916261458847e-05
857 858 5.0667694232967874e-05
858 858 1.8609031300653511
859 858 -7.8388509428269258e-05
860 858 1.7776968661095431e-05
854 859 -0.031962143212180841
855 859 -9.51768005898096e-05
856 859 -0.00011425651526771477
857 859 -0.00017739563138323148
858 859 -7.8388509428269258e-05
859 859 1.8611551913604127
860 859 -6.2239986000054117e-05
854 860 0.0072483840089383866
855 860 2.1584222147974721e-05
856 860 2.5911125317400777e-05
857 860 4.0229832187339381e-05
858 860 1.7776968661095431e-05
859 860 -6.2239986000054117e-05
860 860 1.8608948555615006
861 861 1.8622510960995204
862 861 -0.021991764996308338
863 861 -0.018036294511047886
864 861 0.010790941291895947
865 861 0.071360329368168662
866 861 0.0080446112937274123
867 861 0.013013899318434833
861 862 -0.021991764996308338
862 862 1.8607017002603912
863 862 0.00010654547975157389
864 862 -6.3745134357385508e-05
865 862 -0.00042154559646964462
866 862 -4.7521788313009713e-05
867 862 -7.6876774521063293e-05
861 863 -0.018036294511047886
862 863 0.00010654547975157389
863 863 1.8606591707571452
864 863 -5.2279842800662971e-05
865 863 -0.00034572579913609303
866 863 -3.8974451111540941e-05
867 863 -6.3049607275908852e-05
861 864 0.010790941291895947
862 864 -6.3745134357385508e-05
863 864 -5.2279842800662971e-05
864 864 1.8606030672270586
865 864 0.00020684441581313707
866 864 2.3318038723025508e-05
867 864 3.7721972779646061e-05
861 865 0.071360329368168662
862 865 -0.00042154559646964462
863 865 -0.00034572579913609303
864 865 0.00020684441581313707
865 865 1.8619396476520593
866 865 0.00015420183267464082
867 865 0.00024945482781879564
861 866 0.0080446112937274123
862 866 -4.7521788313009713e-05
863 866 -3.8974451111540941e-05
864 866 2.3318038723025508e-05
865 866 0.00015420183267464082
866 866 1.8605891722219243
867 866 2.8121606821521465e-05
861 867 0.013013899318434833
862 867 -7.6876774521063293e-05
863 867 -6.3049607275908852e-05
864 867 3.7721972779646061e-05
865 867 0.00024945482781879564
866 867 2.8121606821521465e-05
867 867 1.8606172814841271
868 868 1.8617256911647948
869 868 -0.0031151002520421306
870 868 -0.0086825518455192624
871 868 -0.029288426018672691
872 868 0.047717446401485404
873 868 -0.011236361699665409
874 868 -0.0034875820238371566
868 869 -0.0031151002520421306
869 869 1.8608261537417303
870 869 7.2657251018456007e-06
871 869 2.4509113899185858e-05
872 869 -3.9930869896753255e-05
873 869 9.4028019304954626e-06
874 869 2.9184752024735712e-06
868 870 -0.0086825518455192624
869 870 7.2657251018456007e-06
870 870 1.860843798332243
871 870 6.8312938557246766e-05
872 870 -0.00011129717186082893
873 870 2.6207925475642541e-05
874 870 8.134509391383914e-06
868 871 -0.029288426018672691
869 871 2.4509113899185858e-05
870 871 6.8312938557246766e-05
871 871 1.8610539836493603
872 871 -0.00037543328760145626
873 871 8.8405908775813138e-05
874 871 2.7439741304936323e-05
868 872 0.047717446401485404
869 872 -3.9930869896753255e-05
870 872 -0.00011129717186082893
871 872 -0.00037543328760145626
872 872 1.8614352123992424
873 872 -0.00014403314848312386
874 872 -4.4705522384649548e-05
868 873 -0.011236361699665409
869 873 9.4028019304954626e-06
870 873 2.6207925475642541e-05
871 873 8.8405908775813138e-05
872 873 -0.00014403314848312386
873 873 1.86085746346182
874 873 1.052712283176104e-05
868 874 -0.0034875820238371566
869 874 2.9184752024735712e-06
870 874 8.134509391383914e-06
871 874 2.7439741304936323e-05
872 874 -4.4705522384649548e-05
873 874 1.052712283176104e-05
874 874 1.8608268144123181
875 875 1.8618078374098714
876 875 -0.045885533334241078
877 875 -0.0092128045771590252
878 875 -0.0080822486546301333
879 875 -0.027693781091360774
880 875 0.019145832995060723
881 875 -0.017370522926842283
875 876 -0.045885533334241078
876 876 1.8613819437581367
877 876 0.00011355818635311707
878 876 9.9622812053367599e-05
879 876 0.00034135702409145889
880 876 -0.00023599394222787432
881 876 0.00021411124734675886
875 877 -0.0092128045771590252
876 877 0.00011355818635311707
877 877 1.8608391528939812
878 877 2.0002066712164072e-05
879 877 6.8536972886144851e-05
880 877 -4.7382386411456165e-05
881 877 4.2988823192024768e-05
875 878 -0.0080822486546301333
876 878 9.9622812053367599e-05
877 878 2.0002066712164072e-05
878 878 1.8608339004097489
879 878 6.0126409093145413e-05
880 878 -4.1567822873026775e-05
881 878 3.7713418915808336e-05
875 879 -0.027693781091360774
876 879 0.00034135702409145889
877 879 6.8536972886144851e-05
878 879 6.0126409093145413e-05
879 879 1.8610223757249971
880 879 -0.00014243191917024029
881 879 0.00012922482495794687
875 880 0.019145832995060723
876 880 -0.00023599394222787432
877 880 -4.7382386411456165e-05
878 880 -4.1567822873026775e-05
879 880 -0.00014243191917024029
880 880 1.860914821867935
881 880 -8.9338357564782664e-05
875 881 -0.017370522926842283
876 881 0.00021411124734675886
877 881 4.2988823192024768e-05
878 881 3.7713418915808336e-05
879 881 0.00012922482495794687
880 881 -8.9338357564782664e-05
881 881 1.8608974073100832
882 882 1.8646234759962736
883 882 -0.05002959241885329
884 882 -0.06017564116907792
885 882 -0.071610744298180276
886 882 -0.048298610455701704
887 882 -0.062441816812319008
888 882 0.0090024536129429469
882 883 -0.05002959241885329
883 883 1.8605794803422611
884 883 0.00080830656339602543
885 883 0.00096190806614351171
886 883 0.00064876888847032138
887 883 0.00083874686466499241
888 883 -0.00012092504875127614
882 884 -0.06017564116907792
883 884 0.00080830656339602543
884 884 1.8608796920176887
885 884 0.0011569839334545661
886 884 0.00078033983382082511
887 884 0.0010088455236095363
888 884 -0.00014544876322573956
882 885 -0.071610744298180276
883 885 0.00096190806614351171
884 885 0.0011569839334545661
885 885 1.8612843042855631
886 885 0.00092862685332121848
887 885 0.0012005551984827039
888 885 -0.00017308821292954084
882 886 -0.048298610455701704
883 886 0.00064876888847032138
884 886 0.00078033983382082511
885 886 0.00092862685332121848
886 886 1.8605337821460144
887 886 0.00080972692618078602
888 886 -0.00011674114342322067
882 887 -0.062441816812319008
883 887 0.00083874686466499241
884 887 0.0010088455236095363
885 887 0.0012005551984827039
886 887 0.00080972692618078602
887 887 1.86095429810943
888 887 -0.0001509262693753722
882 888 0.0090024536129429469
883 888 -0.00012092504875127614
884 888 -0.00014544876322573956
885 888 -0.00017308821292954084
886 888 -0.00011674114342322067
887 888 -0.0001509262693753722
888 888 1.8599292196817681
889 889 1.8663930738334908
890 889 -0.10065490107895578
891 889 -0.080709516357519259
892 889 -0.087894510199870546
893 889 -0.055729008881259437
894 889 -0.028019881878457973
895 889 -0.056798098352812305
889 890 -0.10065490107895578
890 890 1.8606588015543215
891 890 0.0021812795893931237
892 890 0.0023754633873583069
893 890 0.0015061489040687852
894 890 0.00075727372925822893
895 890 0.0015350424366877067
889 891 -0.080709516357519259
890 891 0.0021812795893931237
891 891 1.8596875177048531
892 891 0.0019047507777916574
893 891 0.0012076962801289201
894 891 0.00060721530480411959
895 891 0.0012308643824124254
889 892 -0.087894510199870546
890 892 0.0023754633873583069
891 892 0.0019047507777916574
892 892 1.8600127892006093
893 892 0.0013152088849340221
894 892 0.000661271361919776
895 892 0.0013404394784795066
889 893 -0.055729008881259437
890 893 0.0015061489040687852
891 893 0.0012076962801289201
892 893 0.0013152088849340221
893 893 1.8587723726492056
894 893 0.00041927530533532678
895 893 0.00084989794506056882
889 894 -0.028019881878457973
890 894 0.00075727372925822893
891 894 0.00060721530480411959
892 894 0.000661271361919776
893 894 0.00041927530533532678
894 894 1.8581492786464737
895 894 0.00042731856366011011
889 895 -0.056798098352812305
890 895 0.0015350424366877067
891 895 0.0012308643824124254
892 895 0.0013404394784795066
893 895 0.00084989794506056882
894 895 0.00042731856366011011
895 895 1.8588046741626791
896 896 1.8641775831152423
897 896 -0.052450936424185537
898 896 -0.054655781563107464
899 896 -0.075139110338885248
900 896 -0.063715025732958272
901 896 -0.057872587688569822
902 896 0.0017180407844191582
896 897 -0.052450936424185537
897 897 1.8598682599459608
898 897 0.00076994643668115497
899 897 0.0010584990024160141
900 897 0.00089756574003971041
901 897 0.00081526219913044117
902 897 -2.4202368755976475e-05
896 898 -0.054655781563107464
897 898 0.00076994643668115497
898 898 1.8599316857470689
899 898 0.0011029944211661457
900 898 0.00093529611424665962
901 898 0.00084953283411324588
902 898 -2.521974763879476e-05
896 899 -0.075139110338885248
897 899 0.0010584990024160141
898 899 0.0011029944211661457
899 899 1.8606457368514135
900 899 0.001285816722733454
901 899 0.0011679119671033724
902 899 -3.4671343933893241e-05
896 900 -0.063715025732958272
897 900 0.00089756574003971041
898 900 0.00093529611424665962
899 900 0.001285816722733454
900 900 1.8602196958569923
901 900 0.00099034365328799388
902 900 -2.939994313189293e-05
896 901 -0.057872587688569822
897 901 0.00081526219913044117
898 901 0.00084953283411324588
899 901 0.0011679119671033724
900 901 0.00099034365328799388
901 901 1.8600289062963566
902 901 -2.6704074390090371e-05
896 902 0.0017180407844191582
897 902 -2.4202368755976475e-05
898 902 -2.521974763879476e-05
899 902 -3.4671343933893241e-05
900 902 -2.939994313189293e-05
901 902 -2.6704074390090371e-05
902 902 1.8591301663373496
903 903 1.8616626227884054
904 903 -0.014833344290890508
905 903 0.00838712041590714
906 903 0.028641051695821113
907 903 -0.034702456169567589
908 903 -0.020790358446623674
909 903 -0.00067590553643458856
903 904 -0.014833344290890508
904 904 1.8609836299674289
905 904 -3.3420048971724118e-05
906 904 -0.00011412562391027694
907 904 0.00013827842300039527
908 904 8.2843069250331157e-05
909 904 2.6932719464789321e-06
903 905 0.00838712041590714
904 905 -3.3420048971724118e-05
905 905 1.8609434202132742
906 905 6.4529301788259088e-05
907 905 -7.8185860307866773e-05
908 905 -4.6841412415173478e-05
909 905 -1.5228390634589193e-06
903 906 0.028641051695821113
904 906 -0.00011412562391027694
905 906 6.4529301788259088e-05
906 906 1.8611448838792282
907 906 -0.0002669957215247229
908 906 -0.00015995803660381289
909 906 -5.2003202741933332e-06
903 907 -0.034702456169567589
904 907 0.00013827842300039527
905 907 -7.8185860307866773e-05
906 907 -0.0002669957215247229
907 907 1.8612480246807315
908 907 0.00019381050714083298
909 907 6.3008819752676366e-06
903 908 -0.020790358446623674
904 908 8.2843069250331157e-05
905 908 -4.6841412415173478e-05
906 908 -0.00015995803660381289
907 908 0.00019381050714083298
908 908 1.8610406362625496
909 908 3.7748796268364163e-06
903 909 -0.00067590553643458856
904 909 2.6932719464789321e-06
905 909 -1.5228390634589193e-06
906 909 -5.2003202741933332e-06
907 909 6.3008819752676366e-06
908 909 3.7748796268364163e-06
909 909 1.8609246464578653
910 910 1.8624515327885054
911 910 0.032016764587036027
912 910 0.021525770258018505
913 910 0.074150755688148287
914 910 0.0039527254405985991
915 910 0.013618707800771864
916 910 0.021630168351924727
910 911 0.032016764587036027
911 911 1.8606704627087547
912 911 0.0001851232628967155
913 911 0.00063770214374251157
914 911 3.3993739695604672e-05
915 911 0.00011712192382879759
916 911 0.00018602109445175211
910 912 0.021525770258018505
911 912 0.0001851232628967155
912 912 1.8605195796661804
913 912 0.0004287450657898592
914 912 2.2854946161385743e-05
915 912 7.8744359620168487e-05
916 912 0.00012506720756959134
910 913 0.074150755688148287
911 913 0.00063770214374251157
912 913 0.0004287450657898592
913 913 1.8618720328448337
914 913 7.8729425649584099e-05
915 913 0.00027125411551021035
916 913 0.00043082444167762731
910 914 0.0039527254405985991
911 914 3.3993739695604672e-05
912 914 2.2854946161385743e-05
913 914 7.8729425649584099e-05
914 914 1.8603993128948038
915 914 1.4459637441235831e-05
916 914 2.296579064160541e-05
910 915 0.013618707800771864
911 915 0.00011712192382879759
912 915 7.8744359620168487e-05
913 915 0.00027125411551021035
914 915 1.4459637441235831e-05
915 915 1.8604449352853485
916 915 7.9126262843684929e-05
910 916 0.021630168351924727
911 916 0.00018602109445175211
912 916 0.00012506720756959134
913 916 0.00043082444167762731
914 916 2.296579064160541e-05
915 916 7.9126262843684929e-05
916 916 1.8605207898685219
917 917 1.8631605218283218
918 917 0.043144530386925103
919 917 0.018627732212311891
920 917 0.091915350581318112
921 917 0.028940801802777472
922 917 -0.0033173510599810389
923 917 0.018136871162562754
917 918 0.043144530386925103
918 918 1.8604818853903813
919 918 0.00021586194229808106
920 918 0.0010651337413138551
921 918 0.000335371886261189
922 918 -3.8442137503931353e-05
923 918 0.00021017374480900125
917 919 0.018627732212311891
918 919 0.00021586194229808106
919 919 1.8600751166138743
920 919 0.00045987349788155718
921 919 0.00014479744321668552
922 919 -1.6597465233023262e-05
923 919 9.0742909964487773e-05
917 920 0.091915350581318112
918 920 0.0010651337413138551
919 920 0.00045987349788155718
920 920 1.8622510847366225
921 920 0.00071447815573296542
922 920 -8.1897346293515041e-05
923 920 0.00044775532990763977
917 921 0.028940801802777472
918 921 0.000335371886261189
919 921 0.00014479744321668552
920 921 0.00071447815573296542
921 921 1.8602068810063377
922 921 -2.5786496512975181e-05
923 921 0.00014098187274529147
917 922 -0.0033173510599810389
918 922 -3.8442137503931353e-05
919 922 -1.6597465233023262e-05
920 922 -8.1897346293515041e-05
921 922 -2.5786496512975181e-05
922 922 1.8599848736014821
923 922 -1.6160103931357577e-05
917 923 0.018136871162562754
918 923 0.00021017374480900125
919 923 9.0742909964487773e-05
920 923 0.00044775532990763977
921 923 0.00014098187274529147
922 923 -1.6160103931357577e-05
923 923 1.8600702695493048
924 924 1.8621387388863708
925 924 0.003264446247542067
926 924 0.049664921223246818
927 924 0.052110219388842659
928 924 -0.005502983310943667
929 924 -0.010823362633392274
930 924 -0.0007823002644728311
924 925 0.003264446247542067
925 925 1.8607070052537595
926 925 4.3549639583484271e-05
927 925 4.569384622195183e-05
928 925 -4.8253965560172983e-06
929 925 -9.4906732993056021e-06
930 925 -6.8597500458551993e-07
924 926 0.049664921223246818
925 926 4.3549639583484271e-05
926 926 1.861366702122224
927 926 0.00069518108154150197
928 926 -7.3413045169902849e-05
929 926 -0.00014439004536235994
930 926 -1.0436347233319605e-05
924 927 0.052110219388842659
925 927 4.569384622195183e-05
926 927 0.00069518108154150197
927 927 1.8614335517241423
928 927 -7.7027604103316436e-05
929 927 -0.00015149922230976267
930 927 -1.0950190407064791e-05
924 928 -0.005502983310943667
925 928 -4.8253965560172983e-06
926 928 -7.3413045169902849e-05
927 928 -7.7027604103316436e-05
928 928 1.8607122770894617
929 928 1.5998736941991685e-05
930 928 1.1563703966027629e-06
924 929 -0.010823362633392274
925 929 -9.4906732993056021e-06
926 929 -0.00014439004536235994
927 929 -0.00015149922230976267
928 929 1.5998736941991685e-05
929 929 1.860735609353577
930 929 2.2743692709482524e-06
924 930 -0.0007823002644728311
925 930 -6.8597500458551993e-07
926 930 -1.0436347233319605e-05
927 930 -1.0950190407064791e-05
928 930 1.1563703966027629e-06
929 930 2.2743692709482524e-06
930 930 1.8607043071502085
931 931 1.8619998431836378
932 931 -0.012353793491074553
933 931 -0.021136125569552796
934 931 0.039391872369689523
935 931 -0.03078860026795098
936 931 -0.031573054420643031
937 931 -0.017254891581513838
931 932 -0.012353793491074553
932 932 1.8608606575847988
933 932 7.0138058014508574e-05
934 932 -0.0001307178754438039
935 932 0.00010216880216163242
936 932 0.0001047719325551467
937 932 5.7258582363914267e-05
931 933 -0.021136125569552796
932 933 7.0138058014508574e-05
933 933 1.8609396621108039
934 933 -0.00022364542774343254
935 933 0.00017480077138566671
936 933 0.00017925447145042726
937 933 9.7963802588463527e-05
931 934 0.039391872369689523
932 934 -0.0001307178754438039
933 934 -0.00022364542774343254
934 934 1.8612364758034698
935 934 -0.00032578012719921347
936 934 -0.00033408058813026752
937 934 -0.00018257734113640887
931 935 -0.03078860026795098
932 935 0.00010216880216163242
933 935 0.00017480077138566671
934 935 -0.00032578012719921347
935 935 1.8610742918186269
936 935 0.00026111664834544264
937 935 0.00014270204577936191
931 936 -0.031573054420643031
932 936 0.0001047719325551467
933 936 0.00017925447145042726
934 936 -0.00033408058813026752
935 936 0.00026111664834544264
936 936 1.861087432358723
937 936 0.00014633791137360906
931 937 -0.017254891581513838
932 937 5.7258582363914267e-05
933 937 9.7963802588463527e-05
934 937 -0.00018257734113640887
935 937 0.00014270204577936191
936 937 0.00014633791137360906
937 937 1.8608996374680933
938 938 1.8661204971320253
939 938 -0.08604354259763615
940 938 -0.02917475856224179
941 938 -0.087891477386111153
942 938 -0.099858574955661153
943 938 -0.016257459568219203
944 938 -0.050578897544355648
938 939 -0.08604354259763615
939 939 1.8603827459086333
940 939 0.00067399359763876227
941 939 0.0020304638654976793
942 939 0.0023069270666236639
943 939 0.00037557889774731383
944 939 0.0011684707877802967
938 940 -0.02917475856224179
939 940 0.00067399359763876227
940 940 1.8586235037365277
941 940 0.00068846878286109075
942 940 0.0007822090787704863
943 940 0.00012734742587355776
944 940 0.00039619304472313956
938 941 -0.087891477386111153
939 941 0.0020304638654976793
940 941 0.00068846878286109075
941 941 1.8604690445364536
942 941 0.0023564723393098858
943 941 0.00038364510806375684
944 941 0.0011935657310249432
938 942 -0.099858574955661153
939 942 0.0023069270666236639
940 942 0.0007822090787704863
941 942 0.0023564723393098858
942 942 1.8610722970167091
943 942 0.00043588132682829695
944 942 0.0013560788436001096
938 943 -0.016257459568219203
939 943 0.00037557889774731383
940 943 0.00012734742587355776
941 943 0.00038364510806375684
942 943 0.00043588132682829695
943 943 1.8584659365173095
944 943 0.00022077620255381368
938 944 -0.050578897544355648
939 944 0.0011684707877802967
940 944 0.00039619304472313956
941 944 0.0011935657310249432
942 944 0.0013560788436001096
943 944 0.00022077620255381368
944 944 1.8590818340491175
945 945 1.8663081672610076
946 945 -0.075836662240039807
947 945 -0.065335260044012994
948 945 -0.070024200528240099
949 945 -0.0963488875868308
950 945 -0.010828857822890709
951 945 -0.077722853916555854
945 946 -0.075836662240039807
946 946 1.8596996185637009
947 946 0.0013303413745954281
948 946 0.0014258164905585496
949 946 0.0019618336479667901
950 946 0.0002204946852847643
951 946 0.0015825746809177267
945 947 -0.065335260044012994
946 947 0.0013303413745954281
947 947 1.8593015738284031
948 947 0.0012283780487440917
949 947 0.0016901707929509954
950 947 0.0001899619151988053
951 947 0.0013634293132463197
945 948 -0.070024200528240099
946 948 0.0014258164905585496
947 948 0.0012283780487440917
948 948 1.8594719856030397
949 948 0.0018114699237876586
950 948 0.00020359498429559872
951 948 0.0014612790639009581
945 949 -0.0963488875868308
946 949 0.0019618336479667901
947 949 0.0016901707929509954
948 949 0.0018114699237876586
949 949 1.8606479185505946
950 949 0.00028013386953597871
951 949 0.0020106279143308806
945 950 -0.010828857822890709
946 950 0.0002204946852847643
947 950 0.0001899619151988053
948 950 0.00020359498429559872
949 950 0.00028013386953597871
950 950 1.8581869349247118
951 950 0.00022597877738237993
945 951 -0.077722853916555854
946 951 0.0015825746809177267
947 951 0.0013634293132463197
948 951 0.0014612790639009581
949 951 0.0020106279143308806
950 951 0.00022597877738237993
951 951 1.8597773861863665
952 952 1.8613065905161517
953 952 -0.040517060134099975
954 952 -0.055762210829794288
955 952 -0.050503380749646623
956 952 -0.0055389943302332238
957 952 -0.058289005927385805
958 952 0.0016179810514312849
952 953 -0.040517060134099975
953 953 1.8588626154559256
954 953 0.00060738874603063857
955 953 0.00055010704646318842
956 953 6.0333382956788798e-05
957 953 0.00063491181018042735
958 953 -1.7623825657305052e-05
952 954 -0.055762210829794288
953 954 0.00060738874603063857
954 954 1.8592572120619548
955 954 0.00075709306159700617
956 954 8.303472190174264e-05
957 954 0.0008738068877759107
958 954 -2.4255054011262914e-05
952 955 -0.050503380749646623
953 955 0.00055010704646318842
954 955 0.00075709306159700617
955 955 1.859106977230724
956 955 7.5203872178684924e-05
957 955 0.00079139979025780237
958 955 -2.1967605114744578e-05
952 956 -0.0055389943302332238
953 956 6.0333382956788798e-05
954 956 8.303472190174264e-05
955 956 7.5203872178684924e-05
956 956 1.858429532241783
957 956 8.6797336853858083e-05
958 956 -2.4093127702193281e-06
952 957 -0.058289005927385805
953 957 0.00063491181018042735
954 957 0.0008738068877759107
955 957 0.00079139979025780237
956 957 8.6797336853858083e-05
957 957 1.8593346865614564
958 957 -2.5354141559182191e-05
952 958 0.0016179810514312849
953 958 -1.7623825657305052e-05
954 958 -2.4255054011262914e-05
955 958 -2.1967605114744578e-05
956 958 -2.4093127702193281e-06
957 958 -2.5354141559182191e-05
958 958 1.8584219879814357
959 959 13.10884278869376
960 960 13.51156662303233
961 961 13.922801130960636
962 962 16.001573700727906
963 963 19.159124533466976
964 964 18.864826301532219
965 965 16.52167881642356
966 966 13.513549231589963
967 967 11.900302919138687
968 968 12.651685817787603
969 969 14.158808669798679
970 970 13.274426172081164
971 971 10.546829220197999
972 972 8.9400640033789394
973 973 6.80807775969628
974 974 5.9291619522832013
975 975 1.0834098150737344
976 975 -0.990333750742032
977 975 -0.75784287550276686
975 976 -0.990333750742032
976 976 9.5626469874877671
977 976 -0.55553566352442452
975 977 -0.75784287550276686
976 977 -0.55553566352442452
977 977 2.7639184956219176
978 978 2.0442100443825844
979 978 -1.8418377601167675
980 978 -1.6200215435700072
978 979 -1.8418377601167675
979 979 10.287095029641916
980 979 0.10057286468608106
978 980 -1.6200215435700072
979 980 0.10057286468608106
980 980 4.4108656625513429
981 981 2.3873122369112476
982 981 -2.1205503609641214
983 981 -1.7198121265190036
981 982 -2.1205503609641214
982 982 10.415662598693803
983 982 0.41152720943628895
981 983 -1.7198121265190036
982 983 0.41152720943628895
983 983 4.3649600968160147
984 984 2.4154231063163398
985 984 -2.0627154144309028
986 984 -1.4039107642247832
984 985 -2.0627154144309028
985 985 10.035259207510256
986 985 0.46832305452811623
984 986 -1.4039107642247832
985 986 0.46832305452811623
986 986 3.4799411495981101
987 987 2.3756127825466073
988 987 -1.6393787530034607
989 987 -0.71071679730358439
987 988 -1.6393787530034607
988 988 9.0098830324155657
989 988 0.40963867123160369
987 989 -0.71071679730358439
988 989 0.40963867123160369
989 989 1.6920204587999927
990 990 1.9028604389122581
991 990 0.35778087261371649
992 990 -0.40982821622328031
993 990 0.10714492259582256
994 990 -0.13619035696150486
995 990 0.0084537563612941038
996 990 -0.041586072026846228
990 991 0.35778087261371649
991 991 1.849118563263102
992 991 -0.039442338112656711
993 991 0.010311750379277094
994 991 -0.013107116333914218
995 991 0.00081359921919705951
996 991 -0.0040022913228759515
990 992 -0.40982821622328031
991 992 -0.039442338112656711
992 992 1.859865442140161
993 992 -0.01181182837753761
994 992 0.015013843718690587
995 992 -0.00093195568082864958
996 992 0.0045845153813772674
990 993 0.10714492259582256
991 993 0.010311750379277094
992 993 -0.01181182837753761
993 993 1.8177733893533428
994 993 -0.0039251985574084054
995 993 0.00024364920552644601
996 993 -0.0011985693669500988
990 994 -0.13619035696150486
991 994 -0.013107116333914218
992 994 0.015013843718690587
993 994 -0.0039251985574084054
994 994 1.8196745842133906
995 994 -0.00030969897098350688
996 994 0.0015234841369368174
990 995 0.0084537563612941038
991 995 0.00081359921919705951
992 995 -0.00093195568082864958
993 995 0.00024364920552644601
994 995 -0.00030969897098350688
995 995 1.8147045452348207
996 995 -9.4567368801306989e-05
990 996 -0.041586072026846228
991 996 -0.0040022913228759515
992 996 0.0045845153813772674
993 996 -0.0011985693669500988
994 996 0.0015234841369368174
995 996 -9.4567368801306989e-05
996 996 1.8151505210201808
997 997 1.9095540209629027
998 997 0.32728614496710445
999 997 -0.38532661232952364
1000 997 0.021604608824434466
1001 997 -0.18503261674725863
1002 997 -0.042035937294414558
1003 997 -0.041554098332182023
997 998 0.32728614496710445
998 998 1.8596486932119705
999 998 -0.033714697109120784
1000 998 0.0018903258154771283
1001 998 -0.016189690588012045
1002 998 -0.0036779938063743059
1003 998 -0.0036358346246639318
997 999 -0.38532661232952364
998 999 -0.033714697109120784
999 999 1.870705943268052
1000 999 -0.0022255535526872271
1001 999 0.019060747681723188
1002 999 0.0043302440857116856
1003 999 0.0042806084536604842
997 1000 0.021604608824434466
998 1000 0.0018903258154771283
999 1000 -0.0022255535526872271
1000 1000 1.8311371119193218
1001 1000 -0.0010687037551735785
1002 1000 -0.00024278943263362503
1003 1000 -0.00024000644703152315
997 1001 -0.18503261674725863
998 1001 -0.016189690588012045
999 1001 0.019060747681723188
1000 1001 -0.0010687037551735785
1001 1001 1.8401652394751986
1002 1001 0.0020793694717570459
1003 1001 0.0020555345987208601
997 1002 -0.042035937294414558
998 1002 -0.0036779938063743059
999 1002 0.0043302440857116856
1000 1002 -0.00024278943263362503
1001 1002 0.0020793694717570459
1002 1002 1.8314847226231947
1003 1002 0.00046697887657479626
997 1003 -0.041554098332182023
998 1003 -0.0036358346246639318
999 1003 0.0042806084536604842
1000 1003 -0.00024000644703152315
1001 1003 0.0020555345987208601
1002 1003 0.00046697887657479626
1003 1003 1.831473955019508
1004 1004 1.8614870580512448
1005 1004 -0.29414390164137111
1006 1004 0.047649323450165107
1007 1004 -0.15657405285017115
1008 1004 -0.064689177124761008
1009 1004 -0.092556119193553721
1010 1004 -0.036419926502189663
1004 1005 -0.29414390164137111
1005 1005 1.8504082144452698
1006 1005 -0.0037999168882872679
1007 1005 0.012486397384323972
1008 1005 0.0051588035012264995
1009 1005 0.0073811239063184516
1010 1005 0.0029043999739176152
1004 1006 0.047649323450165107
1005 1006 -0.0037999168882872679
1006 1006 1.8275665192693611
1007 1006 -0.0020227119595984397
1008 1006 -0.00083569129012740426
1009 1006 -0.001195692171332941
1010 1006 -0.00047049316002676804
1004 1007 -0.15657405285017115
1005 1007 0.012486397384323972
1006 1007 -0.0020227119595984397
1007 1007 1.833597520983721
1008 1007 0.0027460530969277068
1009 1007 0.003929003722846585
1010 1007 0.0015460244882746588
1004 1008 -0.064689177124761008
1005 1008 0.0051588035012264995
1006 1008 -0.00083569129012740426
1007 1008 0.0027460530969277068
1008 1008 1.82808550090963
1009 1008 0.0016232831246584822
1010 1008 0.00063874601276956127
1004 1009 -0.092556119193553721
1005 1009 0.0073811239063184516
1006 1009 -0.001195692171332941
1007 1009 0.003929003722846585
1008 1009 0.0016232831246584822
1009 1009 1.8292735229242389
1010 1009 0.00091390638619945385
1004 1010 -0.036419926502189663
1005 1010 0.0029043999739176152
1006 1010 -0.00047049316002676804
1007 1010 0.0015460244882746588
1008 1010 0.00063874601276956127
1009 1010 0.00091390638619945385
1010 1010 1.8273105716366187
1011 1011 1.901511064115593
1012 1011 -0.34021468262526255
1013 1011 -0.33065978383117944
1014 1011 -0.17955392704309397
1015 1011 -0.13154620710088377
1016 1011 -0.12295508650674938
1017 1011 -0.033749617112459079
1011 1012 -0.34021468262526255
1012 1012 1.8544935796862241
1013 1012 0.03020064103751878
1014 1012 0.016399465440508132
1015 1012 0.012014705067759991
1016 1012 0.011230039493473051
1017 1012 0.0030825038949625267
1011 1013 -0.33065978383117944
1012 1013 0.03020064103751878
1013 1013 1.852772705636389
1014 1013 0.015938887927062856
1015 1013 0.011677273155423475
1016 1013 0.010914644843290123
1017 1013 0.0029959320500278523
1011 1014 -0.17955392704309397
1012 1014 0.016399465440508132
1013 1014 0.015938887927062856
1014 1014 1.8320753360771382
1015 1014 0.0063409593628769509
1016 1014 0.0059268391250566132
1017 1014 0.0016268424254804821
1011 1015 -0.13154620710088377
1012 1015 0.012014705067759991
1013 1015 0.011677273155423475
1014 1015 0.0063409593628769509
1015 1015 1.8280658102988117
1016 1015 0.0043421673913664766
1017 1015 0.0011918700645928908
1011 1016 -0.12295508650674938
1012 1016 0.011230039493473051
1013 1016 0.010914644843290123
1014 1016 0.0059268391250566132
1015 1016 0.0043421673913664766
1016 1016 1.8274788326817246
1017 1016 0.0011140305002061842
1011 1017 -0.033749617112459079
1012 1017 0.0030825038949625267
1013 1017 0.0029959320500278523
1014 1017 0.0016268424254804821
1015 1017 0.0011918700645928908
1016 1017 0.0011140305002061842
1017 1017 1.8237260341800861
1018 1018 1.9538816380631061
1019 1018 -0.31535758401885927
1020 1018 -0.59962096006793952
1021 1018 -0.12289734588554141
1022 1018 -0.12143283532036225
1023 1018 -0.22555591590517937
1024 1018 -0.039303843220615205
1018 1019 -0.31535758401885927
1019 1019 1.836501241759315
1020 1019 0.050238302233353356
1021 1019 0.010296761483413184
1022 1019 0.010174059761330165
1023 1019 0.018897848855185657
1024 1019 0.0032930108954594872
1018 1020 -0.59962096006793952
1019 1020 0.050238302233353356
1020 1020 1.9056026167075875
1021 1020 0.019578263911057749
1022 1020 0.0193449588373069
1023 1020 0.035932372798389955
1024 1020 0.0062613314367968992
1018 1021 -0.12289734588554141
1019 1021 0.010296761483413184
1020 1021 0.019578263911057749
1021 1021 1.8140922303326941
1022 1021 0.003964911595319638
1023 1021 0.00736464123567595
1024 1021 0.001283312403230292
1018 1022 -0.12143283532036225
1019 1022 0.010174059761330165
1020 1022 0.0193449588373069
1021 1022 0.003964911595319638
1022 1022 1.8139971644915345
1023 1022 0.0072768802281400636
1024 1022 0.0012680197656276331
1018 1023 -0.22555591590517937
1019 1023 0.018897848855185657
1020 1023 0.035932372798389955
1021 1023 0.00736464123567595
1022 1023 0.0072768802281400636
1023 1023 1.8235959718043495
1024 1023 0.0023552884923378932
1018 1024 -0.039303843220615205
1019 1024 0.0032930108954594872
1020 1024 0.0062613314367968992
1021 1024 0.001283312403230292
1022 1024 0.0012680197656276331
1023 1024 0.0023552884923378932
1024 1024 1.8104899174943858
1025 1025 2.0409067166768615
1026 1025 -1.0055969647017049
1027 1025 -0.084159056308196326
1028 1025 -0.032695404576176132
1029 1025 -0.32094338192146549
1030 1025 -0.014879573160520992
1031 1025 -0.034797639105656024
1025 1026 -1.0055969647017049
1026 1026 2.0111598562419655
1027 1026 0.022359972516763412
1028 1026 0.008686746023749789
1029 1026 0.08527050461356192
1030 1026 0.0039533100954937551
1031 1026 0.0092452825421587247
1025 1027 -0.084159056308196326
1026 1027 0.022359972516763412
1027 1027 1.745857072344569
1028 1027 0.00072699935800285499
1029 1027 0.0071363433374421617
1030 1027 0.00033085506282242246
1031 1027 0.00077374363821943761
1025 1028 -0.032695404576176132
1026 1028 0.008686746023749789
1027 1028 0.00072699935800285499
1028 1028 1.7442681877650845
1029 1028 0.002772436417985912
1030 1028 0.00012853566341619913
1031 1028 0.000300595828893143
1025 1029 -0.32094338192146549
1026 1029 0.08527050461356192
1027 1029 0.0071363433374421617
1028 1029 0.002772436417985912
1029 1029 1.7712004363734157
1030 1029 0.0012617268710714579
1031 1029 0.0029506972972816034
1025 1030 -0.014879573160520992
1026 1030 0.0039533100954937551
1027 1030 0.00033085506282242246
1028 1030 0.00012853566341619913
1029 1030 0.0012617268710714579
1030 1030 1.7440442480389222
1031 1030 0.00013680019212920463
1025 1031 -0.034797639105656024
1026 1031 0.0092452825421587247
1027 1031 0.00077374363821943761
1028 1031 0.000300595828893143
1029 1031 0.0029506972972816034
1030 1031 0.00013680019212920463
1031 1031 1.7443056752784305
1032 1032 1.9695732335745986
1033 1032 -0.694218137585908
1034 1032 0.41096514392855432
1035 1032 0.13839974011817177
1036 1032 -0.14669151960389148
1037 1032 0.076732230890083936
1038 1032 0.012448700043013688
1032 1033 -0.694218137585908
1033 1033 1.9121282664748522
1034 1033 -0.076013016669240291
1035 1033 -0.025598720251686437
1036 1033 0.027132386017694202
1037 1033 -0.014192562147630561
1038 1033 -0.00230253893270442
1032 1034 0.41096514392855432
1033 1034 -0.076013016669240291
1034 1034 1.8287225459139671
1035 1034 0.01515400013777264
1036 1034 -0.016061903775176065
1037 1034 0.0084017515964053407
1038 1034 0.0013630632688027022
1032 1035 0.13839974011817177
1033 1035 -0.025598720251686437
1034 1035 0.01515400013777264
1035 1035 1.7888275293388645
1036 1035 -0.005409128587007146
1037 1035 0.0028294376169334819
1038 1035 0.00045903552881291511
1032 1036 -0.14669151960389148
1033 1036 0.027132386017694202
1034 1036 -0.016061903775176065
1035 1036 -0.005409128587007146
1036 1036 1.7894573525623605
1037 1036 -0.0029989543571251947
1038 1036 -0.00048653718002828237
1032 1037 0.076732230890083936
1033 1037 -0.014192562147630561
1034 1037 0.0084017515964053407
1035 1037 0.0028294376169334819
1036 1037 -0.0029989543571251947
1037 1037 1.785292863299901
1038 1037 0.00025450062372624102
1032 1038 0.012448700043013688
1033 1038 -0.00230253893270442
1034 1038 0.0013630632688027022
1035 1038 0.00045903552881291511
1036 1038 -0.00048653718002828237
1037 1038 0.00025450062372624102
1038 1038 1.7837654423327529
1039 1039 2.0130231825738814
1040 1039 0.88563997548123419
1041 1039 -0.19943190970713007
1042 1039 -0.064356661315640051
1043 1039 -0.11191040240359001
1044 1039 0.23422020277842948
1045 1039 0.068069806335980712
1039 1040 0.88563997548123419
1040 1040 1.9824215245949779
1041 1040 -0.046622516473962629
1042 1040 -0.015045082338146958
1043 1040 -0.026162034888655664
1044 1040 0.054755205817405797
1045 1040 0.015913128806414097
1039 1041 -0.19943190970713007
1040 1041 -0.046622516473962629
1041 1041 1.7858782528628072
1042 1041 0.0033879110987139922
1043 1041 0.0058912704079714575
1044 1041 -0.012329993637243599
1045 1041 -0.0035833812329375274
1039 1042 -0.064356661315640051
1040 1042 -0.015045082338146958
1041 1042 0.0033879110987139922
1042 1042 1.7764728889927694
1043 1042 0.0019011124895782746
1044 1042 -0.0039788879608151969
1045 1042 -0.0011563568373368297
1039 1043 -0.11191040240359001
1040 1043 -0.026162034888655664
1041 1043 0.0058912704079714575
1042 1043 0.0019011124895782746
1043 1043 1.7786854727037964
1044 1043 -0.0069189256202980822
1045 1043 -0.0020107997578342105
1039 1044 0.23422020277842948
1040 1044 0.054755205817405797
1041 1044 -0.012329993637243599
1042 1044 -0.0039788879608151969
1043 1044 -0.0069189256202980822
1044 1044 1.7898604104117104
1045 1044 0.0042084553080977685
1039 1045 0.068069806335980712
1040 1045 0.015913128806414097
1041 1045 -0.0035833812329375274
1042 1045 -0.0011563568373368297
1043 1045 -0.0020107997578342105
1044 1045 0.0042084553080977685
1045 1045 1.7766026847684033
1046 1046 1.9418186791881635
1047 1046 -0.04452724852569865
1048 1046 0.065222873890782407
1049 1046 0.67955541081082194
1050 1046 -0.13214975268574175
1051 1046 -0.086418620383943989
1052 1046 -0.0014105124076685411
1046 1047 -0.04452724852569865
1047 1047 1.8109686187288829
1048 1047 -0.00077398580179195145
1049 1047 -0.0080641377498823288
1050 1047 0.0015681926629046762
1051 1047 0.00102551116192189
1052 1047 1.6738247054475749e-05
1046 1048 0.065222873890782407
1047 1048 -0.00077398580179195145
1048 1048 1.8115739467396186
1049 1048 0.011812233113728428
1050 1048 -0.0022970660814590964
1051 1048 -0.001502154015849819
1052 1048 -2.4517943796970829e-05
1046 1049 0.67955541081082194
1047 1049 -0.0080641377498823288
1048 1049 0.011812233113728428
1049 1049 1.9335115701698913
1050 1049 -0.023933071199215381
1051 1049 -0.015650903255985067
1052 1049 -0.00025545181276567157
1046 1050 -0.13214975268574175
1047 1050 0.0015681926629046762
1048 1050 -0.0022970660814590964
1049 1050 -0.023933071199215381
1050 1050 1.815094368490638
1051 1050 0.0030435531255929775
1052 1050 4.9676440424231424e-05
1046 1051 -0.086418620383943989
1047 1051 0.00102551116192189
1048 1051 -0.001502154015849819
1049 1051 -0.015650903255985067
1050 1051 0.0030435531255929775
1051 1051 1.8124305386630131
1052 1051 3.2485641174495006e-05
1046 1052 -0.0014105124076685411
1047 1052 1.6738247054475749e-05
1048 1052 -2.4517943796970829e-05
1049 1052 -0.00025545181276567157
1050 1052 4.9676440424231424e-05
1051 1052 3.2485641174495006e-05
1052 1052 1.8104407536834777
1053 1053 16.753646619514161
1054 1054 27.828221005784236
1055 1055 17.037490880443151
1056 1056 12.529128215771834
1057 1057 11.878748828373411
1058 1058 12.769209076532256
1059 1059 14.775846270856325
1060 1060 17.264165716267808
1061 1061 17.277050062042822
1062 1062 16.14555648909521
1063 1063 14.480176156671009
1064 1064 13.237835238620509
1065 1065 14.920835842864065
1066 1066 15.267597609109478
1067 1067 14.795288345250903
1068 1068 14.2897502396037
1069 1069 1.919272891713699
1070 1069 -0.098548997388904713
1071 1069 -0.13978249504018994
1072 1069 -0.10095303222185761
1073 1069 -0.074782226307168256
1074 1069 -0.08305671280634519
1075 1069 -0.040131740016604717
1069 1070 -0.098548997388904713
1070 1070 1.9078121799248628
1071 1070 0.0036018460187112614
1072 1070 0.0026013076750460145
1073 1070 0.0019269513254674309
1074 1070 0.0021401641905359182
1075 1070 0.0010340947767544348
1069 1071 -0.13978249504018994
1070 1071 0.0036018460187112614
1071 1071 1.9103816984451301
1072 1071 0.0036897105685426892
1073 1071 0.0027331994361331192
1074 1071 0.003035621855879583
1075 1071 0.0014667662973001216
1069 1072 -0.10095303222185761
1070 1072 0.0026013076750460145
1071 1072 0.0036897105685426892
1072 1072 1.907937583009256
1073 1072 0.0019739579742468942
1074 1072 0.0021923720201293836
1075 1072 0.0010593208057325056
1069 1073 -0.074782226307168256
1070 1073 0.0019269513254674309
1071 1073 0.0027331994361331192
1072 1073 0.0019739579742468942
1073 1073 1.9067350523841475
1074 1073 0.0016240271039954148
1075 1073 0.00078470518896438127
1069 1074 -0.08305671280634519
1070 1074 0.0021401641905359182
1071 1074 0.003035621855879583
1072 1074 0.0021923720201293836
1073 1074 0.0016240271039954148
1074 1074 1.9070765403071039
1075 1074 0.00087153106741910528
1069 1075 -0.040131740016604717
1070 1075 0.0010340947767544348
1071 1075 0.0014667662973001216
1072 1075 0.0010593208057325056
1073 1075 0.00078470518896438127
1074 1075 0.00087153106741910528
1075 1075 1.9056939287797554
1076 1076 1.9355994637300842
1077 1076 -0.0080943272403995892
1078 1076 0.083817099743315665
1079 1076 0.12742501733440215
1080 1076 0.053487566062645042
1081 1076 0.071623681992262309
1082 1076 0.030143252204326319
1076 1077 -0.0080943272403995892
1077 1077 1.9272735182958276
1078 1077 -0.00017563249315567222
1079 1077 -0.00026700963828840408
1080 1077 -0.00011207921306249023
1081 1077 -0.00015008209393803623
1082 1077 -6.3162941126321259e-05
1076 1078 0.083817099743315665
1077 1078 -0.00017563249315567222
1078 1078 1.9290752391050248
1079 1078 0.0027648960587045622
1080 1078 0.0011605849753051635
1081 1078 0.001554106408560404
1082 1078 0.00065405491762706271
1076 1079 0.12742501733440215
1077 1079 -0.00026700963828840408
1078 1079 0.0027648960587045622
1079 1079 1.9314599588003212
1080 1079 0.0017644079913192307
1081 1079 0.0023626686756852123
1082 1079 0.00099434315278757878
1076 1080 0.053487566062645042
1077 1080 -0.00011207921306249023
1078 1080 0.0011605849753051635
1079 1080 0.0017644079913192307
1080 1080 1.9279971801601734
1081 1080 0.00099174714289590785
1082 1080 0.00041738267874110384
1076 1081 0.071623681992262309
1077 1081 -0.00015008209393803623
1078 1081 0.001554106408560404
1079 1081 0.0023626686756852123
1080 1081 0.00099174714289590785
1081 1081 1.9285845776936323
1082 1081 0.00055890530177085933
1076 1082 0.030143252204326319
1077 1082 -6.3162941126321259e-05
1078 1082 0.00065405491762706271
1079 1082 0.00099434315278757878
1080 1082 0.00041738267874110384
1081 1082 0.00055890530177085933
1082 1082 1.9274917758532937
1083 1083 1.9388498571386623
1084 1083 0.21326116148450602
1085 1083 0.3082526302992869
1086 1083 0.28574444707050956
1087 1083 0.27240262307314239
1088 1083 0.2452075834792008
1089 1083 0.19656361092028451
1083 1084 0.21326116148450602
1084 1084 1.8461811787666826
1085 1084 0.017423460921362637
1086 1084 0.016151223761482741
1087 1084 0.015397099623719096
1088 1084 0.013859945799078895
1089 1084 0.011110427152255933
1083 1085 0.3082526302992869
1084 1085 0.017423460921362637
1085 1085 1.859311225308717
1086 1085 0.023345353520411678
1087 1085 0.022255324996607012
1088 1085 0.02003348719772409
1089 1085 0.016059269158957144
1083 1086 0.28574444707050956
1084 1086 0.016151223761482741
1085 1086 0.023345353520411678
1086 1086 1.85576765858785
1087 1086 0.020630271765582634
1088 1086 0.018570669507831428
1089 1086 0.014886643405856159
1083 1087 0.27240262307314239
1084 1087 0.015397099623719096
1085 1087 0.022255324996607012
1086 1087 0.020630271765582634
1087 1087 1.8537939650419299
1088 1087 0.017703577927830852
1089 1087 0.014191564364885369
1083 1088 0.2452075834792008
1084 1088 0.013859945799078895
1085 1088 0.02003348719772409
1086 1088 0.018570669507831428
1087 1088 0.017703577927830852
1088 1088 1.8500631098635363
1089 1088 0.012774763930113491
1083 1089 0.19656361092028451
1084 1089 0.011110427152255933
1085 1089 0.016059269158957144
1086 1089 0.014886643405856159
1087 1089 0.014191564364885369
1088 1089 0.012774763930113491
1089 1089 1.8443674729825617
1090 1090 1.9236573354958835
1091 1090 -0.053177770957925516
1092 1090 -0.013172602909084799
1093 1090 0.023966105057179252
1094 1090 0.026903367565390138
1095 1090 -0.045815902922712842
1096 1090 0.03605261798766235
1090 1091 -0.053177770957925516
1091 1091 1.9223907099885511
1092 1091 0.00018216715428250654
1093 1091 -0.00033143314101504796
1094 1091 -0.0003720532641747956
1095 1091 0.00063359935116225584
1096 1091 -0.00049858049077887662
1090 1092 -0.013172602909084799
1091 1092 0.00018216715428250654
1092 1092 1.9217004259707904
1093 1092 -8.209891236238921e-05
1094 1092 -9.2160875149901059e-05
1095 1092 0.0001569481478063021
1096 1092 -0.00012350278518524354
1090 1093 0.023966105057179252
1091 1093 -0.00033143314101504796
1092 1093 -8.209891236238921e-05
1093 1093 1.9218046715190842
1094 1093 0.00016767659598095083
1095 1093 -0.00028554992698226483
1096 1093 0.0002246997609380934
1090 1094 0.026903367565390138
1091 1094 -0.0003720532641747956
1092 1094 -9.2160875149901059e-05
1093 1094 0.00016767659598095083
1094 1094 1.9218435284362845
1095 1094 -0.00032054664809094208
1096 1094 0.00025223874492538511
1090 1095 -0.045815902922712842
1091 1095 0.00063359935116225584
1092 1095 0.0001569481478063021
1093 1095 -0.00028554992698226483
1094 1095 -0.00032054664809094208
1095 1095 1.9222011861624759
1096 1095 -0.00042955759433310867
1090 1096 0.03605261798766235
1091 1096 -0.00049858049077887662
1092 1096 -0.00012350278518524354
1093 1096 0.0002246997609380934
1094 1096 0.00025223874492538511
1095 1096 -0.00042955759433310867
1096 1096 1.9219933212182432
1097 1097 3.1834623399272401
1098 1097 -2.0116354854401579
1099 1097 -0.8066659657680878
1097 1098 -2.0116354854401579
1098 1098 9.1776220655574168
1099 1098 0.62901887242099452
1097 1099 -0.8066659657680878
1098 1099 0.62901887242099452
1099 1099 1.6535103807124465
1100 1100 2.742015678992217
1101 1100 -1.8137866876773068
1102 1100 -0.75596879283219376
1100 1101 -1.8137866876773068
1101 1101 9.0842282297409902
1102 1101 0.51757268997949801
1100 1102 -0.75596879283219376
1101 1102 0.51757268997949801
1102 1102 1.6731157138709767
1103 1103 2.2734650494003552
1104 1103 -1.8293217562511908
1105 1103 -1.0217698801770325
1103 1104 -1.8293217562511908
1104 1104 9.5848310985743801
1105 1104 0.36962798709199973
1103 1105 -1.0217698801770325
1104 1105 0.36962798709199973
1105 1105 2.5501364984481274
1106 1106 3.1747776714293692
1107 1106 -2.3198470126219881
1108 1106 -1.1865563746080436
1106 1107 -2.3198470126219881
1107 1107 9.6335831811777073
1108 1107 0.83042490331630292
1106 1108 -1.1865563746080436
1107 1108 0.83042490331630292
1108 1108 2.4410485115832961
1109 1109 1.8769161244683679
1110 1109 -0.21917214749110664
1111 1109 -0.23429856523005857
1112 1109 -0.074144706972787022
1113 1109 -0.094391626100960899
1114 1109 -0.024901802983499453
1115 1109 -0.037227968399815466
1109 1110 -0.21917214749110664
1110 1110 1.8577561159504894
1111 1110 0.013797677960218198
1112 1110 0.0043663297223384551
1113 1110 0.0055586565705324246
1114 1110 0.0014664496893429836
1115 1110 0.0021923289141334234
1109 1111 -0.23429856523005857
1110 1111 0.013797677960218198
1111 1111 1.8595991626754289
1112 1111 0.0046676769880478145
1113 1111 0.0059422936444752036
1114 1111 0.0015676584006143752
1115 1111 0.0023436350146392401
1109 1112 -0.074144706972787022
1110 1112 0.0043663297223384551
1111 1112 0.0046676769880478145
1112 1112 1.8463263269384236
1113 1112 0.0018804623092047201
1114 1112 0.00049609169664718465
1115 1112 0.00074165256300637761
1109 1113 -0.094391626100960899
1110 1113 0.0055586565705324246
1111 1113 0.0059422936444752036
1112 1113 0.0018804623092047201
1113 1113 1.847243187940701
1114 1113 0.00063156095497011024
1115 1113 0.00094417786895848442
1109 1114 -0.024901802983499453
1110 1114 0.0014664496893429836
1111 1114 0.0015676584006143752
1112 1114 0.00049609169664718465
1113 1114 0.00063156095497011024
1114 1114 1.8450158365323752
1115 1114 0.00024908704559275727
1109 1115 -0.037227968399815466
1110 1115 0.0021923289141334234
1111 1115 0.0023436350146392401
1112 1115 0.00074165256300637761
1113 1115 0.00094417786895848442
1114 1115 0.00024908704559275727
1115 1115 1.8452216049696715
1116 1116 1.8793802234582873
1117 1116 -0.12565508563248484
1118 1116 -0.072481547675314631
1119 1116 -0.135583558479627
1120 1116 -0.14839436028332556
1121 1116 -0.25236477944876345
1122 1116 -0.13065466320544022
1116 1117 -0.12565508563248484
1117 1117 1.8454023528944921
1118 1117 0.0024479452071213604
1119 1117 0.0045791119642123578
1120 1117 0.0050117757507973943
1121 1117 0.0085232058656528695
1122 1117 0.0044126466230348001
1116 1118 -0.072481547675314631
1117 1118 0.0024479452071213604
1118 1118 1.8425706055566702
1119 1118 0.0026413664076868626
1120 1118 0.0028909396001835634
1121 1118 0.0049164357271197475
1122 1118 0.0025453443047841742
1116 1119 -0.135583558479627
1117 1119 0.0045791119642123578
1118 1119 0.0026413664076868626
1119 1119 1.8460994833200814
1120 1119 0.0054077746807833496
1121 1119 0.0091966558703366463
1122 1119 0.0047613061457299046
1116 1120 -0.14839436028332556
1117 1120 0.0050117757507973943
1118 1120 0.0028909396001835634
1119 1120 0.0054077746807833496
1120 1120 1.8470772946121599
1121 1120 0.010065614739190992
1122 1120 0.0052111848039069061
1116 1121 -0.25236477944876345
1117 1121 0.0085232058656528695
1118 1121 0.0049164357271197475
1119 1121 0.0091966558703366463
1120 1121 0.010065614739190992
1121 1121 1.8582765047752465
1122 1121 0.008862328064178384
1116 1122 -0.13065466320544022
1117 1122 0.0044126466230348001
1118 1122 0.0025453443047841742
1119 1122 0.0047613061457299046
1120 1122 0.0052111848039069061
1121 1122 0.008862328064178384
1122 1122 1.8457467762554671
1123 1123 1.8625194019048417
1124 1123 -0.032598907199653672
1125 1123 -0.055798400971461368
1126 1123 -0.058202270257745076
1127 1123 0.015760742877271125
1128 1123 -0.067628884495252894
1129 1123 0.0052577908423305578
1123 1124 -0.032598907199653672
1124 1124 1.8594695411345725
1125 1124 0.00048874579656900299
1126 1124 0.00050980161517164349
1127 1124 -0.00013805049424285272
1128 1124 0.00059237061364197366
1129 1124 -4.6053706355176147e-05
1123 1125 -0.055798400971461368
1124 1125 0.00048874579656900299
1125 1125 1.8600205718259846
1126 1125 0.00087260946402363505
1127 1125 -0.00023629616738051121
1128 1125 0.0010139399097420245
1129 1125 -7.8828506664031922e-05
1123 1126 -0.058202270257745076
1124 1126 0.00050980161517164349
1125 1126 0.00087260946402363505
1126 1126 1.8600942055045395
1127 1126 -0.00024647612037814433
1128 1126 0.0010576217888771048
1129 1126 -8.2224543517313707e-05
1123 1127 0.015760742877271125
1124 1127 -0.00013805049424285272
1125 1127 -0.00023629616738051121
1126 1127 -0.00024647612037814433
1127 1127 1.8592507467691954
1128 1127 -0.00028639613200781311
1129 1127 2.2265796211015005e-05
1123 1128 -0.067628884495252894
1124 1128 0.00059237061364197366
1125 1128 0.0010139399097420245
1126 1128 0.0010576217888771048
1127 1128 -0.00028639613200781311
1128 1128 1.860412920250426
1129 1128 -9.554187717389469e-05
1123 1129 0.0052577908423305578
1124 1129 -4.6053706355176147e-05
1125 1129 -7.8828506664031922e-05
1126 1129 -8.2224543517313707e-05
1127 1129 2.2265796211015005e-05
1128 1129 -9.554187717389469e-05
1129 1129 1.8591914307443831
1130 1130 1.8667314393702883
1131 1130 0.062986750851740561
1132 1130 0.091242482666268082
1133 1130 0.068559245375021158
1134 1130 0.045718076181398316
1135 1130 0.076191515663742257
1136 1130 0.1278316072552084
1130 1131 0.062986750851740561
1131 1131 1.8567212574106524
1132 1131 0.0015439199864627023
1133 1131 0.0011600954522298197
1134 1131 0.00077359854200000013
1135 1131 0.0012892415944270037
1136 1131 0.0021630469445339906
1130 1132 0.091242482666268082
1131 1132 0.0015439199864627023
1132 1132 1.857891973938647
1133 1132 0.0016805119768830039
1134 1132 0.00112063331739765
1135 1132 0.0018675928229577358
1136 1132 0.0031333855243227387
1130 1133 0.068559245375021158
1131 1133 0.0011600954522298197
1132 1133 0.0016805119768830039
1133 1133 1.8569181846416021
1134 1133 0.00084203950109407828
1135 1133 0.0014033019583444975
1136 1133 0.0023544136540247923
1130 1134 0.045718076181398316
1131 1134 0.00077359854200000013
1132 1134 0.00112063331739765
1133 1134 0.00084203950109407828
1134 1134 1.8562169604778909
1135 1134 0.0009357784713959795
1136 1134 0.0015700181967937333
1130 1135 0.076191515663742257
1131 1135 0.0012892415944270037
1132 1135 0.0018675928229577358
1133 1135 0.0014033019583444975
1134 1135 0.0009357784713959795
1135 1135 1.8572149772545798
1136 1135 0.0026165157422359275
1130 1136 0.1278316072552084
1131 1136 0.0021630469445339906
1132 1136 0.0031333855243227387
1133 1136 0.0023544136540247923
1134 1136 0.0015700181967937333
1135 1136 0.0026165157422359275
1136 1136 1.8600453581512186
1137 1137 1.8725346360347486
1138 1137 0.093070141303021783
1139 1137 0.15955696528650717
1140 1137 0.13028559906484305
1141 1137 0.10785506964569706
1142 1137 0.13541544275511078
1143 1137 0.12295285621151125
1137 1138 0.093070141303021783
1138 1138 1.849002685669155
1139 1138 0.0039927823441815603
1140 1138 0.0032602903841466679
1141 1138 0.0026989847609506321
1142 1138 0.0033886605200296937
1143 1138 0.0030767945013650301
1137 1139 0.15955696528650717
1138 1139 0.0039927823441815603
1139 1139 1.8535188010718628
1140 1139 0.0055893547851563561
1141 1139 0.0046270674115526439
1142 1139 0.0058094291186445244
1143 1139 0.0052747743430370947
1137 1140 0.13028559906484305
1138 1140 0.0032602903841466679
1139 1140 0.0055893547851563561
1140 1140 1.851237646825282
1141 1140 0.0037782133079872992
1142 1140 0.0047436660103697178
1143 1140 0.0043070958010541123
1137 1141 0.10785506964569706
1138 1141 0.0026989847609506321
1139 1141 0.0046270674115526439
1140 1141 0.0037782133079872992
1141 1141 1.8498014214732255
1142 1141 0.0039269760556553505
1143 1141 0.0035655676523556404
1137 1142 0.13541544275511078
1138 1142 0.0033886605200296937
1139 1142 0.0058094291186445244
1140 1142 0.0047436660103697178
1141 1142 0.0039269760556553505
1142 1142 1.8516041239613985
1143 1142 0.0044766826807783981
1137 1143 0.12295285621151125
1138 1143 0.0030767945013650301
1139 1143 0.0052747743430370947
1140 1143 0.0043070958010541123
1141 1143 0.0035655676523556404
1142 1143 0.0044766826807783981
1143 1143 1.8507383651732439
1144 1144 1.87265218220834
1145 1144 0.097747593686339729
1146 1144 0.13620017912737056
1147 1144 0.051172148937711825
1148 1144 0.13562777584801713
1149 1144 0.18008468753283105
1150 1144 0.15161360641432015
1144 1145 0.097747593686339729
1145 1145 1.8471002587004179
1146 1145 0.0035815409555066224
1147 1145 0.0013456307354067856
1148 1145 0.0035664889504270002
1149 1145 0.0047355347694167087
1150 1145 0.0039868548210728943
1144 1146 0.13620017912737056
1145 1146 0.0035815409555066224
1146 1146 1.8495203437512862
1147 1146 0.0018749837237917845
1148 1146 0.0049694976171247678
1149 1146 0.0065984302992471884
1150 1146 0.0055552297535569417
1144 1147 0.051172148937711825
1145 1147 0.0013456307354067856
1146 1147 0.0018749837237917845
1147 1147 1.8452343282343315
1148 1147 0.0018671038014663589
1149 1147 0.0024791146398744548
1150 1147 0.0020871708550866137
1144 1148 0.13562777584801713
1145 1148 0.0035664889504270002
1146 1148 0.0049694976171247678
1147 1148 0.0018671038014663589
1148 1148 1.8494784853729387
1149 1148 0.0065706993288030015
1150 1148 0.0055318830021145373
1144 1149 0.18008468753283105
1145 1149 0.0047355347694167087
1146 1149 0.0065984302992471884
1147 1149 0.0024791146398744548
1148 1149 0.0065706993288030015
1149 1149 1.8532543566900646
1150 1149 0.0073451578459880814
1144 1150 0.15161360641432015
1145 1150 0.0039868548210728943
1146 1150 0.0055552297535569417
1147 1150 0.0020871708550866137
1148 1150 0.0055318830021145373
1149 1150 0.0073451578459880814
1150 1150 1.8507137738254369
1151 1151 1.864772794972942
1152 1151 -0.041810768128540191
1153 1151 0.11072328308106412
1154 1151 0.11547584444831285
1155 1151 0.057811493762063487
1156 1151 -0.034130227771942724
1157 1151 0.039880969544240176
1151 1152 -0.041810768128540191
1152 1152 1.8562547577125383
1153 1152 -0.0012442826848596885
1154 1152 -0.0012976908719495818
1155 1152 -0.0006496722159271992
1156 1152 0.00038354761767544094
1157 1152 -0.00044817312563775655
1151 1153 0.11072328308106412
1152 1153 -0.0012442826848596885
1153 1153 1.8590800075681522
1154 1153 0.0034365451819696855
1155 1153 0.0017204620697917096
1156 1153 -0.0010157108646362567
1157 1153 0.0011868521455228097
1151 1154 0.11547584444831285
1152 1154 -0.0012976908719495818
1153 1154 0.0034365451819696855
1154 1154 1.8593689495288817
1155 1154 0.0017943092439287203
1156 1154 -0.0010593080926197414
1157 1154 0.0012377952488926611
1151 1155 0.057811493762063487
1152 1155 -0.0006496722159271992
1153 1155 0.0017204620697917096
1154 1155 0.0017943092439287203
1155 1155 1.856683195761633
1156 1155 -0.00053032894871793521
1157 1155 0.00061968624392350492
1151 1156 -0.034130227771942724
1152 1156 0.00038354761767544094
1153 1156 -0.0010157108646362567
1154 1156 -0.0010593080926197414
1155 1156 -0.00053032894871793521
1156 1156 1.8560979887730746
1157 1156 -0.00036584477023369626
1151 1157 0.039880969544240176
1152 1157 -0.00044817312563775655
1153 1157 0.0011868521455228097
1154 1157 0.0012377952488926611
1155 1157 0.00061968624392350492
1156 1157 -0.00036584477023369626
1157 1157 1.8562123854090502
1158 1158 1.8633176410317538
1159 1158 -0.12310976975766549
1160 1158 -0.032942448837969117
1161 1158 -0.010234057604810486
1162 1158 -0.05143807172135232
1163 1158 -0.074967410999701709
1164 1158 -0.020010957726002119
1158 1159 -0.12310976975766549
1159 1159 1.8606680168143988
1160 1159 0.0010902241736055428
1161 1159 0.00033869421941626002
1162 1159 0.0017023333483829495
1163 1159 0.0024810324243501373
1164 1159 0.00066225889754561063
1158 1160 -0.032942448837969117
1159 1160 0.0010902241736055428
1160 1160 1.8568854507527426
1161 1160 9.0629825860277099e-05
1162 1160 0.00045552054353332247
1163 1160 0.00066388950174612628
1164 1160 0.00017721119853306928
1158 1161 -0.010234057604810486
1159 1161 0.00033869421941626002
1160 1161 9.0629825860277099e-05
1161 1161 1.8566218775369623
1162 1161 0.00014151417539188637
1163 1161 0.00020624706552682778
1164 1161 5.5053272539794142e-05
1158 1162 -0.05143807172135232
1159 1162 0.0017023333483829495
1160 1162 0.00045552054353332247
1161 1162 0.00014151417539188637
1162 1162 1.857304995772675
1163 1162 0.0010366319751708955
1164 1162 0.00027670688311017444
1158 1163 -0.074967410999701709
1159 1163 0.0024810324243501373
1160 1163 0.00066388950174612628
1161 1163 0.00020624706552682778
1162 1163 0.0010366319751708955
1163 1163 1.858104541030422
1164 1163 0.00040328103170235837
1158 1164 -0.020010957726002119
1159 1164 0.00066225889754561063
1160 1164 0.00017721119853306928
1161 1164 5.5053272539794142e-05
1162 1164 0.00027670688311017444
1163 1164 0.00040328103170235837
1164 1164 1.8567013693487802
1165 1165 1.8675722690945205
1166 1165 -0.051229334881659289
1167 1165 -0.13824341404682564
1168 1165 0.032029529158652183
1169 1165 -0.050391365586152009
1170 1165 -0.054543625473303624
1171 1165 -0.18271855582463531
1165 1166 -0.051229334881659289
1166 1166 1.8516958377362367
1167 1166 0.001904531243348586
1168 1166 -0.00044125963911550515
1169 1166 0.00069422424797263582
1170 1166 0.00075142848254763472
1171 1166 0.0025172497417466763
1165 1167 -0.13824341404682564
1166 1167 0.001904531243348586
1167 1167 1.8561294858172872
1168 1167 -0.0011907482135638033
1169 1167 0.0018733784144479753
1170 1167 0.0020277452182304407
1171 1167 0.0067928502119229415
1165 1168 0.032029529158652183
1166 1168 -0.00044125963911550515
1167 1168 -0.0011907482135638033
1168 1168 1.8512659527783102
1169 1168 -0.00043404185989233992
1170 1168 -0.00046980700702046064
1171 1168 -0.0015738311689802954
1165 1169 -0.050391365586152009
1166 1169 0.00069422424797263582
1167 1169 0.0018733784144479753
1168 1169 -0.00043404185989233992
1169 1169 1.8516729377498884
1170 1169 0.00073913720456014775
1171 1169 0.0024760745440288059
1165 1170 -0.054543625473303624
1166 1170 0.00075142848254763472
1167 1170 0.0020277452182304407
1168 1170 -0.00046980700702046064
1169 1170 0.00073913720456014775
1170 1170 1.8517901113547683
1171 1170 0.0026801036447919218
1165 1171 -0.18271855582463531
1166 1171 0.0025172497417466763
1167 1171 0.0067928502119229415
1168 1171 -0.0015738311689802954
1169 1171 0.0024760745440288059
1170 1171 0.0026801036447919218
1171 1171 1.8599682890474447
1172 1172 1.8666300089110581
1173 1172 -0.01097146863981377
1174 1172 -0.089221591130590458
1175 1172 -0.11481885170440585
1176 1172 0.064910028766327815
1177 1172 0.013745964331766072
1178 1172 -0.14723755425428856
1172 1173 -0.01097146863981377
1173 1173 1.8539369346652346
1174 1173 0.00026310517089444516
1175 1173 0.00033858882381255888
1176 1173 -0.0001914129079622816
1177 1173 -4.0535415797782866e-05
1178 1173 0.00043418819798286151
1172 1174 -0.089221591130590458
1173 1174 0.00026310517089444516
1174 1174 1.8560441907625518
1175 1174 0.0027534539441662598
1176 1174 -0.0015565978240464548
1177 1174 -0.00032963994277794784
1178 1174 0.0035308820674724438
1172 1175 -0.11481885170440585
1173 1175 0.00033858882381255888
1174 1175 0.0027534539441662598
1175 1175 1.8574479880547687
1176 1175 -0.0020031785183139664
1177 1175 -0.00042421211307778594
1178 1175 0.0045438757519744031
1172 1176 0.064910028766327815
1173 1176 -0.0001914129079622816
1174 1176 -0.0015565978240464548
1175 1176 -0.0020031785183139664
1176 1176 1.8550370289155305
1177 1176 0.00023981793977344919
1178 1176 -0.0025687689903970742
1172 1177 0.013745964331766072
1173 1177 -4.0535415797782866e-05
1174 1177 -0.00032963994277794784
1175 1177 -0.00042421211307778594
1176 1177 0.00023981793977344919
1177 1177 1.8539553670731694
1178 1177 -0.00054398692451145783
1172 1178 -0.14723755425428856
1173 1178 0.00043418819798286151
1174 1178 0.0035308820674724438
1175 1178 0.0045438757519744031
1176 1178 -0.0025687689903970742
1177 1178 -0.00054398692451145783
1178 1178 1.8597314041797586
1179 1179 1.8662494122734685
1180 1179 -0.011023133657335992
1181 1179 -0.02771769246096633
1182 1179 0.01028888355844238
1183 1179 -0.15258000308975422
1184 1179 0.077753361623531983
1185 1179 0.10887720137250935
1179 1180 -0.011023133657335992
1180 1180 1.8549479455261699
1181 1180 8.2107580007541119e-05
1182 1180 -3.0478559178502037e-05
1183 1180 0.00045198476853314869
1184 1180 -0.0002303272672986739
1185 1180 -0.00032252481101303091
1179 1181 -0.02771769246096633
1180 1181 8.2107580007541119e-05
1181 1181 1.8551217515925893
1182 1181 -7.6638400315582082e-05
1183 1181 0.0011365166386153171
1184 1181 -0.0005791583916893477
1185 1181 -0.00081098930672414264
1179 1182 0.01028888355844238
1180 1182 -3.0478559178502037e-05
1181 1182 -7.6638400315582082e-05
1182 1182 1.8549437402968958
1183 1182 -0.00042187809729878441
1184 1182 0.00021498518545070528
1185 1182 0.00030104145775400922
1179 1183 -0.15258000308975422
1180 1183 0.00045198476853314869
1181 1183 0.0011365166386153171
1182 1183 -0.00042187809729878441
1183 1183 1.8611715743381898
1184 1183 -0.0031881437936387641
1185 1183 -0.0044643236842311553
1179 1184 0.077753361623531983
1180 1184 -0.0002303272672986739
1181 1184 -0.0005791583916893477
1182 1184 0.00021498518545070528
1183 1184 -0.0031881437936387641
1184 1184 1.8565399405704819
1185 1184 0.0022749781543806545
1179 1185 0.10887720137250935
1180 1185 -0.00032252481101303091
1181 1185 -0.00081098930672414264
1182 1185 0.00030104145775400922
1183 1185 -0.0044643236842311553
1184 1185 0.0022749781543806545
1185 1185 1.8581009195103328
1186 1186 1.865529089170153
1187 1186 -0.046179874710308884
1188 1186 0.050799611440920295
1189 1186 0.057640172585956002
1190 1186 0.10076028428600967
1191 1186 -0.13642385618527905
1192 1186 0.078512073970535307
1186 1187 -0.046179874710308884
1187 1187 1.8545514954644331
1188 1187 -0.00063070711895910308
1189 1187 -0.00071563671762083034
1190 1187 -0.0012509983207536529
1191 1187 0.0016937825871360557
1192 1187 -0.00097477367587840019
1186 1188 0.050799611440920295
1187 1188 -0.00063070711895910308
1188 1188 1.8546719468215809
1189 1188 0.00078722749717374926
1190 1188 0.0013761455397223678
1191 1188 -0.0018632250050843163
1192 1188 0.0010722879671738524
1186 1189 0.057640172585956002
1187 1189 -0.00071563671762083034
1188 1189 0.00078722749717374926
1189 1189 1.8548713788770843
1190 1189 0.0015614541954763002
1191 1189 -0.0021141226834860828
1192 1189 0.0012166798472784751
1186 1190 0.10076028428600967
1187 1190 -0.0012509983207536529
1188 1190 0.0013761455397223678
1189 1190 0.0015614541954763002
1190 1190 1.8567077095960374
1191 1190 -0.0036956794722620501
1192 1190 0.0021268674571371373
1186 1191 -0.13642385618527905
1187 1191 0.0016937825871360557
1188 1191 -0.0018632250050843163
1189 1191 -0.0021141226834860828
1190 1191 -0.0036956794722620501
1191 1191 1.8589818908556213
1192 1191 -0.0028796609909715627
1186 1192 0.078512073970535307
1187 1192 -0.00097477367587840019
1188 1192 0.0010722879671738524
1189 1192 0.0012166798472784751
1190 1192 0.0021268674571371373
1191 1192 -0.0028796609909715627
1192 1192 1.855635393055423
1193 1193 1.8661573052089733
1194 1193 0.090791566907430454
1195 1193 -0.068065638665371353
1196 1193 0.031822616685421599
1197 1193 -0.062377169270316279
1198 1193 0.05138084407931473
1199 1193 0.14933830345570176
1193 1194 0.090791566907430454
1194 1194 1.8568909816867916
1195 1194 -0.0016608609319114446
1196 1194 0.00077649959422035266
1197 1194 -0.0015220573187246416
1198 1194 0.0012537373960377237
1199 1194 0.0036439848168749668
1193 1195 -0.068065638665371353
1194 1195 -0.0016608609319114446
1195 1195 1.8559207211139803
1196 1195 -0.00058213491191200586
1197 1195 0.0011410729764133715
1198 1195 -0.00093991589182478681
1199 1195 -0.0027318633469603877
1193 1196 0.031822616685421599
1194 1196 0.00077649959422035266
1195 1196 -0.00058213491191200586
1196 1196 1.8549477528733096
1197 1196 -0.0005334839817931462
1198 1196 0.0004394373391414823
1199 1196 0.0012772236010987707
1193 1197 -0.062377169270316279
1194 1197 -0.0015220573187246416
1195 1197 0.0011410729764133715
1196 1197 -0.0005334839817931462
1197 1197 1.8557212980433975
1198 1197 -0.00086136402792680875
1199 1197 -0.0025035525377860809
1193 1198 0.05138084407931473
1194 1198 0.0012537373960377237
1195 1198 -0.00093991589182478681
1196 1198 0.0004394373391414823
1197 1198 -0.00086136402792680875
1198 1198 1.8553851044696252
1199 1198 0.0020622071198984865
1193 1199 0.14933830345570176
1194 1199 0.0036439848168749668
1195 1199 -0.0027318633469603877
1196 1199 0.0012772236010987707
1197 1199 -0.0025035525377860809
1198 1199 0.0020622071198984865
1199 1199 1.8606693884736383
1200 1200 1.8669889034036349
1201 1200 -0.1394476737183441
1202 1200 0.027702696139542845
1203 1200 0.055041904968180691
1204 1200 -0.12452085545234462
1205 1200 -0.038097871004434777
1206 1200 0.10505907548744715
1200 1201 -0.1394476737183441
1201 1201 1.8584433125787754
1202 1201 -0.0010384041598600199
1203 1201 -0.0020631834099351285
1204 1201 0.0046675231046004852
1205 1201 0.0014280555052670894
1206 1201 -0.0039380203453010642
1200 1202 0.027702696139542845
1201 1202 -0.0010384041598600199
1202 1202 1.8534225641419875
1203 1202 0.00040987233104384141
1204 1202 -0.00092725085218853167
1205 1202 -0.00028369772458679114
1206 1202 0.00078232772270952458
1200 1203 0.055041904968180691
1201 1203 -0.0020631834099351285
1202 1203 0.00040987233104384141
1203 1203 1.8540306413368943
1204 1203 -0.0018423352380844457
1205 1203 -0.00056367304892414511
1206 1203 0.0015543905167369556
1200 1204 -0.12452085545234462
1201 1204 0.0046675231046004852
1202 1204 -0.00092725085218853167
1203 1204 -0.0018423352380844457
1204 1204 1.8573841746887048
1205 1204 0.0012751929695754827
1206 1204 -0.0035164850664778017
1200 1205 -0.038097871004434777
1201 1205 0.0014280555052670894
1202 1205 -0.00028369772458679114
1203 1205 -0.00056367304892414511
1204 1205 0.0012751929695754827
1205 1205 1.8536064272272046
1206 1205 -0.0010758888056544426
1200 1206 0.10505907548744715
1201 1206 -0.0039380203453010642
1202 1206 0.00078232772270952458
1203 1206 0.0015543905167369556
1204 1206 -0.0035164850664778017
1205 1206 -0.0010758888056544426
1206 1206 1.8561831564957545
1207 1207 1.8697825583904124
1208 1207 0.01076066872787982
1209 1207 -0.10829431212278949
1210 1207 0.023914491155965077
1211 1207 -0.056404671090945262
1212 1207 -0.13891239372707478
1213 1207 -0.12978973007618319
1207 1208 0.01076066872787982
1208 1208 1.855926536803943
1209 1208 -0.0003127804423623654
1210 1208 6.9070895562386078e-05
1211 1208 -0.00016291047636117666
1212 1208 -0.00040121294560978228
1213 1208 -0.00037486446325353789
1207 1209 -0.10829431212278949
1208 1209 -0.0003127804423623654
1209 1209 1.8590432489829289
1210 1209 -0.00069512270210992906
1211 1209 0.0016395150172609815
1212 1209 0.0040377676386410171
1213 1209 0.0037725991027064338
1207 1210 0.023914491155965077
1208 1210 6.9070895562386078e-05
1209 1210 -0.00069512270210992906
1210 1210 1.8560489603987489
1211 1210 -0.00036205195463916422
1212 1210 -0.00089165494097821817
1213 1210 -0.00083309812037384847
1207 1211 -0.056404671090945262
1208 1211 -0.00016291047636117666
1209 1211 0.0016395150172609815
1210 1211 -0.00036205195463916422
1211 1211 1.8567493923798797
1212 1211 0.0021030555634443306
1213 1211 0.0019649435632859203
1207 1212 -0.13891239372707478
1208 1212 -0.00040121294560978228
1209 1212 0.0040377676386410171
1210 1212 -0.00089165494097821817
1211 1212 0.0021030555634443306
1212 1212 1.8610748241917459
1213 1212 0.0048392271178135278
1207 1213 -0.12978973007618319
1208 1213 -0.00037486446325353789
1209 1213 0.0037725991027064338
1210 1213 -0.00083309812037384847
1211 1213 0.0019649435632859203
1212 1213 0.0048392271178135278
1213 1213 1.860416882446009
1214 1214 1.8741241255479826
1215 1214 0.010815721177394759
1216 1214 0.12362805668148788
1217 1214 -0.031470354576376369
1218 1214 -0.057820473912398238
1219 1214 -0.31119261906576018
1220 1214 -0.087710685834172325
1214 1215 0.010815721177394759
1215 1215 1.8407033134488444
1216 1215 0.00035994617449134389
1217 1215 -9.1626723283672192e-05
1218 1215 -0.00016834575379328704
1219 1215 -0.00090604508207427995
1220 1215 -0.00025537185227590746
1214 1216 0.12362805668148788
1215 1216 0.00035994617449134389
1216 1216 1.8447861532019509
1217 1216 -0.0010473304141131142
1218 1216 -0.0019242598852809419
1219 1216 -0.010356460833769707
1220 1216 -0.002919003301786959
1214 1217 -0.031470354576376369
1215 1217 -9.1626723283672192e-05
1216 1217 -0.0010473304141131142
1217 1217 1.840938428218168
1218 1217 0.00048983331544963458
1219 1217 0.0026363068654778167
1220 1217 0.00074305195262852034
1214 1218 -0.057820473912398238
1215 1218 -0.00016834575379328704
1216 1218 -0.0019242598852809419
1217 1218 0.00048983331544963458
1218 1218 1.8415717938239102
1219 1218 0.0048436858876341332
1220 1218 0.0013652091506704894
1214 1219 -0.31119261906576018
1215 1219 -0.00090604508207427995
1216 1219 -0.010356460833769707
1217 1219 0.0026363068654778167
1218 1219 0.0048436858876341332
1219 1219 1.8667407775978104
1220 1219 0.0073476224323819322
1214 1220 -0.087710685834172325
1215 1220 -0.00025537185227590746
1216 1220 -0.002919003301786959
1217 1220 0.00074305195262852034
1218 1220 0.0013652091506704894
1219 1220 0.0073476224323819322
1220 1220 1.8427427752899326
1221 1221 1.8643207399361688
1222 1221 0.016981541476345004
1223 1221 -0.096740044280509238
1224 1221 0.045439622809259388
1225 1221 -0.085988485102805323
1226 1221 0.1403156436354637
1227 1221 0.036834219331489344
1221 1222 0.016981541476345004
1222 1222 1.8535987524512028
1223 1222 -0.00044186791861005128
1224 1222 0.00020754912510618468
1225 1222 -0.00039275930892315253
1226 1222 0.00064090296694358363
1227 1222 0.00016824325387362364
1221 1223 -0.096740044280509238
1222 1223 -0.00044186791861005128
1223 1223 1.8560384106164891
1224 1223 -0.001182360952397755
1225 1223 0.0022374619518337096
1226 1223 -0.0036510808802603894
1227 1223 -0.0009584441937914354
1221 1224 0.045439622809259388
1222 1224 0.00020754912510618468
1223 1224 -0.001182360952397755
1224 1224 1.8540765529076548
1225 1224 -0.0010509549369916609
1226 1224 0.0017149437885729437
1227 1224 0.00045018940164349367
1221 1225 -0.085988485102805323
1222 1225 -0.00039275930892315253
1223 1225 0.0022374619518337096
1224 1225 -0.0010509549369916609
1225 1225 1.8555099813192637
1226 1225 -0.0032453046328061405
1227 1225 -0.00085192398755506613
1221 1226 0.1403156436354637
1222 1226 0.00064090296694358363
1223 1226 -0.0036510808802603894
1224 1226 0.0017149437885729437
1225 1226 -0.0032453046328061405
1226 1226 1.8588168621703611
1227 1226 0.0013901659332568007
1221 1227 0.036834219331489344
1222 1227 0.00016824325387362364
1223 1227 -0.0009584441937914354
1224 1227 0.00045018940164349367
1225 1227 -0.00085192398755506613
1226 1227 0.0013901659332568007
1227 1227 1.8538861199572954
1228 1228 1.8699545921611385
1229 1228 0.041514487403607005
1230 1228 -0.051101605029253531
1231 1228 0.066774737963918598
1232 1228 0.13605484908834101
1233 1228 0.14098836343778529
1234 1228 -0.21338752900163971
1228 1229 0.041514487403607005
1229 1229 1.8454608356001549
1230 1229 -0.00057105912035708504
1231 1229 0.00074620597732539022
1232 1229 0.0015204094352071057
1233 1229 0.0015755413310262274
1234 1229 -0.0023846001419542567
1228 1230 -0.051101605029253531
1229 1230 -0.00057105912035708504
1230 1230 1.8456998485108542
1231 1230 -0.00091853050606225393
1232 1230 -0.0018715240702683797
1233 1230 -0.001939387809913589
1234 1230 0.0029352860224949027
1228 1231 0.066774737963918598
1229 1231 0.00074620597732539022
1230 1231 -0.00091853050606225393
1231 1231 1.8461971609498939
1232 1231 0.0024455304156062621
1233 1231 0.0025342083236576099
1234 1231 -0.0038355537930569207
1228 1232 0.13605484908834101
1229 1232 0.0015204094352071057
1230 1232 -0.0018715240702683797
1231 1232 0.0024455304156062621
1232 1232 1.8499797288551629
1233 1232 0.0051634995740449038
1234 1232 -0.0078150167023725344
1228 1233 0.14098836343778529
1229 1233 0.0015755413310262274
1230 1233 -0.001939387809913589
1231 1233 0.0025342083236576099
1232 1233 0.0051634995740449038
1233 1233 1.8503476466228062
1234 1233 -0.0080983987155874224
1228 1234 -0.21338752900163971
1229 1234 -0.0023846001419542567
1230 1234 0.0029352860224949027
1231 1234 -0.0038355537930569207
1232 1234 -0.0078150167023725344
1233 1234 -0.0080983987155874224
1234 1234 1.8572539329842677
1235 1235 1.8648433261693431
1236 1235 0.05947078872501467
1237 1235 0.1221451247184573
1238 1235 0.061956572203528328
1239 1235 0.13517979543926179
1240 1235 0.034305540990976137
1241 1235 0.099340218471050457
1235 1236 0.05947078872501467
1236 1236 1.8519047873484116
1237 1236 0.0019549152684930097
1238 1236 0.00099160608549335536
1239 1236 0.0021635333109291228
1240 1236 0.00054905528183588634
1241 1236 0.00158992600246731
1235 1237 0.1221451247184573
1236 1237 0.0019549152684930097
1237 1237 1.8549681029573137
1238 1237 0.0020366275877760731
1239 1237 0.0044436109182594231
1240 1237 0.0011276868411358961
1241 1237 0.0032654974656961713
1235 1238 0.061956572203528328
1236 1238 0.00099160608549335536
1237 1238 0.0020366275877760731
1238 1238 1.8519860194999915
1239 1238 0.0022539655294152288
1240 1238 0.000572004911017519
1241 1238 0.0016563823564811609
1235 1239 0.13517979543926179
1236 1239 0.0021635333109291228
1237 1239 0.0044436109182594231
1238 1239 0.0022539655294152288
1239 1239 1.8558707750466577
1240 1239 0.0012480275152665385
1241 1239 0.0036139737909124422
1235 1240 0.034305540990976137
1236 1240 0.00054905528183588634
1237 1240 0.0011276868411358961
1238 1240 0.000572004911017519
1239 1240 0.0012480275152665385
1240 1240 1.8512696867176406
1241 1240 0.0009171439091292744
1235 1241 0.099340218471050457
1236 1241 0.00158992600246731
1237 1241 0.0032654974656961713
1238 1241 0.0016563823564811609
1239 1241 0.0036139737909124422
1240 1241 0.0009171439091292744
1241 1241 1.8536087839608906
1242 1242 1.8652772419835215
1243 1242 0.052856738397136213
1244 1242 0.034406949770586046
1245 1242 0.022113340223712592
1246 1242 -0.0048536884741109121
1247 1242 -0.042039682749730523
1248 1242 -0.026372055465659346
1242 1243 0.052856738397136213
1243 1243 1.8641617786907134
1244 1243 0.00048774214800158488
1245 1243 0.00031347178788350112
1246 1243 -6.8804368241825366e-05
1247 1243 -0.00059594138109817949
1248 1243 -0.00037384200185724682
1242 1244 0.034406949770586046
1243 1244 0.00048774214800158488
1244 1244 1.8637299925369466
1245 1244 0.00020405360578941426
1246 1244 -4.4788015944276551e-05
1247 1244 -0.00038792641747205652
1248 1244 -0.00024335143200463792
1242 1245 0.022113340223712592
1243 1245 0.00031347178788350112
1244 1245 0.00020405360578941426
1245 1245 1.863543643329826
1246 1245 -2.8785249524430076e-05
1247 1245 -0.00024932023642092925
1248 1245 -0.00015640192012738712
1242 1246 -0.0048536884741109121
1243 1246 -6.8804368241825366e-05
1244 1246 -4.4788015944276551e-05
1245 1246 -2.8785249524430076e-05
1246 1246 1.8634188162306333
1247 1246 5.4723653036425145e-05
1248 1246 3.4328879733740432e-05
1242 1247 -0.042039682749730523
1243 1247 -0.00059594138109817949
1244 1247 -0.00038792641747205652
1245 1247 -0.00024932023642092925
1246 1247 5.4723653036425145e-05
1247 1247 1.8638864809481188
1248 1247 0.00029733577275464909
1242 1248 -0.026372055465659346
1243 1248 -0.00037384200185724682
1244 1248 -0.00024335143200463792
1245 1248 -0.00015640192012738712
1246 1248 3.4328879733740432e-05
1247 1248 0.00029733577275464909
1248 1248 1.8635990208238056
1249 1249 1.8690337061220512
1250 1249 -0.025343140346947721
1251 1249 -0.014332690703849319
1252 1249 -0.032913524591978341
1253 1249 -0.081369629895043802
1254 1249 -0.16470162337141242
1255 1249 -0.11335746879872406
1249 1250 -0.025343140346947721
1250 1250 1.8561784652455076
1251 1250 9.7511816353886815e-05
1252 1250 0.00022392568373153882
1253 1250 0.00055359461604639849
1254 1250 0.0011205400844285912
1255 1250 0.0007712224388456212
1249 1251 -0.014332690703849319
1250 1251 9.7511816353886815e-05
1251 1251 1.8560611916674794
1252 1251 0.00012664008965087352
1253 1251 0.00031308276316533383
1254 1251 0.00063371603643091838
1255 1251 0.00043616112796273569
1249 1252 -0.032913524591978341
1250 1252 0.00022392568373153882
1251 1252 0.00012664008965087352
1252 1252 1.8562968600460914
1253 1252 0.00071896180819692361
1254 1252 0.0014552625728397463
1255 1252 0.0010015983954367368
1249 1253 -0.081369629895043802
1250 1253 0.00055359461604639849
1251 1253 0.00031308276316533383
1252 1253 0.00071896180819692361
1253 1253 1.8577834795023045
1254 1253 0.0035977361409947326
1255 1253 0.0024761763363386506
1249 1254 -0.16470162337141242
1250 1254 0.0011205400844285912
1251 1254 0.00063371603643091838
1252 1254 0.0014552625728397463
1253 1254 0.0035977361409947326
1254 1254 1.8632882819864742
1255 1254 0.0050120697719149036
1249 1255 -0.11335746879872406
1250 1255 0.0007712224388456212
1251 1255 0.00043616112796273569
1252 1255 0.0010015983954367368
1253 1255 0.0024761763363386506
1254 1255 0.0050120697719149036
1255 1255 1.8594556493261138
1256 1256 1.8775215600329769
1257 1256 -0.12809325535777169
1258 1256 -0.067637942546610902
1259 1256 -0.15295523045026635
1260 1256 -0.11080732069085944
1261 1256 -0.074238391618050348
1262 1256 -0.20550077297847158
1256 1257 -0.12809325535777169
1257 1257 1.8539128649684675
1258 1257 0.0023246283332303214
1259 1257 0.0052568728295576813
1260 1257 0.0038083038529713085
1261 1257 0.0025514772045267579
1262 1257 0.0070627949547294967
1256 1258 -0.067637942546610902
1257 1258 0.0023246283332303214
1258 1258 1.8507379550901344
1259 1258 0.0027758218918502138
1260 1258 0.0020109242792515384
1261 1258 0.0013472736568896767
1262 1258 0.0037294150892816951
1256 1259 -0.15295523045026635
1257 1259 0.0052568728295576813
1258 1259 0.0027758218918502138
1259 1259 1.8557876598200269
1260 1259 0.0045474681069577654
1261 1259 0.0030467004895532428
1262 1259 0.0084336324102804137
1256 1260 -0.11080732069085944
1257 1260 0.0038083038529713085
1258 1260 0.0020109242792515384
1259 1260 0.0045474681069577654
1260 1260 1.852804846652377
1261 1260 0.0022071603383625039
1262 1260 0.006109684567986216
1256 1261 -0.074238391618050348
1257 1261 0.0025514772045267579
1258 1261 0.0013472736568896767
1259 1261 0.0030467004895532428
1260 1261 0.0022071603383625039
1261 1261 1.8509892133330375
1262 1261 0.0040933500854726012
1256 1262 -0.20550077297847158
1257 1262 0.0070627949547294967
1258 1262 0.0037294150892816951
1259 1262 0.0084336324102804137
1260 1262 0.006109684567986216
1261 1262 0.0040933500854726012
1262 1262 1.8608413500060135
1263 1263 2.7172757090596829
1264 1263 -1.8080149312191205
1265 1263 -0.75340892069119469
1263 1264 -1.8080149312191205
1264 1264 9.0836502151047895
1265 1264 0.50392927984430014
1263 1265 -0.75340892069119469
1264 1265 0.50392927984430014
1265 1265 1.6779194883457516
1266 1266 2.7420258471959698
1267 1266 -2.0920204236768187
1268 1266 -1.1134450259560924
1266 1267 -2.0920204236768187
1267 1267 9.5734421994083228
1268 1267 0.63641076988326017
1266 1268 -1.1134450259560924
1267 1268 0.63641076988326017
1268 1268 2.4949895406045783
1269 1269 2.3022798752600111
1270 1269 -1.6179867828917514
1271 1269 -0.69936388498533042
1269 1270 -1.6179867828917514
1270 1270 9.0286018468208677
1271 1270 0.35965796802559991
1269 1271 -0.69936388498533042
1270 1271 0.35965796802559991
1271 1271 1.7021964109949381
1272 1272 2.9965613141048397
1273 1272 -1.9330454006028004
1274 1272 -0.78613909099249624
1272 1273 -1.9330454006028004
1273 1273 9.1377641466822688
1274 1273 0.58026093791790367
1272 1274 -0.78613909099249624
1273 1274 0.58026093791790367
1274 1274 1.6631254120306473
1275 1275 1.8660746862674387
1276 1275 0.038588912735093746
1277 1275 -0.12404749106607557
1278 1275 -0.13371302800963611
1279 1275 -0.0042755185241858274
1280 1275 -0.013595172593436228
1281 1275 -0.075080131847595918
1275 1276 0.038588912735093746
1276 1276 1.8555655311722414
1277 1276 -0.001286360927615777
1278 1276 -0.0013865916453978907
1279 1276 -4.4336728841057687e-05
1280 1276 -0.00014098067343477214
1281 1276 -0.00077857397371740159
1275 1277 -0.12404749106607557
1276 1277 -0.001286360927615777
1277 1277 1.8593004893184479
1278 1277 0.0044573221309851972
1279 1277 0.00014252435699771361
1280 1277 0.00045319490985515397
1281 1277 0.002502795264328758
1275 1278 -0.13371302800963611
1276 1278 -0.0013865916453978907
1277 1278 0.0044573221309851972
1278 1278 1.8599699956613762
1279 1278 0.0001536295750563749
1280 1278 0.00048850696740821895
1281 1278 0.0026978081572267879
1275 1279 -0.0042755185241858274
1276 1279 -4.4336728841057687e-05
1277 1279 0.00014252435699771361
1278 1279 0.0001536295750563749
1279 1279 1.8551702800983847
1280 1279 1.5620172689509095e-05
1281 1279 8.6263312727399475e-05
1275 1280 -0.013595172593436228
1276 1280 -0.00014098067343477214
1277 1280 0.00045319490985515397
1278 1280 0.00048850696740821895
1279 1280 1.5620172689509095e-05
1280 1280 1.8552150363239379
1281 1280 0.00027429763626948275
1275 1281 -0.075080131847595918
1276 1281 -0.00077857397371740159
1277 1281 0.002502795264328758
1278 1281 0.0026978081572267879
1279 1281 8.6263312727399475e-05
1280 1281 0.00027429763626948275
1281 1281 1.8566801924012872
1282 1282 1.0000000000000002e-08
1283 1283 1.0000000000000002e-08
1284 1284 1.0000000000000002e-08
1285 1285 1.0000000000000002e-08
1286 1286 1.0000000000000002e-08
1287 1287 1.0000000000000002e-08
1288 1288 1.0000000000000002e-08
1289 1289 1.0000000000000002e-08
1290 1290 1.0000000000000002e-08
1291 1291 1.0000000000000002e-08
1292 1292 1.0000000000000002e-08
1293 1293 1.0000000000000002e-08
1294 1294 1.0000000000000002e-08
1295 1295 1.0000000000000002e-08
1296 1296 1.0000000000000002e-08
1297 1297 1.0000000000000002e-08
1298 1298 0.98139046417741782
1299 1298 -0.89600158219335091
1300 1298 -0.91200802818978843
1298 1299 -0.89600158219335091
1299 1299 17.595353884764656
1300 1299 -1.988792932246537
1298 1300 -0.91200802818978843
1299 1300 -1.988792932246537
1300 1300 4.0099616372903952
1301 1301 0.78419799163117776
1302 1301 -10.276513873687026
1303 1301 -0.27294968080250182
1301 1302 -10.276513873687026
1302 1302 139.55019247994898
1303 1302 1.7283088629852934
1301 1303 -0.27294968080250182
1302 1303 1.7283088629852934
1303 1303 0.79501821340740053
1304 1304 1.9550628974053974
1305 1304 -10.086947430990639
1306 1304 -0.2023631950681872
1304 1305 -10.086947430990639
1305 1305 89.354195793431359
1306 1305 -0.4099367946095448
1304 1306 -0.2023631950681872
1305 1306 -0.4099367946095448
1306 1306 0.93668316222844361
1307 1307 0.88309519392765401
1308 1307 -12.289959760483942
1309 1307 -0.25488407546034503
1307 1308 -12.289959760483942
1308 1308 186.95435757889734
1309 1308 2.0063426934923734
1307 1309 -0.25488407546034503
1308 1309 2.0063426934923734
1309 1309 0.69950178055517209
1310 1310 1.1285080024683039
1311 1310 -1.4558675404525565
1312 1310 -1.0496400620415318
1310 1311 -1.4558675404525565
1311 1311 13.105761273164264
1312 1311 -1.1613794456468971
1310 1312 -1.0496400620415318
1311 1312 -1.1613794456468971
1312 1312 3.8738022779823629
1313 1313 1.2120191083549554
1314 1313 -5.0993857676401371
1315 1313 -0.39693409419326453
1313 1314 -5.0993857676401371
1314 1314 37.596820561624845
1315 1314 -0.32902456316090178
1313 1315 -0.39693409419326453
1314 1315 -0.32902456316090178
1315 1315 1.513876279769216
1316 1316 1.2663622264324312
1317 1316 -7.8634475210385215
1318 1316 -0.29874890525647713
1316 1317 -7.8634475210385215
1317 1317 71.726345243739985
1318 1317 0.14963118220917959
1316 1318 -0.29874890525647713
1317 1318 0.14963118220917959
1318 1318 1.0804019433414616
1319 1319 1.7176413840355604
1320 1319 -7.0650143864635355
1321 1319 -0.18531808606242295
1319 1320 -7.0650143864635355
1320 1320 61.948709749693819
1321 1320 -0.88282545338796847
1319 1321 -0.18531808606242295
1320 1321 -0.88282545338796847
1321 1321 1.1132850546136355
1322 1322 1.9009219175041958
1323 1322 0.24670649485373886
1324 1322 -0.390201918258612
1325 1322 0.29651842350855839
1326 1322 -0.11832644636828721
1327 1322 0.090296369074806412
1328 1322 -0.034312532270950699
1322 1323 0.24670649485373886
1323 1323 1.8299806244149841
1324 1323 -0.025915979272869625
1325 1323 0.019693817375287016
1326 1323 -0.0078588689291897666
1327 1323 0.0059971997057357397
1328 1323 -0.0022789300449934484
1322 1324 -0.390201918258612
1323 1324 -0.025915979272869625
1324 1324 1.8545850186203987
1325 1324 -0.031148613749417537
1326 1324 0.012429935147556076
1327 1324 -0.0094854366551858308
1328 1324 0.0036044566871286485
1322 1325 0.29651842350855839
1323 1325 0.019693817375287016
1324 1325 -0.031148613749417537
1325 1325 1.8372653078143584
1326 1325 -0.0094456346875880642
1327 1325 0.0072080802058535742
1328 1325 -0.0027390634552542439
1322 1326 -0.11832644636828721
1323 1326 -0.0078588689291897666
1324 1326 0.012429935147556076
1325 1326 -0.0094456346875880642
1326 1326 1.8173644630837358
1327 1326 -0.0028764031111598982
1328 1326 0.0010930303797063127
1322 1327 0.090296369074806412
1323 1327 0.0059971997057357397
1324 1327 -0.0094854366551858308
1325 1327 0.0072080802058535742
1326 1327 -0.0028764031111598982
1327 1327 1.8157901767032698
1328 1327 -0.00083410494952875381
1322 1328 -0.034312532270950699
1323 1328 -0.0022789300449934484
1324 1328 0.0036044566871286485
1325 1328 -0.0027390634552542439
1326 1328 0.0010930303797063127
1327 1328 -0.00083410494952875381
1328 1328 1.8139121171183081
1329 1329 1.0000000000000002e-08
1330 1330 1.0000000000000002e-08
1331 1331 1.0000000000000002e-08
1332 1332 1.0000000000000002e-08
1333 1333 1.0000000000000002e-08
1334 1334 1.0000000000000002e-08
1335 1335 1.0000000000000002e-08
1336 1336 1.0000000000000002e-08
1337 1337 1.0000000000000002e-08
1338 1338 1.0000000000000002e-08
1339 1339 1.0000000000000002e-08
1340 1340 1.0000000000000002e-08
1341 1341 1.0000000000000002e-08
1342 1342 1.0000000000000002e-08
1343 1343 1.0000000000000002e-08
1344 1344 1.0000000000000002e-08
1345 1345 2.1439315591137884
1346 1345 -1.8636240806684314
1347 1345 -1.3397851854165315
1345 1346 -1.8636240806684314
1346 1346 9.9420711210652435
1347 1346 0.28804875850673861
1345 1347 -1.3397851854165315
1346 1347 0.28804875850673861
1347 1347 3.5142939138363536
1348 1348 2.3145876282096247
1349 1348 -1.8445976004526814
1350 1348 -1.0308469303300447
1348 1349 -1.8445976004526814
1349 1349 9.5286394644301922
1350 1349 0.41527963247702443
1348 1350 -1.0308469303300447
1349 1350 0.41527963247702443
1350 1350 2.5352515866237431
1351 1351 2.1562486172173578
1352 1351 -1.5456614156379933
1353 1351 -0.67831356174536328
1351 1352 -1.5456614156379933
1352 1352 9.0126964363380608
1353 1352 0.30351307053481147
1351 1353 -0.67831356174536328
1352 1353 0.30351307053481147
1353 1353 1.7091230795194186
1354 1354 2.1625774042521377
1355 1354 -1.5464914672085486
1356 1354 -0.67980738583987632
1354 1355 -1.5464914672085486
1355 1355 9.0058785765841698
1356 1355 0.31063865767566717
1354 1356 -0.67980738583987632
1355 1356 0.31063865767566717
1356 1356 1.7095517988439162
1357 1357 2.9806493642567151
1358 1357 -2.4396457684925461
1359 1357 -1.5425103637085125
1357 1358 -2.4396457684925461
1358 1358 10.068105877384662
1359 1358 0.85584757857968374
1357 1359 -1.5425103637085125
1358 1359 0.85584757857968374
1359 1359 3.3869128098693313
1360 1360 2.3063480281694138
1361 1360 -1.6201278856550585
1362 1360 -0.69945151947839757
1360 1361 -1.6201278856550585
1361 1361 9.0296821373923848
1362 1361 0.36001804134674931
1360 1362 -0.69945151947839757
1361 1362 0.36001804134674931
1362 1362 1.7002395621953652
1363 1363 2.1446423127728562
1364 1363 -1.5371777142028218
1365 1363 -0.67713770075641033
1363 1364 -1.5371777142028218
1364 1364 9.0030907506873721
1365 1364 0.3039091452915309
1363 1365 -0.67713770075641033
1364 1365 0.3039091452915309
1365 1365 1.7100908263203451
1366 1366 2.2974063601243397
1367 1366 -1.8319354354825979
1368 1366 -1.0294650673373775
1366 1367 -1.8319354354825979
1367 1367 9.5092364297176601
1368 1367 0.41445420259539584
1366 1368 -1.0294650673373775
1367 1368 0.41445420259539584
1368 1368 2.53803169756294
1369 1369 2.6913588396597494
1370 1369 -2.357216491282657
1371 1369 -1.8139398963854092
1369 1370 -2.357216491282657
1370 1370 10.40149285060467
1371 1370 0.69183139223568468
1369 1371 -1.8139398963854092
1370 1371 0.69183139223568468
1371 1371 4.288440508287616
1372 1372 2.4393263480724805
1373 1372 -1.9148438759949629
1374 1372 -1.0583358796135913
1372 1373 -1.9148438759949629
1373 1373 9.5126243580316583
1374 1373 0.49732915261532029
1372 1374 -1.0583358796135913
1373 1374 0.49732915261532029
1374 1374 2.5215779407216701
1375 1375 1.8619621826552075
1376 1375 -0.011558822706001802
1377 1375 -0.0020671813429911138
1378 1375 -0.032213431630334952
1379 1375 0.02312545988515128
1380 1375 -0.0085660727517780037
1381 1375 0.053790596232037316
1375 1376 -0.011558822706001802
1376 1376 1.8607416679049056
1377 1376 6.4185640238780372e-06
1378 1376 0.00010002217466269555
1379 1376 -7.1804172071179929e-05
1380 1376 2.6597514812574714e-05
1381 1376 -0.00016701891537891479
1375 1377 -0.0020671813429911138
1376 1377 6.4185640238780372e-06
1377 1377 1.8607069258475928
1378 1377 1.7887978612282257e-05
1379 1377 -1.284146739073996e-05
1380 1377 4.7567029782311182e-06
1381 1377 -2.986968435969109e-05
1375 1378 -0.032213431630334952
1376 1378 0.00010002217466269555
1377 1378 1.7887978612282257e-05
1378 1378 1.8609845310354938
1379 1378 -0.00020011197045065226
1380 1378 7.4124956039581212e-05
1381 1378 -0.0004654671629090503
1375 1379 0.02312545988515128
1376 1379 -7.1804172071179929e-05
1377 1379 -1.284146739073996e-05
1378 1379 -0.00020011197045065226
1379 1379 1.8608494348389422
1380 1379 -5.3213011176608813e-05
1381 1379 0.00033415074578928045
1375 1380 -0.0085660727517780037
1376 1380 2.6597514812574714e-05
1377 1380 4.7567029782311182e-06
1378 1380 7.4124956039581212e-05
1379 1380 -5.3213011176608813e-05
1380 1380 1.8607254889760843
1381 1380 -0.00012377525085802761
1375 1381 0.053790596232037316
1376 1381 -0.00016701891537891479
1377 1381 -2.986968435969109e-05
1378 1381 -0.0004654671629090503
1379 1381 0.00033415074578928045
1380 1381 -0.00012377525085802761
1381 1381 1.8614830238060642
1382 1382 1.0000000000000002e-08
1383 1383 1.0000000000000002e-08
1384 1384 1.0000000000000002e-08
1385 1385 1.0000000000000002e-08
1386 1386 1.0000000000000002e-08
1387 1387 1.0000000000000002e-08
1388 1388 1.0000000000000002e-08
1389 1389 1.0000000000000002e-08
1390 1390 1.0000000000000002e-08
1391 1391 1.0000000000000002e-08
1392 1392 1.0000000000000002e-08
1393 1393 1.0000000000000002e-08
1394 1394 1.0000000000000002e-08
1395 1395 1.0000000000000002e-08
1396 1396 1.0000000000000002e-08
1397 1397 1.0000000000000002e-08
1398 1398 1.0000000000000002e-08
1399 1399 1.0000000000000002e-08
1400 1400 1.0000000000000002e-08
1401 1401 1.0000000000000002e-08
1402 1402 1.0000000000000002e-08
1403 1403 1.0000000000000002e-08
1404 1404 1.0000000000000002e-08
1405 1405 1.0000000000000002e-08
1406 1406 1.0000000000000002e-08
1407 1407 1.0000000000000002e-08
1408 1408 1.0000000000000002e-08
1409 1409 1.0000000000000002e-08
1410 1410 1.0000000000000002e-08
1411 1411 1.0000000000000002e-08
1412 1412 1.0000000000000002e-08
1413 1413 1.0000000000000002e-08
1414 1414 1.8618937822339285
1415 1414 0.022692394834170217
1416 1414 0.056550131323772186
1417 1414 0.02236987316006905
1418 1414 0.031031479280697952
1419 1414 0.0033146245496031668
1420 1414 -0.018828412798846735
1414 1415 0.022692394834170217
1415 1415 1.8605433325646374
1416 1415 0.00034474876568047559
1417 1415 0.00013637432804900824
1418 1415 0.00018917841442328689
1419 1415 2.0207074597712344e-05
1420 1415 -0.00011478438546784072
1414 1416 0.056550131323772186
1415 1416 0.00034474876568047559
1416 1416 1.86126411634158
1417 1416 0.00033984893250446591
1418 1416 0.00047143830598041252
1419 1416 5.0356638447397228e-05
1420 1416 -0.00028604614539628147
1414 1417 0.02236987316006905
1415 1417 0.00013637432804900824
1416 1417 0.00033984893250446591
1417 1417 1.860539428106937
1418 1417 0.00018648966608405355
1419 1417 1.9919876195976109e-05
1420 1417 -0.00011315298197639362
1414 1418 0.031031479280697952
1415 1418 0.00018917841442328689
1416 1418 0.00047143830598041252
1417 1418 0.00018648966608405355
1418 1418 1.8606636904268636
1419 1418 2.763284445228356e-05
1420 1418 -0.00015696577225200541
1414 1419 0.0033146245496031668
1415 1419 2.0207074597712344e-05
1416 1419 5.0356638447397228e-05
1417 1419 1.9919876195976109e-05
1418 1419 2.763284445228356e-05
1419 1419 1.860407943634848
1420 1419 -1.6766284244706967e-05
1414 1420 -0.018828412798846735
1415 1420 -0.00011478438546784072
1416 1420 -0.00028604614539628147
1417 1420 -0.00011315298197639362
1418 1420 -0.00015696577225200541
1419 1420 -1.6766284244706967e-05
1420 1420 1.8605002313348558
1421 1421 14.310135621117903
1422 1422 14.108561632586186
1423 1423 13.88293573193072
1424 1424 13.82053540935507
1425 1425 12.661311151015548
1426 1426 11.203544128568595
1427 1427 9.7403966962340558
1428 1428 9.1931879449988649
1429 1429 9.5428015189732776
1430 1430 10.175506528030175
1431 1431 10.17527328886271
1432 1432 9.7003964367641107
1433 1433 10.723375389898813
1434 1434 11.58700899592991
1435 1435 10.703201500145981
1436 1436 8.4202328309986925
1437 1437 1.0000000000000002e-08
1438 1438 1.0000000000000002e-08
1439 1439 1.0000000000000002e-08
1440 1440 1.0000000000000002e-08
1441 1441 1.0000000000000002e-08
1442 1442 1.0000000000000002e-08
1443 1443 1.0000000000000002e-08
1444 1444 1.0000000000000002e-08
1445 1445 1.0000000000000002e-08
1446 1446 1.0000000000000002e-08
1447 1447 1.0000000000000002e-08
1448 1448 1.0000000000000002e-08
1449 1449 1.0000000000000002e-08
1450 1450 1.0000000000000002e-08
1451 1451 1.0000000000000002e-08
1452 1452 1.0000000000000002e-08
