%%MatrixMarket matrix coordinate real general
360 360 1920
1 1 4.5215997986651892
2 2 3.4727679955723993
3 2 1.056625726142455
5 2 -0.0077939230505008816
2 3 1.056625726142455
3 3 2.398609188477546
5 3 1.0663648840447137
4 4 3.4630288376704637
6 4 1.0663648840447186
7 4 -0.0077939230504758261
2 5 -0.0077939230505008816
3 5 1.0663648840447137
5 5 3.4630288376703358
4 6 1.0663648840447186
6 6 2.3986091884773764
7 6 1.056625726142443
4 7 -0.0077939230504758261
6 7 1.056625726142443
7 7 3.4727679955721409
8 8 4.521599798664794
9 9 2.6672235687190775
10 9 1.1476773954011188
12 9 -0.0084655418519969244
16 9 0.24691657269680828
18 9 -0.0025757290209238344
27 9 1.3434456660338645e-05
9 10 1.1476773954011188
10 10 2.0891435708893904
12 10 0.81718921301961267
16 10 0.79269031192749706
18 10 0.24505795384043055
27 10 -0.0025994700969051944
11 11 2.659743509145164
13 11 0.81901052847681055
14 11 -0.0059860420499463062
17 11 0.80925458309880627
19 11 0.24919245850072419
20 11 -0.0018213154571883748
23 11 -0.0059692545741470218
28 11 -0.0018381029330133229
29 11 1.3434456660295457e-05
9 12 -0.0084655418519969244
10 12 0.81718921301961267
12 12 2.6597569436017263
16 12 0.35241135445281724
18 12 0.80741648016576306
27 12 -0.0084418007760160424
11 13 0.81901052847681055
13 13 1.8422269981924522
14 13 0.81153046890263647
17 13 0.24919245850072425
19 13 0.56051669494477319
20 13 0.2469165726968055
23 13 -0.0018381029330133234
28 13 -0.0041345046602922269
29 13 -0.0018213154571942096
11 14 -0.0059860420499463062
13 14 0.81153046890263647
14 14 2.6672235687188786
17 14 -0.0018213154571883102
19 14 0.2469165726968055
20 14 0.81153046890258518
23 14 1.3434456660294979e-05
28 14 -0.0018213154571942096
29 14 -0.0059860420499651037
15 15 3.4727679955720956
21 15 1.0566257261423626
30 15 -0.0077939230505001999
9 16 0.24691657269680828
10 16 0.79269031192749706
12 16 0.35241135445281724
16 16 1.2724093896465867
18 16 0.79999671752074097
27 16 0.25148932165798393
11 17 0.80925458309880627
13 17 0.24919245850072425
14 17 -0.0018213154571883102
17 17 1.8370605892516716
19 17 0.56568310388589738
20 17 -0.0041345046602792278
23 17 0.8167136653196222
28 17 0.25148932165798504
29 17 -0.0018381029330074056
9 18 -0.0025757290209238344
10 18 0.24505795384043055
12 18 0.80741648016576306
16 18 0.79999671752074097
18 18 2.0885499109095877
27 18 1.1550075420704082
11 19 0.24919245850072419
13 19 0.56051669494477319
14 19 0.2469165726968055
17 19 0.56568310388589738
19 19 1.2724093896464967
20 19 0.56051669494480638
23 19 0.2514893216579851
28 19 0.56568310388585485
29 19 0.24919245850072028
11 20 -0.0018213154571883748
13 20 0.2469165726968055
14 20 0.81153046890258518
17 20 -0.0041345046602792278
19 20 0.56051669494480638
20 20 1.8422269981924451
23 20 -0.0018381029330073403
28 20 0.24919245850072028
29 20 0.81901052847674594
15 21 1.0566257261423626
21 21 2.398609188477336
30 21 1.0663648840446205
22 22 2.6522844269245955
24 22 1.155007542070456
25 22 -0.0084418007759892149
31 22 0.25148932165798615
32 22 -0.0025994700968968495
34 22 1.3434456660252268e-05
11 23 -0.0059692545741470218
13 23 -0.0018381029330133234
14 23 1.3434456660294979e-05
17 23 0.8167136653196222
19 23 0.2514893216579851
20 23 -0.0018381029330073403
23 23 2.6522844269244978
28 23 0.81671366531959566
29 23 -0.0059692545741276111
22 24 1.155007542070456
24 24 2.0885499109095282
25 24 0.80741648016578971
31 24 0.79999671752068813
32 24 0.24505795384044243
34 24 -0.0025757290209155251
22 25 -0.0084418007759892149
24 25 0.80741648016578971
25 25 2.6597569436016264
31 25 0.3524113544528148
32 25 0.81718921301956116
34 25 -0.0084655418519690787
26 26 3.4630288376701608
33 26 1.0663648840446251
35 26 -0.0077939230504751444
9 27 1.3434456660338645e-05
10 27 -0.0025994700969051944
12 27 -0.0084418007760160424
16 27 0.25148932165798393
18 27 1.1550075420704082
27 27 2.6522844269243997
11 28 -0.0018381029330133229
13 28 -0.0041345046602922269
14 28 -0.0018213154571942096
17 28 0.25148932165798504
19 28 0.56568310388585485
20 28 0.24919245850072028
23 28 0.81671366531959566
28 28 1.837060589251474
29 28 0.8092545830987673
11 29 1.3434456660295457e-05
13 29 -0.0018213154571942096
14 29 -0.0059860420499651037
17 29 -0.0018381029330074056
19 29 0.24919245850072028
20 29 0.81901052847674594
23 29 -0.0059692545741276111
28 29 0.8092545830987673
29 29 2.6597435091448678
15 30 -0.0077939230505001999
21 30 1.0663648840446205
30 30 3.4630288376700329
22 31 0.25148932165798615
24 31 0.79999671752068813
25 31 0.3524113544528148
31 31 1.2724093896464068
32 31 0.79269031192743211
34 31 0.2469165726968027
22 32 -0.0025994700968968495
24 32 0.24505795384044243
25 32 0.81718921301956116
31 32 0.79269031192743211
32 32 2.0891435708891177
34 32 1.1476773954010202
26 33 1.0663648840446251
33 33 2.3986091884771668
35 33 1.0566257261423506
22 34 1.3434456660252268e-05
24 34 -0.0025757290209155251
25 34 -0.0084655418519690787
31 34 0.2469165726968027
32 34 1.1476773954010202
34 34 2.66722356871868
26 35 -0.0077939230504751444
33 35 1.0566257261423506
35 35 3.4727679955718367
36 36 4.5215997986643979
37 37 4.5733574172586327
38 38 3.4940973375859032
39 38 1.0778871271217019
41 38 0.0013729525502615156
38 39 1.0778871271217019
39 39 2.4123830937210742
41 39 1.0830871964159956
40 40 3.4888972682920731
42 40 1.0830871964160738
43 40 0.001372952550326636
38 41 0.0013729525502615156
39 41 1.0830871964159956
41 41 3.4888972682921726
40 42 1.0830871964160738
42 42 2.4123830937209156
43 42 1.0778871271217334
40 43 0.001372952550326636
42 43 1.0778871271217334
43 43 3.4940973375858984
44 44 4.5733574172583813
45 45 2.6695303014601808
46 45 1.1646304442207083
48 45 0.0014834413532470786
52 45 0.25404545349642788
54 45 0.00045762386804810518
63 45 4.1216955809495367e-07
45 46 1.1646304442207083
46 46 2.0971337093385873
48 46 0.82781458599941604
52 46 0.80408028805845411
54 46 0.25599526289468699
63 46 0.00045983159069799649
47 47 2.6655573890862128
49 47 0.82749099705914619
50 47 0.0010489514404233107
53 47 0.82229248886055961
55 47 0.25527104932075984
56 47 0.00032358894034498111
59 47 0.0010473903447169798
64 47 0.00032515003598637373
65 47 4.1216955811450329e-07
45 48 0.0014834413532470786
46 48 0.82781458599941604
48 48 2.6655578012558463
52 48 0.3610077800306038
54 48 0.82261763889656936
63 48 0.0014812336305974263
47 49 0.82749099705914619
49 49 1.8430882558420383
50 49 0.82351808468478804
53 49 0.25527104932075984
55 49 0.56857062430452798
56 49 0.25404545349643531
59 49 0.00032515003598637373
64 49 0.00072421357394552655
65 49 0.00032358894032964247
47 50 0.0010489514404233107
49 50 0.82351808468478804
50 50 2.6695303014601772
53 50 0.00032358894034497526
55 50 0.25404545349643531
56 50 0.82351808468476284
59 50 4.1216955811449583e-07
64 50 0.00032358894032964247
65 50 0.0010489514403735564
51 51 3.4940973375857118
57 51 1.0778871271216428
66 51 0.0013729525502614403
45 52 0.25404545349642788
46 52 0.80408028805845411
48 52 0.3610077800306038
52 52 1.2724988801292374
54 52 0.80795942633821527
63 52 0.25650255780794229
47 53 0.82229248886055961
49 53 0.25527104932075984
50 53 0.00032358894034497526
53 53 1.8403452908596245
55 53 0.57131358928738607
56 53 0.00072421357397992438
59 53 0.82625948857199538
64 53 0.25650255780796077
65 53 0.00032515003600177243
45 54 0.00045762386804810518
46 54 0.25599526289468699
48 54 0.82261763889656936
52 54 0.80795942633821527
54 54 2.0968478486676192
63 54 1.1685073747780066
47 55 0.25527104932075984
49 55 0.56857062430452798
50 55 0.25404545349643531
53 55 0.57131358928738607
55 55 1.2724988801291539
56 55 0.56857062430458205
59 55 0.25650255780796077
64 55 0.57131358928730736
65 55 0.2552710493207489
47 56 0.00032358894034498111
49 56 0.25404545349643531
50 56 0.82351808468476284
53 56 0.00072421357397992438
55 56 0.56857062430458205
56 56 1.8430882558421569
59 56 0.00032515003600176658
64 56 0.2552710493207489
65 56 0.82749099705908535
51 57 1.0778871271216428
57 57 2.4123830937209418
66 57 1.0830871964159361
58 58 2.6615903893751307
60 58 1.1685073747780577
61 58 0.0014812336306676405
67 58 0.25650255780797926
68 58 0.00045983159071983991
70 58 4.1216955813405287e-07
47 59 0.0010473903447169798
49 59 0.00032515003598637373
50 59 4.1216955811449583e-07
53 59 0.82625948857199538
55 59 0.25650255780796077
56 59 0.00032515003600176658
59 59 2.6615903893752062
64 59 0.82625948857207854
65 59 0.0010473903447666883
58 60 1.1685073747780577
60 60 2.0968478486674829
61 60 0.82261763889658546
67 60 0.80795942633822049
68 60 0.25599526289474722
70 60 0.00045762386806982413
58 61 0.0014812336306676405
60 61 0.82261763889658546
61 61 2.6655578012557672
67 61 0.36100778003064038
68 61 0.82781458599948998
70 61 0.0014834413533174374
62 62 3.4888972682918822
69 62 1.0830871964160143
71 62 0.0013729525503265608
45 63 4.1216955809495367e-07
46 63 0.00045983159069799649
48 63 0.0014812336305974263
52 63 0.25650255780794229
54 63 1.1685073747780066
63 63 2.6615903893752821
47 64 0.00032515003598637373
49 64 0.00072421357394552655
50 64 0.00032358894032964247
53 64 0.25650255780796077
55 64 0.57131358928730736
56 64 0.2552710493207489
59 64 0.82625948857207854
64 64 1.8403452908595559
65 64 0.82229248886060713
47 65 4.1216955811450329e-07
49 65 0.00032358894032964247
50 65 0.0010489514403735564
53 65 0.00032515003600177243
55 65 0.2552710493207489
56 65 0.82749099705908535
59 65 0.0010473903447666883
64 65 0.82229248886060713
65 65 2.6655573890862847
51 66 0.0013729525502614403
57 66 1.0830871964159361
66 66 3.4888972682919812
58 67 0.25650255780797926
60 67 0.80795942633822049
61 67 0.36100778003064038
67 67 1.2724988801290702
68 67 0.8040802880584248
70 67 0.25404545349644275
58 68 0.00045983159071983991
60 68 0.25599526289474722
61 68 0.82781458599948998
67 68 0.8040802880584248
68 68 2.0971337093384785
70 68 1.1646304442207407
62 69 1.0830871964160143
69 69 2.4123830937207833
71 69 1.0778871271216743
58 70 4.1216955813405287e-07
60 70 0.00045762386806982413
61 70 0.0014834413533174374
67 70 0.25404545349644275
68 70 1.1646304442207407
70 70 2.6695303014601737
62 71 0.0013729525503265608
69 71 1.0778871271216743
71 71 3.494097337585707
72 72 4.5733574172581308
73 73 4.5515972748013276
74 74 3.4852914810047637
75 74 1.0687888327034338
77 74 -0.002483038906810872
74 75 1.0687888327034338
75 75 2.4065520466395141
77 75 1.0762563954586066
76 76 3.4778239182500439
78 76 1.0762563954585962
79 76 -0.0024830389067995928
74 77 -0.002483038906810872
75 77 1.0762563954586066
77 77 3.4778239182497162
76 78 1.0762563954585962
78 78 2.4065520466391925
79 78 1.0687888327034456
76 79 -0.0024830389067995928
78 79 1.0687888327034456
79 79 3.4852914810048898
80 80 4.5515972748013338
81 81 2.6687898718685292
82 81 1.1573965440604119
84 81 -0.0026888947204296637
88 81 0.25096894566806732
90 81 -0.00082456823654431302
99 81 1.3545755131335126e-06
81 82 1.1573965440604119
82 82 2.0937364052772667
84 82 0.8235380187771344
88 82 0.799168458851792
90 82 0.25140960093675663
99 82 -0.0008303294448053889
83 83 2.6630717401271222
85 83 0.8241210765687379
86 83 -0.0019013356907038839
89 83 0.81664944002425022
91 83 0.25272245047091291
92 83 -0.00058305779160886819
95 83 -0.0018972619012835334
100 83 -0.00058713158104074586
101 83 1.3545755131273594e-06
81 84 -0.0026888947204296637
82 84 0.8235380187771344
84 84 2.6630730947023844
88 84 0.35740351697213141
90 84 0.81606230844313254
99 84 -0.0026831335121686841
83 85 0.8241210765687379
85 85 1.8427674596089532
86 85 0.81840294482700082
89 85 0.25272245047091291
91 85 0.5650974365644289
92 85 0.25096894566807004
95 85 -0.00058713158104074586
100 85 -0.0013128495341585519
101 85 -0.00058305779161152318
83 86 -0.0019013356907038839
85 86 0.81840294482700082
86 86 2.668789871868626
89 86 -0.00058305779160882103
91 86 0.25096894566807004
92 86 0.81840294482702147
95 86 1.3545755131272499e-06
100 86 -0.00058305779161152318
101 86 -0.0019013356907125896
87 87 3.4852914810047682
93 87 1.0687888327034352
102 87 -0.0024830389068108754
81 88 0.25096894566806732
82 88 0.799168458851792
84 88 0.35740351697213141
88 88 1.2724088719928606
90 88 0.80475220040655271
99 88 0.25448820690547597
83 89 0.81664944002425022
85 89 0.25272245047091291
86 89 -0.00058305779160882103
89 89 1.8388191580916746
91 89 0.56904573808226333
92 89 -0.0013128495341527635
95 89 0.82235532013429247
100 89 0.25448820690547352
101 89 -0.00058713158103808447
81 90 -0.00082456823654431302
82 90 0.25140960093675663
84 90 0.81606230844313254
88 90 0.80475220040655271
90 90 2.0933073649969773
99 90 1.1629860468234752
83 91 0.25272245047091291
85 91 0.5650974365644289
86 91 0.25096894566807004
89 91 0.56904573808226333
91 91 1.2724088719926905
92 91 0.56509743656451061
95 91 0.25448820690547352
100 91 0.56904573808219283
101 91 0.25272245047091813
83 92 -0.00058305779160886819
85 92 0.25096894566807004
86 92 0.81840294482702147
89 92 -0.0013128495341527635
91 92 0.56509743656451061
92 92 1.842767459609266
95 92 -0.00058713158103803698
100 92 0.25272245047091813
101 92 0.82412107656877576
87 93 1.0687888327034352
93 93 2.4065520466395172
102 93 1.076256395458608
94 94 2.6573658600174261
96 94 1.1629860468235735
97 94 -0.0026831335121567487
103 94 0.25448820690547103
104 94 -0.00083032944480160894
106 94 1.3545755131212059e-06
83 95 -0.0018972619012835334
85 95 -0.00058713158104074586
86 95 1.3545755131272499e-06
89 95 0.82235532013429247
91 95 0.25448820690547352
92 95 -0.00058713158103803698
95 95 2.6573658600171757
100 95 0.82235532013420698
101 95 -0.001897261901274736
94 96 1.1629860468235735
96 96 2.0933073649968996
97 96 0.81606230844322103
103 96 0.80475220040643736
104 96 0.25140960093676312
106 96 -0.00082456823654057621
94 97 -0.0026831335121567487
96 97 0.81606230844322103
97 97 2.6630730947027317
103 97 0.35740351697213174
104 97 0.82353801877715893
106 97 -0.0026888947204175462
98 98 3.4778239182500483
105 98 1.0762563954585975
107 98 -0.0024830389067995958
81 99 1.3545755131335126e-06
82 99 -0.0008303294448053889
84 99 -0.0026831335121686841
88 99 0.25448820690547597
90 99 1.1629860468234752
99 99 2.6573658600169252
83 100 -0.00058713158104074586
85 100 -0.0013128495341585519
86 100 -0.00058305779161152318
89 100 0.25448820690547352
91 100 0.56904573808219283
92 100 0.25272245047091813
95 100 0.82235532013420698
100 100 1.8388191580912554
101 100 0.81664944002418216
83 101 1.3545755131273594e-06
85 101 -0.00058305779161152318
86 101 -0.0019013356907125896
89 101 -0.00058713158103808447
91 101 0.25272245047091813
92 101 0.82412107656877576
95 101 -0.001897261901274736
100 101 0.81664944002418216
101 101 2.6630717401269677
87 102 -0.0024830389068108754
93 102 1.076256395458608
102 102 3.4778239182497206
94 103 0.25448820690547103
96 103 0.80475220040643736
97 103 0.35740351697213174
103 103 1.2724088719925204
104 103 0.79916845885169385
106 103 0.25096894566807276
94 104 -0.00083032944480160894
96 104 0.25140960093676312
97 104 0.82353801877715893
103 104 0.79916845885169385
104 104 2.0937364052770926
106 104 1.1573965440604663
98 105 1.0762563954585975
105 105 2.4065520466391952
107 105 1.0687888327034469
94 106 1.3545755131212059e-06
96 106 -0.00082456823654057621
97 106 -0.0026888947204175462
103 106 0.25096894566807276
104 106 1.1573965440604663
106 106 2.6687898718687224
98 107 -0.0024830389067995958
105 107 1.0687888327034469
107 107 3.4852914810048943
108 108 4.5515972748013391
109 109 4.590973507425482
110 110 3.4998986600424513
111 110 1.0865779410482477
113 110 0.0044969063340970653
110 111 1.0865779410482477
111 111 2.4171445498559763
113 111 1.0872510165205496
112 112 3.4992255845697655
114 112 1.0872510165205445
115 112 0.0044969063341346489
110 113 0.0044969063340970653
111 113 1.0872510165205496
113 113 3.4992255845697549
112 114 1.0872510165205445
114 114 2.4171445498558208
115 114 1.0865779410483065
112 115 0.0044969063341346489
114 115 1.0865779410483065
115 115 3.4998986600419988
116 116 4.5909735074247271
117 117 2.6681248783104792
118 117 1.1714575741681974
120 117 0.0048481887827769143
124 117 0.25716803207864752
126 117 0.0015051678630158456
135 117 4.4047665597153982e-06
117 118 1.1714575741681974
118 118 2.0998623882982113
120 118 0.82992302365843507
124 118 0.80904693691656937
126 118 0.25969495182166191
135 118 0.0015061002319992575
119 119 2.6676117636211893
121 119 0.82885870925566851
122 119 0.0034281871648027609
125 119 0.82818629306771052
127 119 0.25732733357752019
128 119 0.001064314402771464
131 119 0.0034275278803429948
136 119 0.0010649736871933024
137 119 4.4047665597522111e-06
117 120 0.0048481887827769143
118 120 0.82992302365843507
120 120 2.6676161683877404
124 120 0.36391580511463634
126 120 0.82925126675490124
135 120 0.0048472564137929551
119 121 0.82885870925566851
121 121 1.8426943562194451
122 121 0.82834559456672008
125 121 0.25732733357752019
127 121 0.57208257539187435
128 121 0.25716803207866146
131 121 0.0010649736871933024
136 121 0.0023676182441403431
137 121 0.0010643144027626262
119 122 0.0034281871648027609
121 122 0.82834559456672008
122 122 2.6681248783101341
125 122 0.0010643144027714826
127 122 0.25716803207866146
128 122 0.8283455945665682
131 122 4.404766559752289e-06
136 122 0.0010643144027626262
137 122 0.0034281871647736661
123 123 3.4998986600418762
129 123 1.0865779410480692
138 123 0.0044969063340963263
117 124 0.25716803207864752
118 124 0.80904693691656937
120 124 0.36391580511463634
124 124 1.2726250252757736
126 124 0.80954809714503329
135 124 0.25748673375494158
119 125 0.82818629306771052
121 125 0.25732733357752019
122 125 0.0010643144027714826
125 125 1.842339982423354
127 125 0.57243694918791621
128 125 0.0023676182441602833
131 125 0.82869930907816147
136 125 0.2574867337549403
137 125 0.001064973687202208
117 126 0.0015051678630158456
118 126 0.25969495182166191
120 126 0.82925126675490124
124 126 0.80954809714503329
126 126 2.0998267161782898
135 126 1.1719578020275456
119 127 0.25732733357752019
121 127 0.57208257539187435
122 127 0.25716803207866146
125 127 0.57243694918791621
127 127 1.2726250252756917
128 127 0.57208257539194207
131 127 0.2574867337549403
136 127 0.57243694918788213
137 127 0.25732733357753534
119 128 0.001064314402771464
121 128 0.25716803207866146
122 128 0.8283455945665682
125 128 0.0023676182441602833
127 128 0.57208257539194207
128 128 1.8426943562193254
131 128 0.0010649736872022269
136 128 0.25732733357753534
137 128 0.82885870925556537
123 129 1.0865779410480692
129 129 2.4171445498555792
138 129 1.087251016520371
130 130 2.6670987476104462
132 130 1.1719578020275438
133 130 0.0048472564138334825
139 130 0.25748673375493908
140 130 0.0015061002320118377
142 130 4.4047665597890248e-06
119 131 0.0034275278803429948
121 131 0.0010649736871933024
122 131 4.404766559752289e-06
125 131 0.82869930907816147
127 131 0.2574867337549403
128 131 0.0010649736872022269
131 131 2.6670987476104377
136 131 0.82869930907815492
137 131 0.0034275278803716303
130 132 1.1719578020275438
132 132 2.0998267161781743
133 132 0.82925126675495753
139 132 0.80954809714497733
140 132 0.25969495182169428
142 132 0.0015051678630285065
130 133 0.0048472564138334825
132 133 0.82925126675495753
133 133 2.6676161683874047
139 133 0.36391580511465427
140 133 0.82992302365833293
142 133 0.0048481887828168068
134 134 3.4992255845691904
141 134 1.0872510165203657
143 134 0.0044969063341339099
117 135 4.4047665597153982e-06
118 135 0.0015061002319992575
120 135 0.0048472564137929551
124 135 0.25748673375494158
126 135 1.1719578020275456
135 135 2.6670987476104293
119 136 0.0010649736871933024
121 136 0.0023676182441403431
122 136 0.0010643144027626262
125 136 0.2574867337549403
127 136 0.57243694918788213
128 136 0.25732733357753534
131 136 0.82869930907815492
136 136 1.8423399824232296
137 136 0.82818629306775271
119 137 4.4047665597522111e-06
121 137 0.0010643144027626262
122 137 0.0034281871647736661
125 137 0.001064973687202208
127 137 0.25732733357753534
128 137 0.82885870925556537
131 137 0.0034275278803716303
136 137 0.82818629306775271
137 137 2.6676117636208363
123 138 0.0044969063340963263
129 138 1.087251016520371
138 138 3.4992255845691798
130 139 0.25748673375493908
132 139 0.80954809714497733
133 139 0.36391580511465427
139 139 1.2726250252756097
140 139 0.80904693691656104
142 139 0.25716803207867533
130 140 0.0015061002320118377
132 140 0.25969495182169428
133 140 0.82992302365833293
139 140 0.80904693691656104
140 140 2.0998623882978822
142 140 1.1714575741681093
134 141 1.0872510165203657
141 141 2.4171445498554234
143 141 1.0865779410481278
130 142 4.4047665597890248e-06
132 142 0.0015051678630285065
133 142 0.0048481887828168068
139 142 0.25716803207867533
140 142 1.1714575741681093
142 142 2.6681248783097895
134 143 0.0044969063341339099
141 143 1.0865779410481278
143 143 3.4998986600414237
144 144 4.590973507423973
145 145 4.5865500832896888
146 146 3.4990033867018124
147 146 1.083834446629264
149 146 0.0037122499587073257
146 147 1.083834446629264
147 147 2.4159456679314424
149 147 1.0867699687288306
148 148 3.4960678646024994
150 148 1.0867699687288781
151 148 0.0037122499587186964
146 149 0.0037122499587073257
147 149 1.0867699687288306
149 149 3.4960678646024275
148 150 1.0867699687288781
150 150 2.4159456679316458
151 150 1.0838344466291963
148 151 0.0037122499587186964
150 151 1.0838344466291963
151 151 3.4990033867017933
152 152 4.5865500832900388
153 153 2.6693319549728671
154 153 1.1693275181088303
156 153 0.0040050729558512264
160 153 0.25611779804522117
162 153 0.0012405921207601753
171 153 3.004611202030725e-06
153 154 1.1693275181088303
154 154 2.0992028884038554
156 154 0.82995610996154978
160 154 0.80738182824938765
162 154 0.25876689463299707
171 154 0.0012439522147287378
155 155 2.6670924935955758
157 155 0.82907887886030995
158 155 0.0028320142462379266
161 155 0.82614573270599756
163 155 0.25681148282208399
164 155 0.00087723110127880708
167 155 0.0028296383009988623
172 155 0.00087960704650675333
173 155 3.0046112020399285e-06
153 156 0.0040050729558512264
154 156 0.82995610996154978
156 156 2.6670954982067232
160 156 0.36318628198012037
162 156 0.82702533975248738
171 156 0.0040017128618828716
155 157 0.82907887886030995
157 157 1.843085090358789
158 157 0.82683941748273759
161 157 0.25681148282208394
163 157 0.57090516576198236
164 157 0.25611779804520518
167 157 0.00087960704650675312
172 157 0.0019554118109245326
173 157 0.00087723110127606524
155 158 0.0028320142462379266
157 158 0.82683941748273759
158 158 2.669331954972852
161 158 0.00087723110127873075
163 158 0.25611779804520513
164 158 0.82683941748278467
167 158 3.0046112020396667e-06
172 158 0.00087723110127606513
173 158 0.0028320142462292365
159 159 3.4990033867020798
165 159 1.0838344466293468
174 159 0.0037122499587076093
153 160 0.25611779804522117
154 160 0.80738182824938765
156 160 0.36318628198012037
160 160 1.2725890626790082
162 160 0.80956858952735344
171 160 0.25750704641630168
155 161 0.82614573270599756
157 161 0.25681148282208394
158 161 0.00087723110127873075
161 161 1.8415388166302817
163 161 0.57245143949044519
164 161 0.0019554118109303578
167 161 0.82838331526610465
172 161 0.25750704641631295
173 161 0.00087960704650940909
153 162 0.0012405921207601753
154 162 0.25876689463299707
156 162 0.82702533975248738
160 162 0.80956858952735344
162 162 2.0990458630465456
171 162 1.1715109192928885
155 163 0.25681148282208399
157 163 0.57090516576198236
158 163 0.25611779804520513
161 163 0.57245143949044519
163 163 1.2725890626791152
164 163 0.57090516576189865
167 163 0.25750704641631289
172 163 0.57245143949046828
173 163 0.25681148282205668
155 164 0.00087723110127880708
157 164 0.25611779804520518
158 164 0.82683941748278467
161 164 0.0019554118109303578
163 164 0.57090516576189865
164 164 1.8430850903586238
167 164 0.00087960704650933243
172 164 0.25681148282205662
173 164 0.8290788788602691
159 165 1.0838344466293468
165 165 2.4159456679316267
174 165 1.0867699687289134
166 166 2.6648549110356616
168 166 1.171510919292964
169 166 0.0040017128618952116
175 166 0.25750704641632421
176 166 0.0012439522147326026
178 166 3.0046112020491315e-06
155 167 0.0028296383009988623
157 167 0.00087960704650675312
158 167 3.0046112020396667e-06
161 167 0.82838331526610465
163 167 0.25750704641631289
164 167 0.00087960704650933243
167 167 2.664854911035607
172 167 0.82838331526612397
173 167 0.0028296383010074718
166 168 1.171510919292964
168 168 2.0990458630467606
169 168 0.8270253397524554
175 168 0.80956858952745681
176 168 0.2587668946329984
178 168 0.0012405921207638976
166 169 0.0040017128618952116
168 169 0.8270253397524554
169 169 2.6670954982067632
175 169 0.36318628198011349
176 169 0.82995610996158409
178 169 0.0040050729558634719
170 170 3.4960678646027663
177 170 1.0867699687289609
179 170 0.0037122499587189796
153 171 3.004611202030725e-06
154 171 0.0012439522147287378
156 171 0.0040017128618828716
160 171 0.25750704641630168
162 171 1.1715109192928885
171 171 2.6648549110355524
155 172 0.00087960704650675333
157 172 0.0019554118109245326
158 172 0.00087723110127606513
161 172 0.25750704641631295
163 172 0.57245143949046828
164 172 0.25681148282205662
167 172 0.82838331526612397
172 172 1.8415388166303985
173 172 0.82614573270592895
155 173 3.0046112020399285e-06
157 173 0.00087723110127606524
158 173 0.0028320142462292365
161 173 0.00087960704650940909
163 173 0.25681148282205668
164 173 0.8290788788602691
167 173 0.0028296383010074718
172 173 0.82614573270592895
173 173 2.667092493595506
159 174 0.0037122499587076093
165 174 1.0867699687289134
174 174 3.4960678646026944
166 175 0.25750704641632421
168 175 0.80956858952745681
169 175 0.36318628198011349
175 175 1.2725890626792222
176 175 0.80738182824940496
178 175 0.25611779804518914
166 176 0.0012439522147326026
168 176 0.2587668946329984
169 176 0.82995610996158409
175 176 0.80738182824940496
176 176 2.0992028884039677
178 176 1.1693275181087508
170 177 1.0867699687289609
177 177 2.4159456679318301
179 177 1.0838344466292791
166 178 3.0046112020491315e-06
168 178 0.0012405921207638976
169 178 0.0040050729558634719
175 178 0.25611779804518914
176 178 1.1693275181087508
178 178 2.6693319549728374
170 179 0.0037122499587189796
177 179 1.0838344466292791
179 179 3.4990033867020602
180 180 4.5865500832903887
181 181 4.5733767106781515
182 182 3.4895811781800519
183 182 1.0824188609813201
185 182 0.0013766715159648961
182 183 1.0824188609813201
183 183 2.4123872780853661
185 183 1.0785705716107541
184 184 3.4934294675504658
186 184 1.0785705716106704
187 184 0.0013766715160002127
182 185 0.0013766715159648961
183 185 1.0785705716107541
185 185 3.493429467550639
184 186 1.0785705716106704
186 186 2.4123872780854541
187 186 1.0824188609813881
184 187 0.0013766715160002127
186 187 1.0824188609813881
187 187 3.4895811781797446
188 188 4.5733767106774703
189 189 2.6626227336430492
190 189 1.1680103170032965
192 189 0.0014855307790126514
196 189 0.25618501710753477
198 189 0.00046079069439243514
207 189 4.1440375092181304e-07
189 190 1.1680103170032965
190 190 2.0968864885049205
192 190 0.82329751935795603
196 190 0.80745885685920338
198 190 0.25600038413260662
207 190 0.00045915245988340371
191 191 2.66555905815857
193 191 0.82297169113317958
194 191 0.0010504288875281275
197 191 0.82681882209704227
199 191 0.25527421065931671
200 191 0.00032582822472090753
203 191 0.0010515872942316446
208 191 0.0003246698179820137
209 191 4.1440375093244394e-07
189 192 0.0014855307790126514
190 192 0.82329751935795603
192 192 2.6655594725624527
196 192 0.36101225083852034
198 192 0.82714349191506531
207 192 0.001487169013521692
191 193 0.82297169113317958
193 193 1.840701471397453
194 193 0.82590801564893179
197 193 0.25527421065931666
199 193 0.57095963321430121
200 193 0.25618501710755087
203 193 0.00032466981798201364
208 193 0.00072617347327012078
209 193 0.00032582822471256931
191 194 0.0010504288875281275
193 194 0.82590801564893179
194 194 2.6626227336428152
197 194 0.00032582822472087587
199 194 0.25618501710755082
200 194 0.82590801564880734
203 194 4.1440375093240365e-07
208 194 0.00032582822471256926
209 194 0.0010504288875010878
195 195 3.4895811781795323
201 195 1.0824188609811589
210 195 0.0013766715159646912
189 196 0.25618501710753477
190 196 0.80745885685920338
192 196 0.36101225083852034
196 196 1.2724979262918132
198 196 0.80458812405138491
207 196 0.25436664237235257
191 197 0.82681882209704227
193 197 0.25527421065931666
194 197 0.00032582822472087587
197 197 1.8427313860326888
199 197 0.56892971857885311
200 197 0.0007261734732887232
203 197 0.82387925942019158
208 197 0.25436664237233281
209 197 0.00032466981799036786
189 198 0.00046079069439243514
190 198 0.25600038413260662
192 198 0.82714349191506531
196 198 0.80458812405138491
198 198 2.0970980284051328
207 198 1.1651412224299944
191 199 0.25527421065931671
193 199 0.57095963321430121
194 199 0.25618501710755082
197 199 0.56892971857885311
199 199 1.2724979262918594
200 199 0.57095963321431631
203 199 0.25436664237233275
208 199 0.56892971857891805
209 199 0.25527421065935257
191 200 0.00032582822472090753
193 200 0.25618501710755087
194 200 0.82590801564880734
197 200 0.0007261734732887232
199 200 0.57095963321431631
200 200 1.8407014713972238
203 200 0.00032466981799033631
208 200 0.25527421065935252
209 200 0.82297169113317103
195 201 1.0824188609811589
201 201 2.4123872780850069
210 201 1.0785705716105936
202 202 2.6684986208353041
204 202 1.1651412224298459
205 202 0.0014871690135597692
211 202 0.25436664237231305
212 202 0.00045915245989514686
214 202 4.1440375094307484e-07
191 203 0.0010515872942316446
193 203 0.00032466981798201364
194 203 4.1440375093240365e-07
197 203 0.82387925942019158
199 203 0.25436664237233275
200 203 0.00032466981799033631
203 203 2.6684986208354369
208 203 0.82387925942016837
209 203 0.0010515872942586735
202 204 1.1651412224298459
204 204 2.0970980284050689
205 204 0.82714349191508452
211 204 0.80458812405135161
212 204 0.25600038413262144
214 204 0.00046079069440428493
202 205 0.0014871690135597692
204 205 0.82714349191508452
205 205 2.6655594725620859
211 205 0.36101225083851479
212 205 0.82329751935782802
214 205 0.0014855307790506297
206 206 3.4934294675499458
213 206 1.0785705716105096
215 206 0.0013766715160000076
189 207 4.1440375092181304e-07
190 207 0.00045915245988340371
192 207 0.001487169013521692
196 207 0.25436664237235257
198 207 1.1651412224299944
207 207 2.6684986208355692
191 208 0.0003246698179820137
193 208 0.00072617347327012078
194 208 0.00032582822471256926
197 208 0.25436664237233281
199 208 0.56892971857891805
200 208 0.25527421065935252
203 208 0.82387925942016837
208 208 1.8427313860328474
209 208 0.82681882209713509
191 209 4.1440375093244394e-07
193 209 0.00032582822471256931
194 209 0.0010504288875010878
197 209 0.00032466981799036786
199 209 0.25527421065935257
200 209 0.82297169113317103
203 209 0.0010515872942586735
208 209 0.82681882209713509
209 209 2.6655590581584674
195 210 0.0013766715159646912
201 210 1.0785705716105936
210 210 3.493429467550119
202 211 0.25436664237231305
204 211 0.80458812405135161
205 211 0.36101225083851479
211 211 1.2724979262919058
212 211 0.80745885685928342
214 211 0.25618501710756691
202 212 0.00045915245989514686
204 212 0.25600038413262144
205 212 0.82329751935782802
211 212 0.80745885685928342
212 212 2.0968864885048579
214 212 1.168010317003267
206 213 1.0785705716105096
213 213 2.4123872780850948
215 213 1.0824188609812269
202 214 4.1440375094307484e-07
204 214 0.00046079069440428493
205 214 0.0014855307790506297
211 214 0.25618501710756691
212 214 1.168010317003267
214 214 2.6626227336425807
206 215 0.0013766715160000076
213 215 1.0824188609812269
215 215 3.489581178179225
216 216 4.5733767106767891
217 217 4.5216375912251499
218 218 3.4637287990709154
219 218 1.0656954353588455
221 218 -0.0077866432049861298
218 219 1.0656954353588455
219 219 2.3986172439745501
221 219 1.0573249118915404
220 220 3.4720993225382597
222 220 1.0573249118915562
223 220 -0.007786643205066418
218 221 -0.0077866432049861298
219 221 1.0573249118915404
221 221 3.472099322537983
220 222 1.0573249118915562
222 222 2.3986172439747198
223 222 1.0656954353587704
220 223 -0.007786643205066418
222 223 1.0656954353587704
223 223 3.4637287990716121
224 224 4.5216375912256996
225 225 2.6533345390270493
226 225 1.1545061033998658
228 225 -0.0084355499769279974
232 225 0.25117155859634649
234 225 -0.0025953900057534263
243 225 1.3409259630367142e-05
225 226 1.1545061033998658
226 226 2.0885942752073774
228 226 0.80811176995152623
232 226 0.79949049367738101
234 226 0.24506810497885584
243 226 -0.0025750044694837202
227 227 2.6597466458379637
229 227 0.80994698782443053
230 227 -0.0059648345917853148
233 227 0.81833192604266636
235 227 0.24919872718899569
236 227 -0.001835217872910963
239 227 -0.0059792493426583122
244 227 -0.0018208031219576341
245 227 1.3409259630505407e-05
225 228 -0.0084355499769279974
226 228 0.80811176995152623
228 228 2.6597600550973817
232 228 0.35242021971678533
234 228 0.81651112292064354
243 228 -0.0084559355131971249
227 229 0.80994698782443053
229 229 1.8374227166111607
230 229 0.81635909463524503
233 229 0.24919872718899572
235 229 0.56532514957349667
236 229 0.25117155859632878
239 229 -0.0018208031219576343
244 229 -0.004130622210136407
245 229 -0.0018352178728919108
227 230 -0.0059648345917853148
229 230 0.81635909463524503
230 230 2.6533345390275831
233 230 -0.001835217872910927
235 230 0.25117155859632878
236 230 0.81635909463546685
239 230 1.3409259630505142e-05
244 230 -0.0018352178728919108
245 230 -0.0059648345917250115
231 231 3.4637287990713372
237 231 1.0656954353589752
246 231 -0.0077866432049870779
225 232 0.25117155859634649
226 232 0.79949049367738101
228 232 0.35242021971678533
232 232 1.2724073011189712
234 232 0.7932108815882476
243 232 0.24724139142048918
227 233 0.81833192604266636
229 233 0.24919872718899572
230 233 -0.001835217872910927
233 233 1.841863072902499
235 233 0.56088479328201779
236 233 -0.0041306222101787065
239 233 0.8119043235929303
244 233 0.2472413914204929
245 233 -0.001820803121976381
225 234 -0.0025953900057534263
226 234 0.24506810497885584
228 234 0.81651112292064354
232 234 0.7932108815882476
234 234 2.0891044643228414
243 234 1.1482061057743846
227 235 0.24919872718899569
229 235 0.56532514957349667
230 235 0.25117155859632878
233 235 0.56088479328201779
235 235 1.2724073011190611
236 235 0.56532514957341684
239 235 0.24724139142049292
244 235 0.56088479328204899
245 235 0.2491987271889744
227 236 -0.001835217872910963
229 236 0.25117155859632878
230 236 0.81635909463546685
233 236 -0.0041306222101787065
235 236 0.56532514957341684
236 236 1.8374227166114006
239 236 -0.0018208031219763452
244 236 0.2491987271889744
245 236 0.8099469878245813
231 237 1.0656954353589752
237 237 2.3986172439748423
246 237 1.057324911891669
238 238 2.6661742482877298
240 238 1.1482061057744934
241 238 -0.0084559355132849887
247 238 0.24724139142049661
248 238 -0.0025750044695103096
250 238 1.340925963064367e-05
227 239 -0.0059792493426583122
229 239 -0.0018208031219576343
230 239 1.3409259630505142e-05
233 239 0.8119043235929303
235 239 0.24724139142049292
236 239 -0.0018208031219763452
239 239 2.6661742482875175
244 239 0.81190432359287779
245 239 -0.0059792493427194881
238 240 1.1482061057744934
240 240 2.0891044643231256
241 240 0.81651112292063233
247 240 0.79321088158831554
248 240 0.24506810497879916
250 240 -0.0025953900057800044
238 241 -0.0084559355132849887
240 241 0.81651112292063233
241 241 2.6597600550981295
247 241 0.3524202197167659
248 241 0.80811176995168266
250 241 -0.0084355499770166729
242 242 3.4720993225386825
249 242 1.057324911891685
251 242 -0.0077866432050673661
225 243 1.3409259630367142e-05
226 243 -0.0025750044694837202
228 243 -0.0084559355131971249
232 243 0.24724139142048918
234 243 1.1482061057743846
243 243 2.6661742482873048
227 244 -0.0018208031219576341
229 244 -0.004130622210136407
230 244 -0.0018352178728919108
233 244 0.2472413914204929
235 244 0.56088479328204899
236 244 0.2491987271889744
239 244 0.81190432359287779
244 244 1.8418630729024823
245 244 0.81833192604254346
227 245 1.3409259630505407e-05
229 245 -0.0018352178728919108
230 245 -0.0059648345917250115
233 245 -0.001820803121976381
235 245 0.2491987271889744
236 245 0.8099469878245813
239 245 -0.0059792493427194881
244 245 0.81833192604254346
245 245 2.6597466458382866
231 246 -0.0077866432049870779
237 246 1.057324911891669
246 246 3.4720993225384054
238 247 0.24724139142049661
240 247 0.79321088158831554
241 247 0.3524202197167659
247 247 1.272407301119151
248 247 0.79949049367738123
250 247 0.25117155859631107
238 248 -0.0025750044695103096
240 248 0.24506810497879916
241 248 0.80811176995168266
247 248 0.79949049367738123
248 248 2.0885942752078415
250 248 1.1545061034000168
242 249 1.057324911891685
249 249 2.398617243975012
251 249 1.0656954353589001
238 250 1.340925963064367e-05
240 250 -0.0025953900057800044
241 250 -0.0084355499770166729
247 250 0.25117155859631107
248 250 1.1545061034000168
250 250 2.6533345390281169
242 251 -0.0077866432050673661
249 251 1.0656954353589001
251 251 3.463728799072034
252 252 4.5216375912262503
253 253 4.586559780805989
254 254 3.4967456791237832
255 254 1.0860999820694084
257 254 0.0037141196131428842
254 255 1.0860999820694084
255 255 2.4159477800466647
257 255 1.0845120186902175
256 256 3.4983336425027507
258 256 1.0845120186902057
259 256 0.0037141196131667571
254 257 0.0037141196131428842
255 257 1.0845120186902175
257 257 3.4983336425025686
256 258 1.0845120186902057
258 258 2.4159477800464093
259 258 1.0860999820693171
256 259 0.0037141196131667571
258 259 1.0860999820693171
259 259 3.4967456791235505
260 260 4.5865597808059624
261 261 2.6658826940180265
262 261 1.1710132059355813
264 261 0.0040044960751474566
268 261 0.2571890976423874
270 261 0.0012438088199048908
279 261 3.0076321170976127e-06
261 262 1.1710132059355813
262 262 2.0990826660497928
264 262 0.8277002375916136
268 262 0.80906849240244705
270 262 0.25876946122223954
279 262 0.0012419902738324009
263 263 2.6670933408533455
265 263 0.82682073194055017
266 263 0.0028316063299898813
269 263 0.82840740941343749
271 263 0.25681306700494261
272 263 0.0008795056510600385
275 263 0.0028328922362312577
280 263 0.00087821974479461798
281 263 3.0076321171169445e-06
261 264 0.0040044960751474566
262 264 0.8277002375916136
264 264 2.6670963484853236
268 264 0.3631885223530244
270 264 0.82928562915818904
279 264 0.0040063146212194816
263 265 0.82682073194055017
265 265 1.8418935684072106
266 265 0.82803137877597888
269 265 0.25681306700494255
271 265 0.57209781742208654
272 265 0.2571890976423658
275 265 0.00087821974479461776
280 265 0.0019563942172939083
281 265 0.00087950565105431142
263 266 0.0028316063299898813
265 266 0.82803137877597888
266 266 2.6658826940178493
269 266 0.00087950565106003882
271 266 0.25718909764236586
272 266 0.82803137877599342
275 266 3.0076321171169458e-06
280 266 0.00087950565105431163
281 266 0.0028316063299714924
267 267 3.4967456791237628
273 267 1.0860999820694022
282 267 0.0037141196131428625
261 268 0.2571890976423874
262 268 0.80906849240244705
264 268 0.3631885223530244
268 268 1.2725885970931283
270 268 0.80788557079448942
279 268 0.2564375861537953
263 269 0.82840740941343749
265 269 0.25681306700494255
266 269 0.00087950565106003882
269 269 1.8427300202978867
271 269 0.57126136553154183
272 269 0.0019563942173066902
275 269 0.82719621279165645
280 269 0.25643758615379253
281 269 0.00087821974480027252
261 270 0.0012438088199048908
262 270 0.25876946122223954
264 270 0.82928562915818904
268 270 0.80788557079448942
270 270 2.0991676064515858
279 270 1.1698321028735603
263 271 0.25681306700494261
265 271 0.57209781742208654
266 271 0.25718909764236586
269 271 0.57126136553154183
271 271 1.2725885970929938
272 271 0.57209781742209886
275 271 0.25643758615379247
280 271 0.57126136553148765
281 271 0.25681306700492385
263 272 0.0008795056510600385
265 272 0.2571890976423658
266 272 0.82803137877599342
269 272 0.0019563942173066902
271 272 0.57209781742209886
272 272 1.8418935684072828
275 272 0.00087821974480027285
280 272 0.2568130670049239
281 272 0.82682073194050421
267 273 1.0860999820694022
273 273 2.4159477800466505
282 273 1.0845120186902113
274 274 2.6683045374749561
276 274 1.1698321028736085
277 274 0.0040063146212454418
283 274 0.2564375861537897
284 274 0.0012419902738403702
286 274 3.0076321171362767e-06
263 275 0.0028328922362312577
265 275 0.00087821974479461776
266 275 3.0076321171169458e-06
269 275 0.82719621279165645
271 275 0.25643758615379247
272 275 0.00087821974480027285
275 275 2.6683045374748171
280 275 0.82719621279160427
281 275 0.0028328922362493188
274 276 1.1698321028736085
276 276 2.0991676064514815
277 276 0.82928562915816817
283 276 0.80788557079439527
284 276 0.25876946122222749
286 276 0.001243808819912781
274 277 0.0040063146212454418
276 277 0.82928562915816817
277 277 2.667096348485285
283 277 0.36318852235298982
284 277 0.82770023759155509
286 277 0.0040044960751729301
278 278 3.4983336425027303
285 278 1.0845120186901993
287 278 0.0037141196131667354
261 279 3.0076321170976127e-06
262 279 0.0012419902738324009
264 279 0.0040063146212194816
268 279 0.2564375861537953
270 279 1.1698321028735603
279 279 2.6683045374746781
263 280 0.00087821974479461798
265 280 0.0019563942172939083
266 280 0.00087950565105431163
269 280 0.25643758615379253
271 280 0.57126136553148765
272 280 0.2568130670049239
275 280 0.82719621279160427
280 280 1.8427300202975958
281 280 0.8284074094133248
263 281 3.0076321171169445e-06
265 281 0.00087950565105431142
266 281 0.0028316063299714924
269 281 0.00087821974480027252
271 281 0.25681306700492385
272 281 0.82682073194050421
275 281 0.0028328922362493188
280 281 0.8284074094133248
281 281 2.6670933408530293
267 282 0.0037141196131428625
273 282 1.0845120186902113
282 282 3.4983336425025482
274 283 0.2564375861537897
276 283 0.80788557079439527
277 283 0.36318852235298982
283 283 1.2725885970928592
284 283 0.80906849240229362
286 283 0.25718909764234416
274 284 0.0012419902738403702
276 284 0.25876946122222749
277 284 0.82770023759155509
283 284 0.80906849240229362
284 284 2.0990826660494326
286 284 1.171013205935405
278 285 1.0845120186901993
285 285 2.4159477800463951
287 285 1.0860999820693109
274 286 3.0076321171362767e-06
276 286 0.001243808819912781
277 286 0.0040044960751729301
283 286 0.25718909764234416
284 286 1.171013205935405
286 286 2.6658826940176721
278 287 0.0037141196131667354
285 287 1.0860999820693109
287 287 3.4967456791235305
288 288 4.5865597808059357
289 289 4.5516259640272869
290 290 3.478515227597478
291 290 1.0755882469622489
293 290 -0.002477510532496
290 291 1.0755882469622489
291 291 2.4065582244816901
293 291 1.0694794925830575
292 292 3.4846239819765144
294 292 1.0694794925829425
295 292 -0.0024775105324379128
290 293 -0.002477510532496
291 293 1.0694794925830575
293 293 3.4846239819771276
292 294 1.0694794925829425
294 294 2.4065582244820933
295 294 1.0755882469623956
292 295 -0.0024775105324379128
294 295 1.0755882469623956
295 295 3.4785152275974491
296 296 4.5516259640275836
297 297 2.6584056520704022
298 297 1.1624877592570899
300 297 -0.0026776749147187366
304 297 0.25417072632960286
306 297 -0.00082796120753919243
315 297 1.3485419251247504e-06
297 298 1.1624877592570899
298 298 2.0933485271035357
300 298 0.81674899222186925
304 298 0.80424959918126626
306 298 0.2514172536450322
315 298 -0.00082325883963340664
299 299 2.6630741804810474
301 299 0.8173344492061918
302 299 -0.0018934020899663362
305 299 0.82344652866166823
307 299 0.25272717528491401
308 299 -0.00058545698439663879
311 299 -0.0018967271662444596
316 299 -0.00058213190817648763
317 299 1.3485419250931326e-06
297 300 -0.0026776749147187366
298 300 0.81674899222186925
300 300 2.6630755290234411
304 300 0.35741019886820613
306 300 0.82286439675363654
315 300 -0.002682377282624875
299 301 0.8173344492061918
301 301 1.839177800774241
302 301 0.82200297761715513
305 301 0.25272717528491406
307 301 0.56869034534773144
308 301 0.25417072632963755
311 301 -0.00058213190817648774
316 301 -0.0013099216399091456
317 301 -0.00058545698441044513
299 302 -0.0018934020899663362
301 302 0.82200297761715513
302 302 2.6584056520703805
305 302 -0.00058545698439664735
307 302 0.25417072632963755
308 302 0.82200297761703622
311 302 1.3485419250931525e-06
316 302 -0.00058545698441044513
317 302 -0.0018934020900107131
303 303 3.4785152275977045
309 303 1.075588246962319
318 303 -0.0024775105324961614
297 304 0.25417072632960286
298 304 0.80424959918126626
300 304 0.35741019886820613
304 304 1.2724073846584334
306 304 0.79968190027340158
315 304 0.25129182282258128
299 305 0.82344652866166823
301 305 0.25272717528491406
302 305 -0.00058545698439664735
305 305 1.8424076516460206
307 305 0.56546049447540592
308 305 -0.0013099216398782139
311 305 0.81876980166860303
316 305 0.2512918228225543
317 305 -0.0005821319081629016
297 306 -0.00082796120753919243
298 306 0.2514172536450322
300 306 0.82286439675363654
304 306 0.79968190027340158
306 306 2.0936994744689259
315 306 1.1579153579814714
299 307 0.25272717528491401
301 307 0.56869034534773144
302 307 0.25417072632963755
305 307 0.56546049447540592
307 307 1.2724073846586466
308 307 0.56869034534771368
311 307 0.25129182282255436
316 307 0.56546049447556135
317 307 0.25272717528497557
299 308 -0.00058545698439663879
301 308 0.25417072632963755
302 308 0.82200297761703622
305 308 -0.0013099216398782139
307 308 0.56869034534771368
308 308 1.8391778007739177
311 308 -0.00058213190816291016
316 308 0.25272717528497557
317 308 0.81733444920627285
303 309 1.075588246962319
309 309 2.4065582244818469
318 309 1.069479492583127
310 310 2.667750907473994
312 310 1.1579153579811434
313 310 -0.0026823772825615121
319 310 0.25129182282252732
320 310 -0.00082325883961401611
322 310 1.3485419250615149e-06
299 311 -0.0018967271662444596
301 311 -0.00058213190817648774
302 311 1.3485419250931525e-06
305 311 0.81876980166860303
307 311 0.25129182282255436
308 311 -0.00058213190816291016
311 311 2.6677509074744634
316 311 0.81876980166865909
317 311 -0.0018967271662003228
310 312 1.1579153579811434
312 312 2.0936994744688566
313 312 0.82286439675361767
319 312 0.79968190027344954
320 312 0.25141725364507
322 312 -0.00082796120751989298
310 313 -0.0026823772825615121
312 313 0.82286439675361767
313 313 2.6630755290229509
319 313 0.35741019886821662
320 313 0.81674899222178832
322 313 -0.0026776749146559336
314 314 3.4846239819767417
321 314 1.0694794925830122
323 314 -0.0024775105324380741
297 315 1.3485419251247504e-06
298 315 -0.00082325883963340664
300 315 -0.002682377282624875
304 315 0.25129182282258128
306 315 1.1579153579814714
315 315 2.6677509074749328
299 316 -0.00058213190817648763
301 316 -0.0013099216399091456
302 316 -0.00058545698441044513
305 316 0.2512918228225543
307 316 0.56546049447556135
308 316 0.25272717528497557
311 316 0.81876980166865909
316 316 1.8424076516466532
317 316 0.82344652866192536
299 317 1.3485419250931326e-06
301 317 -0.00058545698441044513
302 317 -0.0018934020900107131
305 317 -0.0005821319081629016
307 317 0.25272717528497557
308 317 0.81733444920627285
311 317 -0.0018967271662003228
316 317 0.82344652866192536
317 317 2.6630741804814941
303 318 -0.0024775105324961614
309 318 1.069479492583127
318 318 3.4846239819773546
310 319 0.25129182282252732
312 319 0.79968190027344954
313 319 0.35741019886821662
319 319 1.2724073846588597
320 319 0.80424959918151062
322 319 0.25417072632967219
310 320 -0.00082325883961401611
312 320 0.25141725364507
313 320 0.81674899222178832
319 320 0.80424959918151062
320 320 2.0933485271038981
322 320 1.1624877592572389
314 321 1.0694794925830122
321 321 2.4065582244822501
323 321 1.0755882469624656
310 322 1.3485419250615149e-06
312 322 -0.00082796120751989298
313 322 -0.0026776749146559336
319 322 0.25417072632967219
320 322 1.1624877592572389
322 322 2.6584056520703583
314 323 -0.0024775105324380741
321 323 1.0755882469624656
323 323 3.4785152275976756
324 324 4.5516259640278802
325 325 4.5134392545282545
326 326 3.466082926987982
327 326 1.0582467962914111
329 326 -0.01089046875174351
326 327 1.0582467962914111
327 327 2.3962626403732652
329 327 1.0589298178626152
328 328 3.4653999054159277
330 328 1.0589298178627766
331 328 -0.010890468751707036
326 329 -0.01089046875174351
327 329 1.0589298178626152
329 329 3.4653999054162457
328 330 1.0589298178627766
330 330 2.3962626403736027
331 330 1.058246796291384
328 331 -0.010890468751707036
330 331 1.058246796291384
331 331 3.4660829269873799
332 332 4.5134392545276691
333 333 2.6617685936389761
334 333 1.1492997375888387
336 333 -0.011827498956256326
340 333 0.24812259985233998
342 333 -0.0036111117782995773
351 333 2.6277590761853681e-05
333 334 1.1492997375888387
334 334 2.0883257262232791
336 334 0.81064872092525797
340 334 0.79456380053013798
342 334 0.2425008075604187
351 334 -0.0036134424891028157
335 335 2.6612440691519943
337 335 0.81320216255144007
338 335 -0.0083633047164176494
341 335 0.81251749291849873
343 335 0.24828274499866726
344 335 -0.0025534416260496917
347 335 -0.0083616566550296558
352 335 -0.0025550896874725871
353 335 2.6277590761765674e-05
333 336 -0.011827498956256326
334 336 0.81064872092525797
336 336 2.6612703467430006
340 336 0.35112482528028255
342 336 0.80996240323110102
351 336 -0.011825168245451271
335 337 0.81320216255144007
337 337 1.8402031263711982
338 337 0.81267763806496662
341 337 0.24828274499866715
343 337 0.56184145144029496
344 337 0.24812259985233362
347 337 -0.0025550896874725862
352 337 -0.0057819374382115591
353 337 -0.002553441626058178
335 338 -0.0083633047164176494
337 338 0.81267763806496662
338 338 2.6617685936385134
341 338 -0.0025534416260496948
343 338 0.24812259985233362
344 338 0.81267763806484616
347 338 2.6277590761765705e-05
352 338 -0.002553441626058178
353 338 -0.0083633047164442063
339 339 3.4660829269875331
345 339 1.0582467962912738
354 339 -0.010890468751742098
333 340 0.24812259985233998
334 340 0.79456380053013798
336 340 0.35112482528028255
340 340 1.2722171095757768
342 340 0.79507663384781213
351 340 0.24844299350699833
335 341 0.81251749291849873
337 341 0.24828274499866715
338 341 -0.0025534416260496948
341 341 1.839840498453942
343 341 0.56220407935684724
344 341 -0.0057819374381913799
347 341 0.81304191404274784
352 341 0.24844299350703619
353 341 -0.0025550896874636402
333 342 -0.0036111117782995773
334 342 0.2425008075604187
336 342 0.80996240323110102
340 342 0.79507663384781213
342 342 2.0882834919611093
351 342 1.1498149016171395
335 343 0.24828274499866726
337 343 0.56184145144029496
338 343 0.24812259985233362
341 343 0.56220407935684724
343 343 1.2722171095759558
344 343 0.56184145144020148
347 343 0.24844299350703608
352 343 0.56220407935684069
353 343 0.24828274499862307
335 344 -0.0025534416260496917
337 344 0.24812259985233362
338 344 0.81267763806484616
341 344 -0.0057819374381913799
343 344 0.56184145144020148
344 344 1.8402031263706193
347 344 -0.0025550896874636433
352 344 0.24828274499862307
353 344 0.81320216255117483
339 345 1.0582467962912738
345 345 2.3962626403729548
354 345 1.058929817862478
346 346 2.6607196480270927
348 346 1.1498149016172095
349 346 -0.011825168245410583
355 346 0.24844299350707405
356 346 -0.0036134424890912637
358 346 2.6277590761677664e-05
335 347 -0.0083616566550296558
337 347 -0.0025550896874725862
338 347 2.6277590761765705e-05
341 347 0.81304191404274784
343 347 0.24844299350703608
344 347 -0.0025550896874636433
347 347 2.660719648027337
352 347 0.81304191404294623
353 347 -0.0083616566550024172
346 348 1.1498149016172095
348 348 2.0882834919612749
349 348 0.80996240323101387
355 348 0.79507663384804517
356 348 0.24250080756046871
358 348 -0.0036111117782873904
346 349 -0.011825168245410583
348 349 0.80996240323101387
349 349 2.6612703467422936
355 349 0.35112482528032701
356 349 0.81064872092524909
358 349 -0.011827498956214658
350 350 3.4653999054154787
357 350 1.0589298178626394
359 350 -0.010890468751705623
333 351 2.6277590761853681e-05
334 351 -0.0036134424891028157
336 351 -0.011825168245451271
340 351 0.24844299350699833
342 351 1.1498149016171395
351 351 2.6607196480275808
335 352 -0.0025550896874725871
337 352 -0.0057819374382115591
338 352 -0.002553441626058178
341 352 0.24844299350703619
343 352 0.56220407935684069
344 352 0.24828274499862307
347 352 0.81304191404294623
352 352 1.8398404984543699
353 352 0.81251749291855235
335 353 2.6277590761765674e-05
337 353 -0.002553441626058178
338 353 -0.0083633047164442063
341 353 -0.0025550896874636402
343 353 0.24828274499862307
344 353 0.81320216255117483
347 353 -0.0083616566550024172
352 353 0.81251749291855235
353 353 2.6612440691517762
339 354 -0.010890468751742098
345 354 1.058929817862478
354 354 3.4653999054157967
346 355 0.24844299350707405
348 355 0.79507663384804517
349 355 0.35112482528032701
355 355 1.272217109576135
356 355 0.79456380053022946
358 355 0.24812259985232726
346 356 -0.0036134424890912637
348 356 0.24250080756046871
349 356 0.81064872092524909
355 356 0.79456380053022946
356 356 2.0883257262232058
358 356 1.1492997375886096
350 357 1.0589298178626394
357 357 2.3962626403732923
359 357 1.0582467962912467
346 358 2.6277590761677664e-05
348 358 -0.0036111117782873904
349 358 -0.011827498956214658
355 358 0.24812259985232726
356 358 1.1492997375886096
358 358 2.6617685936380506
350 359 -0.010890468751705623
357 359 1.0582467962912467
359 359 3.4660829269869304
360 360 4.5134392545270847
