%%MatrixMarket matrix coordinate real general
440 440 12200
1 1 291246.44014620874
2 1 168717.22029290165
3 1 -273668.19290745101
4 1 -392928.01057104539
5 1 -48252.743247689308
11 1 48868.4140348406
12 1 -112100.63664691718
13 1 -160952.14930044409
14 1 -19765.411984812898
20 1 128575.45790090384
21 1 261072.85535902766
22 1 32060.528407221966
28 1 265054.63427087583
29 1 46031.962541178407
35 1 3997.1908264925619
41 1 0.019403994518413632
42 1 -0.00031772560706305649
43 1 -0.016822291872429476
44 1 -0.0007013660398655072
45 1 0.00095068631168897678
46 1 0.0037544189301597052
47 1 -0.00050954582346428225
48 1 -0.0079358027803702481
49 1 0.00034289153259208199
50 1 0.010038115628095069
51 1 0.00053471174899330672
52 1 -0.0062020918995267663
53 1 0.0112640343485564
54 1 0.00073208930324238661
55 1 0.0088793892332401213
1 2 168717.22029290165
2 2 97736.847652058626
3 2 -158534.24293655396
4 2 -227620.71166951625
5 2 -27952.505016998697
11 2 28309.178776632765
12 2 -64939.198889588683
13 2 -93238.575647422927
14 2 -11449.976446507986
20 2 74482.950865988067
21 2 151237.8627018859
22 2 18572.465731056422
28 2 153544.47503194047
29 2 26666.026173286729
35 2 2315.5488084560566
41 2 -0.00031772560706305926
42 2 0.0072780378666115987
43 2 -0.00025900662677811996
44 2 -0.01237691988885682
45 2 0.0023313218054771836
46 2 -0.00025043547461506174
47 2 -0.0025494410111226132
48 2 0.0010361575893495319
49 2 -0.0057905044452914054
50 2 0.00066538392535896065
51 2 0.0040369744324428034
52 2 0.0030681261757423118
53 2 0.0021022026919553394
54 2 0.0014934480753409807
55 2 0.0016205479601633904
1 3 -273668.19290745101
2 3 -158534.24293655396
3 3 257150.94841557456
4 3 369212.80236125027
5 3 45340.473687979742
11 3 -45918.938774303984
12 3 105334.81256322098
13 3 151237.87894726315
14 3 18572.493364315687
20 3 -120815.27916451031
21 3 -245315.77681537968
22 3 -30125.501390108442
28 3 -249057.22260846989
29 3 -43253.688038770946
35 3 -3755.9165526000033
41 3 -0.016822291872429472
42 3 -0.0011822066016094002
43 3 0.018229831306527573
44 3 0.0039873965192960565
45 3 -0.016156682278045301
46 3 -0.0019659272678485026
47 3 0.0014025949588433279
48 3 0.0010365745142411355
49 3 0.0076841260498987192
50 3 -0.014123395736355909
51 3 0.005099324489445993
52 3 0.00031962622270388972
53 3 -0.014630354735062008
54 3 0.0089405963321241202
55 3 -0.01790347365648811
1 4 -392928.01057104539
2 4 -227620.71166951625
3 4 369212.80236125027
4 4 530109.35187054868
5 4 65099.141879976814
11 4 -65929.61420909474
12 4 151237.88230679568
13 4 217144.73039496702
14 4 26666.114282645976
20 4 -173464.42870986924
21 4 -352220.08846092422
22 4 -43253.6579666896
28 4 -357592.01709397772
29 4 -62102.867326535285
35 4 -5392.6267085514064
41 4 -0.00070136603986551327
42 4 -0.012376919888856825
43 4 -0.0024750033045229307
44 4 0.016019508874552262
45 4 0.011744450329556455
46 4 -0.0012257288299763957
47 4 0.0018212944928477177
48 4 0.0046347235125167663
49 4 -0.010745545876707979
50 4 0.0038016072147362191
51 4 -0.024943760258412519
52 4 0.012554264805035128
53 4 0.0094015685665628321
54 4 -0.030586010332983998
55 4 0.022884076764776391
1 5 -48252.743247689308
2 5 -27952.505016998697
3 5 45340.473687979742
4 5 65099.141879976814
5 5 7994.6396018377773
11 5 -8096.3486543961326
12 5 18572.501710608281
13 5 26666.125610279847
14 5 3274.8746183302201
20 5 -21301.919105594854
21 5 -43253.626604885729
22 5 -5311.5821536154517
28 5 -43913.330307336568
29 5 -7626.2942148262719
35 5 -662.02199220291391
41 5 0.00095068631168897656
42 5 -0.0013614780938479654
43 5 -0.016156682278045318
44 5 -0.0096737890865293448
45 5 0.0017214760465541371
46 5 -0.0052369066442966928
47 5 -0.0055176335901886558
48 5 -0.0072176031157455888
49 5 0.0060373550873401753
50 5 0.0010839768489288072
51 5 0.010193510583680867
52 5 -0.042974435729654065
53 5 -0.024199921966118164
54 5 0.036530560180943625
55 5 -0.03789397980063041
6 6 120385.96312816619
7 6 49314.539933785294
8 6 -79986.029209034401
9 6 -114839.33494232684
10 6 -14103.400067478977
15 6 49312.797016496646
16 6 20200.344247175188
17 6 -32764.075811242859
18 6 -47040.773412191367
19 6 -5777.0697405113397
23 6 -79987.952027744817
24 6 -32766.021486196583
25 6 53145.055295613696
26 6 76302.610167978099
27 6 9370.7111586141
30 6 -114845.30553025947
31 6 -47044.881800299641
32 6 76304.742878405334
33 6 109553.95600650174
34 6 13454.303539032489
36 6 -14103.349008303572
37 6 -5777.2530102172796
38 6 9370.4519730627726
39 6 13453.555368816813
40 6 1652.2289491809793
6 7 49314.539933785294
7 7 20201.068815428829
8 7 -32765.2306167405
9 7 -47042.430039234794
10 7 -5777.2862550698019
15 7 20200.344247175188
16 7 8274.8119475600488
17 7 -13421.37508906977
18 7 -19269.63695275534
19 7 -2366.5063351210633
23 7 -32766.021486196583
24 7 -13422.180471300824
25 7 21770.176743609722
26 7 31256.365272759274
27 7 3838.59782165051
30 7 -47044.881800299641
31 7 -19271.332469846777
32 7 31257.239824072269
33 7 44877.343756348666
34 7 5511.3917591280342
36 7 -5777.2530102172796
37 7 -2366.5776012558963
38 7 3838.4830815656292
39 7 5511.0728178143627
40 7 676.81548794339494
6 8 -79986.029209034401
7 8 -32765.2306167405
8 8 53143.795655855589
9 8 76300.778315140866
10 8 9370.5001210796127
15 8 -32764.075811242874
16 8 -13421.375089069774
17 8 21768.893480324725
18 8 31254.514193232942
19 8 3838.3675173318325
23 8 53145.055295613711
24 8 21770.176743609725
25 8 -35310.29089302721
26 8 -50696.466904979337
27 8 -6226.0341212948015
30 8 76304.742878405363
31 8 31257.239824072276
32 8 -50697.899410719314
33 8 -72789.102401165612
34 8 -8939.2311313821956
36 8 9370.4519730627762
37 8 3838.4830815656301
38 8 -6225.854562151445
39 8 -8938.7207463548002
40 8 -1097.7644748270334
6 9 -114839.33494232684
7 9 -47042.430039234794
8 9 76300.778315140866
9 9 109548.28526787383
10 9 13453.580133017735
15 9 -47040.773412191375
16 9 -19269.636952755343
17 9 31254.514193232942
18 9 44873.440512069246
19 9 5510.8888860935758
23 9 76302.610167978113
24 9 31256.365272759278
25 9 -50696.466904979337
26 9 -72787.082140129118
27 9 -8938.9518040037819
30 9 109553.95600650176
31 9 44877.343756348673
32 9 -72789.102401165612
33 9 -104506.42221893254
34 9 -12834.390992970924
36 9 13453.555368816815
37 9 5511.0728178143636
38 9 -8938.7207463548002
39 9 -12833.703035205001
40 9 -1576.1018236414093
6 10 -14103.400067478977
7 10 -5777.2862550698019
8 10 9370.5001210796127
9 10 13453.580133017735
10 10 1652.3185915238541
15 10 -5777.0697405113397
16 10 -2366.5063351210629
17 10 3838.367517331832
18 10 5510.8888860935749
19 10 676.8268425413919
23 10 9370.7111586141
24 10 3838.5978216505096
25 10 -6226.0341212947997
26 10 -8938.9518040037801
27 10 -1097.848759099591
30 10 13454.303539032488
31 10 5511.3917591280333
32 10 -8939.2311313821938
33 10 -12834.390992970923
34 10 -1576.2720880899085
36 10 1652.228949180979
37 10 676.81548794339483
38 10 -1097.7644748270332
39 10 -1576.1018236414091
40 10 -193.57095431751938
1 11 48868.4140348406
2 11 28309.178776632765
3 11 -45918.938774303984
4 11 -65929.61420909474
5 11 -8096.3486543961326
11 11 8199.6711776612228
12 11 -18809.432867762946
13 11 -27006.259884951742
14 11 -3316.4439664661254
20 11 21573.755704044648
21 11 43805.574386881417
22 11 5379.4620099863423
28 11 44473.677820597157
29 11 7723.7376210941893
35 11 670.6999237415497
41 11 0.0037544189301597078
42 11 -0.00057683595591228394
43 11 -0.0019659272678485044
44 11 0.0010590745391041855
45 11 -0.0052369066442966867
46 11 0.0011821492138722439
47 11 0.00024111929159595041
48 11 -0.0036014169560725957
49 11 0.0028881945849838333
50 11 2.5683364768316465e-05
51 11 0.0020702393374755976
52 11 -0.0029880410150039021
53 11 0.00045940565211467061
54 11 0.0035270227987694619
55 11 -0.0018901391980286663
1 12 -112100.63664691718
2 12 -64939.198889588683
3 12 105334.81256322098
4 12 151237.88230679568
5 12 18572.501710608281
11 12 -18809.432867762946
12 12 43147.527441596918
13 12 61950.462674925679
14 12 7607.7371174722457
20 12 -49488.642101823607
21 12 -100486.8393739148
22 12 -12340.053949996225
28 12 -102019.41619938366
29 12 -17717.639337053737
35 12 -1538.4689458026808
41 12 -0.0005095458234642867
42 12 -0.0025494410111226141
43 12 -0.0013670049656505259
44 12 0.0018212944928477199
45 12 0.0070378860675168187
46 12 -0.00073808215229572891
47 12 -0.00036407325913744769
48 12 0.0028354405509331488
49 12 -0.008268025160999691
50 12 0.0022334955700475897
51 12 -0.01045339291298486
52 12 0.00781119549038872
53 12 0.0057518856292590858
54 12 -0.014546281128821508
55 12 0.012252312362469889
1 13 -160952.14930044409
2 13 -93238.575647422927
3 13 151237.87894726315
4 13 217144.73039496702
5 13 26666.125610279847
11 13 -27006.259884951742
12 13 61950.462674925679
13 13 88947.417148753462
14 13 10923.100230708609
20 13 -71054.912197492697
21 13 -144277.21767957669
22 13 -17717.58914549051
28 13 -146477.68062706388
29 13 -25438.623769382695
35 13 -2208.8463534008797
41 13 -0.0079358027803702481
42 13 -0.0012718423477286833
43 13 0.0010365745142411275
44 13 -0.0028431962836166459
45 13 -0.0072176031157455836
46 13 -0.003601416956072597
47 13 -0.0020575193156726645
48 13 -0.003090514300752226
49 13 0.0068607405686194464
50 13 -0.0065197094437135514
51 13 0.0076464175365634291
52 13 -0.021327404753475089
53 13 -0.019415138350590087
54 13 0.02273557825653387
55 13 -0.02789872672855926
1 14 -19765.411984812898
2 14 -11449.976446507986
3 14 18572.493364315687
4 14 26666.114282645976
5 14 3274.8746183302201
11 14 -3316.4439664661254
12 14 7607.7371174722457
13 14 10923.100230708609
14 14 1341.5835705962938
20 14 -8725.7147587483141
21 14 -17717.557784372795
22 14 -2175.5759908777372
28 14 -17987.776652757177
29 14 -3123.6760256851489
35 14 -270.96719187694066
41 14 0.00034289153259207543
42 14 -0.005790504445291415
43 14 -0.0061638735725705373
44 14 -0.010745545876708036
45 14 -0.0088393530785124946
46 14 -0.0020078126344745513
47 14 -0.008268025160999724
48 14 -0.0075016133255415155
49 14 -0.01804371800720057
50 14 -0.0029537374852631484
51 14 -0.015566197291492258
52 14 0.017419706310919537
53 14 0.014668296625795933
54 14 -0.046750635262483305
55 14 0.03503892594711136
6 15 49312.797016496646
7 15 20200.344247175188
8 15 -32764.075811242874
9 15 -47040.773412191375
10 15 -5777.0697405113397
15 15 20199.63830799561
16 15 8274.5184247693905
17 15 -13420.907369367316
18 15 -19268.965991458819
19 15 -2366.4185829765493
23 15 -32764.864557642784
24 15 -13421.699504391134
25 15 21769.410198991354
26 15 31255.265626518951
27 15 3838.4540938651071
30 15 -47043.219260332931
31 15 -19270.641315197885
32 15 31256.1382745101
33 15 44875.763527772688
34 15 5511.1852283331964
36 15 -5777.0460017769319
37 15 -2366.4915605704109
38 15 3838.3459186859145
39 15 5510.8760484724426
40 15 676.78979221646603
6 16 20200.344247175188
7 16 8274.8119475600488
8 16 -13421.375089069774
9 16 -19269.636952755343
10 16 -2366.5063351210629
15 16 8274.5184247693905
16 16 3389.5503504197241
17 16 -5497.6991531111498
18 16 -7893.2796418302705
19 16 -969.3745825658898
23 16 -13421.699504391134
24 16 -5498.0270660995011
25 16 8917.5541355640835
26 16 12803.31035817671
27 16 1572.3760207539294
30 16 -19270.641315197885
31 16 -7893.9710650942361
32 16 12803.668201563622
33 16 18382.768998729254
34 16 2257.5899794697193
36 16 -2366.4915605704109
37 16 -969.40291707882363
38 16 1572.3281985144927
39 16 2257.4582227888586
40 16 277.23870452769916
6 17 -32764.075811242859
7 17 -13421.37508906977
8 17 21768.893480324725
9 17 31254.514193232942
10 17 3838.367517331832
15 17 -13420.907369367316
16 17 -5497.6991531111498
17 17 8917.0317092493278
18 17 12802.556747778553
19 17 1572.2822519541958
23 17 21769.410198991362
24 17 8917.5541355640853
25 17 -14463.889489253408
26 17 -20766.413310800948
27 17 -2550.323636798807
30 17 31256.138274510115
31 17 12803.668201563625
32 17 -20766.999460751784
33 17 -29816.052891414369
34 17 -3661.7100558943193
36 17 3838.3459186859159
37 17 1572.3281985144931
38 17 -2550.2487518918733
39 17 -3661.4991884782821
40 17 -449.66878905559309
6 18 -47040.773412191367
7 18 -19269.63695275534
8 18 31254.514193232942
9 18 44873.440512069246
10 18 5510.8888860935749
15 18 -19268.965991458819
16 18 -7893.2796418302705
17 18 12802.556747778553
18 18 18381.177357997632
19 18 2257.3848775480565
23 18 31255.265626518954
24 18 12803.310358176712
25 18 -20766.413310800948
26 18 -29815.226261076576
27 18 -3661.5957493684828
30 18 44875.763527772695
31 18 18382.768998729258
32 18 -29816.052891414369
33 18 -42808.180202566655
34 18 -5257.255111712785
36 18 5510.8760484724435
37 18 2257.4582227888591
38 18 -3661.4991884782821
39 18 -5256.9707212004669
40 18 -645.60642534621343
6 19 -5777.0697405113397
7 19 -2366.5063351210633
8 19 3838.3675173318325
9 19 5510.8888860935758
10 19 676.8268425413919
15 19 -2366.4185829765493
16 19 -969.3745825658898
17 19 1572.2822519541958
18 19 2257.3848775480565
19 19 277.24360092499973
23 19 3838.4540938651066
24 19 1572.3760207539292
25 19 -2550.3236367988065
26 19 -3661.5957493684823
27 19 -449.70354890693233
30 19 5511.1852283331955
31 19 2257.5899794697189
32 19 -3661.7100558943184
33 19 -5257.2551117127841
34 19 -645.67648726763628
36 19 676.78979221646591
37 19 277.2387045276991
38 19 -449.66878905559298
39 19 -645.60642534621331
40 19 -79.290975997387008
1 20 128575.45790090384
2 20 74482.950865988067
3 20 -120815.27916451031
4 20 -173464.42870986924
5 20 -21301.919105594854
11 20 21573.755704044648
12 20 -49488.642101823607
13 20 -71054.912197492697
14 20 -8725.7147587483141
20 20 56761.764710373078
21 20 115254.92268014255
22 20 14153.722162829858
28 20 117012.73234374329
29 20 20321.667729796514
35 20 1764.7129324642158
41 20 0.010038115628095071
42 20 -0.00064021799982994431
43 20 -0.014123395736355918
44 20 -0.0037708839513594136
45 20 0.0010839768489288104
46 20 2.5683364768314279e-05
47 20 -0.0022055509755946785
48 20 -0.0065197094437135531
49 20 0.0023059731276407107
50 20 0.0054023015043109281
51 20 0.0038713061034054445
52 20 -0.018294803410815307
53 20 -0.0029239472889355227
54 20 0.013281548063865447
55 20 -0.0089578504249658488
1 21 261072.85535902766
2 21 151237.8627018859
3 21 -245315.77681537968
4 21 -352220.08846092422
5 21 -43253.626604885729
11 21 43805.574386881417
12 21 -100486.8393739148
13 21 -144277.21767957669
14 21 -17717.557784372795
20 21 115254.92268014255
21 21 234025.52284900317
22 21 28739.269770144765
28 21 237594.78737805763
29 21 41263.331650623695
35 21 3583.3493986533776
41 21 0.00053471174899330336
42 21 0.0040369744324427964
43 21 -0.0050558752336981342
44 21 -0.024943760258412578
45 21 -0.013545917340552129
46 21 -0.0015201659567938841
47 21 -0.010453392912984891
48 21 -0.0093008962871251322
49 21 -0.015566197291492287
50 21 -0.0045218491299517747
51 21 -0.0010758299460645951
52 21 0.012676636996273121
53 21 0.011018613688492185
54 21 -0.030710906058320813
55 21 0.024407161544804854
1 22 32060.528407221966
2 22 18572.465731056422
3 22 -30125.501390108442
4 22 -43253.6579666896
5 22 -5311.5821536154517
11 22 5379.4620099863423
12 22 -12340.053949996225
13 22 -17717.58914549051
14 22 -2175.5759908777372
20 22 14153.722162829858
21 22 28739.269770144765
22 22 3529.6844456378576
28 22 29177.64972304026
29 22 5067.8583046857502
35 22 440.5581808654639
41 22 -0.0062020918995267646
42 22 -0.0015478736984140822
43 22 0.00031962622270379409
44 22 -0.015906671561906342
45 22 -0.042974435729654245
46 22 -0.0029880410150039355
47 22 -0.0087272726301602099
48 22 -0.021327404753475228
49 22 -0.016879370849240703
50 22 -0.01829480341081537
51 22 -0.0096999719174945785
52 22 -0.013252541842861879
53 22 -0.012585013089568923
54 22 0.025501151762179472
55 22 -0.046672985440024767
6 23 -79987.952027744817
7 23 -32766.021486196583
8 23 53145.055295613711
9 23 76302.610167978113
10 23 9370.7111586141
15 23 -32764.864557642784
16 23 -13421.699504391134
17 23 21769.410198991362
18 23 31255.265626518954
19 23 3838.4540938651066
23 23 53146.344826965833
24 23 21770.707117355767
25 23 -35311.135777161631
26 23 -50697.695445161837
27 23 -6226.1757412772131
30 23 76306.586169832168
31 23 31257.997968391348
32 23 -50699.107035627123
33 23 -72790.858500119662
34 23 -8939.4335068032724
36 23 9370.687495351387
37 23 3838.5799364711384
38 23 -6226.0089485179687
39 23 -8938.9451390846261
40 23 -1097.7904003107476
6 24 -32766.021486196583
7 24 -13422.180471300824
8 24 21770.176743609725
9 24 31256.365272759278
10 24 3838.5978216505096
15 24 -13421.699504391134
16 24 -5498.0270660995011
17 24 8917.5541355640853
18 24 12803.310358176712
19 24 1572.3760207539292
23 24 21770.707117355767
24 24 8918.0909571252596
25 24 -14464.744887561648
26 24 -20767.647185759077
27 24 -2550.4771444918451
30 24 31257.997968391348
31 24 12804.4379779232
32 24 -20768.226032872062
33 24 -29817.822179198505
34 24 -3661.9301785287007
36 24 3838.5799364711384
37 24 1572.4250404503612
38 24 -2550.4031271131021
39 24 -3661.7218441845698
40 24 -449.6964817219818
6 25 53145.055295613696
7 25 21770.176743609722
8 25 -35310.29089302721
9 25 -50696.466904979337
10 25 -6226.0341212947997
15 25 21769.410198991354
16 25 8917.5541355640835
17 25 -14463.889489253408
18 25 -20766.413310800948
19 25 -2550.3236367988065
23 25 -35311.135777161631
24 25 -14464.744887561648
25 25 23461.194444513621
26 25 33684.221727620548
27 25 4136.759948548347
30 25 -50699.107035627138
31 25 -20768.226032872066
32 25 33685.169908788666
33 25 48363.212487913457
34 25 5939.4870993585018
36 25 -6226.0089485179706
37 25 -2550.4031271131025
38 25 4136.6442437948599
39 25 5939.153790563415
40 25 729.38759659469122
6 26 76302.610167978099
7 26 31256.365272759274
8 26 -50696.466904979337
9 26 -72787.082140129118
10 26 -8938.9518040037801
15 26 31255.265626518951
16 26 12803.31035817671
17 26 -20766.413310800948
18 26 -29815.226261076576
19 26 -3661.5957493684823
23 26 -50697.695445161837
24 26 -20767.647185759077
25 26 33684.221727620548
26 26 48361.875361256978
27 26 5939.3021439330978
30 26 -72790.858500119677
31 26 -29817.822179198509
32 26 48363.212487913457
33 26 69437.129149773638
34 26 8527.5454466392148
36 26 -8938.945139084628
37 26 -3661.7218441845703
38 26 5939.153790563415
39 26 8527.0966832234863
40 26 1047.2092579926577
6 27 9370.7111586141
7 27 3838.59782165051
8 27 -6226.0341212948015
9 27 -8938.9518040037819
10 27 -1097.848759099591
15 27 3838.4540938651071
16 27 1572.3760207539294
17 27 -2550.323636798807
18 27 -3661.5957493684828
19 27 -449.70354890693233
23 27 -6226.1757412772131
24 27 -2550.4771444918451
25 27 4136.759948548347
26 27 5939.3021439330978
27 27 729.44296284545089
30 27 -8939.4335068032706
31 27 -3661.9301785286998
32 27 5939.4870993585009
33 27 8527.5454466392148
34 27 1047.3213629549925
36 27 -1097.7904003107474
37 27 -449.69648172198174
38 27 729.3875965946911
39 27 1047.2092579926575
40 27 128.61433975848252
1 28 265054.63427087583
2 28 153544.47503194047
3 28 -249057.22260846989
4 28 -357592.01709397772
5 28 -43913.330307336568
11 28 44473.677820597157
12 28 -102019.41619938366
13 28 -146477.68062706388
14 28 -17987.776652757177
20 28 117012.73234374329
21 28 237594.78737805763
22 28 29177.64972304026
28 28 241218.54541812596
29 28 41892.777234847177
35 28 3638.1037891204246
41 28 0.011264034348556398
42 28 -0.00083540163971967225
43 28 -0.014630354735062075
44 28 -0.013008155906500878
45 28 -0.02419992196611831
46 28 0.00045940565211464513
47 28 -0.0069217787731102771
48 28 -0.019415138350590194
49 28 -0.01448082064205238
50 28 -0.0029239472889355739
51 28 -0.0083944435086617808
52 28 -0.012585013089568976
53 28 0.0019056805994860742
54 28 0.015237103843577302
55 28 -0.02223325607159371
1 29 46031.962541178407
2 29 26666.026173286729
3 29 -43253.688038770946
4 29 -62102.867326535285
5 29 -7626.2942148262719
11 29 7723.7376210941893
12 29 -17717.639337053737
13 29 -25438.623769382695
14 29 -3123.6760256851489
20 29 20321.667729796514
21 29 41263.331650623695
22 29 5067.8583046857502
28 29 41892.777234847177
29 29 7276.4554998155299
35 29 632.69285991179754
41 29 0.00073208930324238466
42 29 0.00149344807534092
43 29 -0.012293003088995232
44 29 -0.030586010332984356
45 29 -0.032647891266413494
46 29 -0.0039801882710666604
47 29 -0.01454628112882172
48 29 -0.02247044717770437
49 29 -0.046750635262483818
50 29 -0.011176728001339828
51 29 -0.030710906058321191
52 29 -0.027669571636739564
53 29 -0.014853064162556448
54 29 -0.01806057956970563
55 29 0.027045812527426816
6 30 -114845.30553025947
7 30 -47044.881800299641
8 30 76304.742878405363
9 30 109553.95600650176
10 30 13454.303539032488
15 30 -47043.219260332931
16 30 -19270.641315197885
17 30 31256.138274510115
18 30 44875.763527772695
19 30 5511.1852283331955
23 30 76306.586169832168
24 30 31257.997968391348
25 30 -50699.107035627138
26 30 -72790.858500119677
27 30 -8939.4335068032706
30 30 109559.67439839357
31 30 44879.691933020709
32 30 -72792.899511321026
33 30 -104511.85352078376
34 30 -12835.083751900987
36 30 13454.280097275327
37 30 5511.3703948279417
38 30 -8939.2019873737427
39 30 -12834.391471819379
40 30 -1576.1895315800361
6 31 -47044.881800299641
7 31 -19271.332469846777
8 31 31257.239824072276
9 31 44877.343756348673
10 31 5511.3917591280333
15 31 -19270.641315197885
16 31 -7893.9710650942361
17 31 12803.668201563625
18 31 18382.768998729258
19 31 2257.5899794697189
23 31 31257.997968391348
24 31 12804.4379779232
25 31 -20768.226032872066
26 31 -29817.822179198509
27 31 -3661.9301785286998
30 31 44879.691933020709
31 31 18384.39020969312
32 31 -29818.659125039503
33 31 -42811.912486181871
34 31 -5257.7359067842272
36 31 5511.3703948279417
37 31 2257.6621978572698
38 31 -3661.8271658476483
39 31 -5257.4404337366468
40 31 -645.66686562199982
6 32 76304.742878405334
7 32 31257.239824072269
8 32 -50697.899410719314
9 32 -72789.102401165612
10 32 -8939.2311313821938
15 32 31256.1382745101
16 32 12803.668201563622
17 32 -20766.999460751784
18 32 -29816.052891414369
19 32 -3661.7100558943184
23 32 -50699.107035627123
24 32 -20768.226032872062
25 32 33685.169908788666
26 32 48363.212487913457
27 32 5939.4870993585009
30 32 -72792.899511321026
31 32 -29818.659125039503
32 32 48364.583353888229
33 32 69439.062589473935
34 32 8527.8126746605139
36 32 -8939.2019873737463
37 32 -3661.8271658476492
38 32 5939.3262603632193
39 32 8527.3400354749829
40 32 1047.2428014413742
6 33 109553.95600650174
7 33 44877.343756348666
8 33 -72789.102401165612
9 33 -104506.42221893254
10 33 -12834.390992970923
15 33 44875.763527772688
16 33 18382.768998729254
17 33 -29816.052891414369
18 33 -42808.180202566655
19 33 -5257.2551117127841
23 33 -72790.858500119662
24 33 -29817.822179198505
25 33 48363.212487913457
26 33 69437.129149773638
27 33 8527.5454466392148
30 33 -104511.85352078376
31 33 -42811.912486181871
32 33 69439.062589473935
33 33 99696.627023474968
34 33 12243.702011146344
36 33 -12834.391471819381
37 33 -5257.4404337366477
38 33 8527.3400354749829
39 33 12243.066183729794
40 33 1503.5659533500157
6 34 13454.303539032489
7 34 5511.3917591280342
8 34 -8939.2311313821956
9 34 -12834.390992970924
10 34 -1576.2720880899085
15 34 5511.1852283331964
16 34 2257.5899794697193
17 34 -3661.7100558943193
18 34 -5257.255111712785
19 34 -645.67648726763628
23 34 -8939.4335068032724
24 34 -3661.9301785287007
25 34 5939.4870993585018
26 34 8527.5454466392148
27 34 1047.3213629549925
30 34 -12835.083751900987
31 34 -5257.7359067842272
32 34 8527.8126746605139
33 34 12243.702011146344
34 34 1503.7258679157778
36 34 -1576.1895315800361
37 34 -645.6668656219997
38 34 1047.242801441374
39 34 1503.5659533500154
40 34 184.66236895587247
1 35 3997.1908264925619
2 35 2315.5488084560566
3 35 -3755.9165526000033
4 35 -5392.6267085514064
5 35 -662.02199220291391
11 35 670.6999237415497
12 35 -1538.4689458026808
13 35 -2208.8463534008797
14 35 -270.96719187694066
20 35 1764.7129324642158
21 35 3583.3493986533776
22 35 440.5581808654639
28 35 3638.1037891204246
29 35 632.69285991179754
35 35 55.856168815239819
41 35 0.0088793892332401213
42 35 -0.0036018597405921456
43 35 -0.01790347365648837
44 35 -0.020138615246209787
45 35 -0.037893979800631111
46 35 -0.0018901391980287602
47 35 -0.011870237493400965
48 35 -0.027898726728559746
49 35 -0.034208843695374698
50 35 -0.0089578504249660969
51 35 -0.025940465942565882
52 35 -0.046672985440025391
53 35 -0.022233256071594081
54 35 -0.026578210600378377
55 35 -0.0098369602592917067
6 36 -14103.349008303572
7 36 -5777.2530102172796
8 36 9370.4519730627762
9 36 13453.555368816815
10 36 1652.228949180979
15 36 -5777.0460017769319
16 36 -2366.4915605704109
17 36 3838.3459186859159
18 36 5510.8760484724435
19 36 676.78979221646591
23 36 9370.687495351387
24 36 3838.5799364711384
25 36 -6226.0089485179706
26 36 -8938.945139084628
27 36 -1097.7904003107474
30 36 13454.280097275327
31 36 5511.3703948279417
32 36 -8939.2019873737463
33 36 -12834.391471819381
34 36 -1576.1895315800361
36 36 1652.2716737100823
37 36 676.83154511820351
38 36 -1097.7911952562154
39 36 -1576.1453845808151
40 36 -193.56615861993032
6 37 -5777.2530102172796
7 37 -2366.5776012558963
8 37 3838.4830815656301
9 37 5511.0728178143636
10 37 676.81548794339483
15 37 -2366.4915605704109
16 37 -969.40291707882363
17 37 1572.3281985144931
18 37 2257.4582227888591
19 37 277.2387045276991
23 37 3838.5799364711384
24 37 1572.4250404503612
25 37 -2550.4031271131025
26 37 -3661.7218441845703
27 37 -449.69648172198174
30 37 5511.3703948279417
31 37 2257.6621978572698
32 37 -3661.8271658476492
33 37 -5257.4404337366477
34 37 -645.6668656219997
36 37 676.83154511820351
37 37 277.25536196429158
38 37 -449.69580359584046
39 37 -645.6473213036486
40 37 -79.292021944427574
6 38 9370.4519730627726
7 38 3838.4830815656292
8 38 -6225.854562151445
9 38 -8938.7207463548002
10 38 -1097.7644748270332
15 38 3838.3459186859145
16 38 1572.3281985144927
17 38 -2550.2487518918733
18 38 -3661.4991884782821
19 38 -449.66878905559298
23 38 -6226.0089485179687
24 38 -2550.4031271131021
25 38 4136.6442437948599
26 38 5939.153790563415
27 38 729.3875965946911
30 38 -8939.2019873737427
31 38 -3661.8271658476483
32 38 5939.3262603632193
33 38 8527.3400354749829
34 38 1047.242801441374
36 38 -1097.7911952562154
37 38 -449.69580359584046
38 38 729.38726338222511
39 38 1047.2119125535621
40 38 128.60811606468147
6 39 13453.555368816813
7 39 5511.0728178143627
8 39 -8938.7207463548002
9 39 -12833.703035205001
10 39 -1576.1018236414091
15 39 5510.8760484724426
16 39 2257.4582227888586
17 39 -3661.4991884782821
18 39 -5256.9707212004669
19 39 -645.60642534621331
23 39 -8938.9451390846261
24 39 -3661.7218441845698
25 39 5939.153790563415
26 39 8527.0966832234863
27 39 1047.2092579926575
30 39 -12834.391471819379
31 39 -5257.4404337366468
32 39 8527.3400354749829
33 39 12243.066183729794
34 39 1503.5659533500154
36 39 -1576.1453845808151
37 39 -645.6473213036486
38 39 1047.2119125535621
39 39 1503.5268560249913
40 39 184.64751858231548
6 40 1652.2289491809793
7 40 676.81548794339494
8 40 -1097.7644748270334
9 40 -1576.1018236414093
10 40 -193.57095431751938
15 40 676.78979221646603
16 40 277.23870452769916
17 40 -449.66878905559309
18 40 -645.60642534621343
19 40 -79.290975997387008
23 40 -1097.7904003107476
24 40 -449.6964817219818
25 40 729.38759659469122
26 40 1047.2092579926577
27 40 128.61433975848252
30 40 -1576.1895315800361
31 40 -645.66686562199982
32 40 1047.2428014413742
33 40 1503.5659533500157
34 40 184.66236895587247
36 40 -193.56615861993032
37 40 -79.292021944427574
38 40 128.60811606468147
39 40 184.64751858231548
40 40 22.677720341475826
1 41 0.019403994518413632
2 41 -0.00031772560706305926
3 41 -0.016822291872429472
4 41 -0.00070136603986551327
5 41 0.00095068631168897656
11 41 0.0037544189301597078
12 41 -0.0005095458234642867
13 41 -0.0079358027803702481
14 41 0.00034289153259207543
20 41 0.010038115628095071
21 41 0.00053471174899330336
22 41 -0.0062020918995267646
28 41 0.011264034348556398
29 41 0.00073208930324238466
35 41 0.0088793892332401213
41 41 49761.27236127638
42 41 28827.357109620403
43 41 -46756.770609475701
44 41 -67130.647311283741
45 41 -8244.3145847613505
46 41 8350.0724642769637
47 41 -19153.303107078231
48 41 -27499.210608392681
49 41 -3377.1631734609973
50 41 21966.862611884793
51 41 44602.48931999092
52 41 5477.6222000116213
53 41 45281.516404107497
54 41 7864.4452774670253
55 41 682.96748654004261
1 42 -0.00031772560706305649
2 42 0.0072780378666115987
3 42 -0.0011822066016094002
4 42 -0.012376919888856825
5 42 -0.0013614780938479654
11 42 -0.00057683595591228394
12 42 -0.0025494410111226141
13 42 -0.0012718423477286833
14 42 -0.005790504445291415
20 42 -0.00064021799982994431
21 42 0.0040369744324427964
22 42 -0.0015478736984140822
28 42 -0.00083540163971967225
29 42 0.00149344807534092
35 42 -0.0036018597405921456
41 42 28827.357109620403
42 42 16700.149542869091
43 42 -27086.860152264624
44 42 -38889.752967993634
45 42 -4776.0369048688781
46 42 4837.2906863069911
47 42 -11095.768016891681
48 42 -15930.678172073844
49 42 -1956.4531567486254
50 42 12725.692807526711
51 42 25838.873552842626
52 42 3173.2632212753729
53 42 26232.191872021718
54 42 4556.0181805368311
55 42 395.62389906933532
1 43 -0.016822291872429476
2 43 -0.00025900662677811996
3 43 0.018229831306527573
4 43 -0.0024750033045229307
5 43 -0.016156682278045318
11 43 -0.0019659272678485044
12 43 -0.0013670049656505259
13 43 0.0010365745142411275
14 43 -0.0061638735725705373
20 43 -0.014123395736355918
21 43 -0.0050558752336981342
22 43 0.00031962622270379409
28 43 -0.014630354735062075
29 43 -0.012293003088995232
35 43 -0.01790347365648837
41 43 -46756.770609475701
42 43 -27086.860152264624
43 43 43933.736318165596
44 43 63077.438446216882
45 43 7746.548255310915
46 43 -7845.8895472410422
47 43 17996.848041845384
48 43 25838.883215683887
49 43 3173.2493188621324
50 43 -20640.545444702377
51 43 -41909.521139337863
52 43 -5146.8713272356954
53 43 -42547.496515110703
54 43 -7389.6544636131275
55 43 -641.69774788578059
1 44 -0.0007013660398655072
2 44 -0.01237691988885682
3 44 0.0039873965192960565
4 44 0.016019508874552262
5 44 -0.0096737890865293448
11 44 0.0010590745391041855
12 44 0.0018212944928477199
13 44 -0.0028431962836166459
14 44 -0.010745545876708036
20 44 -0.0037708839513594136
21 44 -0.024943760258412578
22 44 -0.015906671561906342
28 44 -0.013008155906500878
29 44 -0.030586010332984356
35 44 -0.020138615246209787
41 44 -67130.647311283741
42 44 -38889.752967993634
43 44 63077.438446216882
44 44 90563.071708949399
45 44 11121.940252649421
46 44 -11264.688849088418
47 44 25838.888515414852
48 44 37097.89871213396
49 44 4556.0658177180076
50 44 -29634.51335589456
51 44 -60171.223301232407
52 44 -7389.6892838523618
53 44 -61087.298743282525
54 44 -10609.504320411968
55 44 -921.40540318900594
1 45 0.00095068631168897678
2 45 0.0023313218054771836
3 45 -0.016156682278045301
4 45 0.011744450329556455
5 45 0.0017214760465541371
11 45 -0.0052369066442966867
12 45 0.0070378860675168187
13 45 -0.0072176031157455836
14 45 -0.0088393530785124946
20 45 0.0010839768489288104
21 45 -0.013545917340552129
22 45 -0.042974435729654245
28 45 -0.02419992196611831
29 45 -0.032647891266413494
35 45 -0.037893979800631111
41 45 -8244.3145847613505
42 45 -4776.0369048688781
43 45 7746.548255310915
44 45 11121.940252649421
45 45 1366.1096693905874
46 45 -1383.418653635156
47 45 3173.2396586255527
48 45 4556.0888593707341
49 45 559.36523073323087
50 45 -3639.3532841567981
51 45 -7389.7472809891933
52 45 -907.35858749294459
53 45 -7501.9799091761679
54 45 -1303.2350268883499
55 45 -112.92154426815951
1 46 0.0037544189301597052
2 46 -0.00025043547461506174
3 46 -0.0019659272678485026
4 46 -0.0012257288299763957
5 46 -0.0052369066442966928
11 46 0.0011821492138722439
12 46 -0.00073808215229572891
13 46 -0.003601416956072597
14 46 -0.0020078126344745513
20 46 2.5683364768314279e-05
21 46 -0.0015201659567938841
22 46 -0.0029880410150039355
28 46 0.00045940565211464513
29 46 -0.0039801882710666604
35 46 -0.0018901391980287602
41 46 8350.0724642769637
42 46 4837.2906863069911
43 46 -7845.8895472410422
44 46 -11264.688849088418
45 46 -1383.418653635156
46 46 1401.1722696458792
47 46 -3213.9806576640513
48 46 -4614.4313329820716
49 46 -566.70144695114743
50 46 3686.0973371998239
51 46 7484.39670757965
52 46 919.17050292011845
53 46 7598.3555405487823
54 46 1319.6612078618862
55 46 114.61635292877135
1 47 -0.00050954582346428225
2 47 -0.0025494410111226132
3 47 0.0014025949588433279
4 47 0.0018212944928477177
5 47 -0.0055176335901886558
11 47 0.00024111929159595041
12 47 -0.00036407325913744769
13 47 -0.0020575193156726645
14 47 -0.008268025160999724
20 47 -0.0022055509755946785
21 47 -0.010453392912984891
22 47 -0.0087272726301602099
28 47 -0.0069217787731102771
29 47 -0.01454628112882172
35 47 -0.011870237493400965
41 47 -19153.303107078231
42 47 -11095.768016891681
43 47 17996.848041845384
44 47 25838.888515414852
45 47 3173.2396586255527
46 47 -3213.9806576640513
47 47 7372.2026823927163
48 47 10584.52894091551
49 47 1299.9249789045698
50 47 -8455.1431279433145
51 47 -17167.656897111869
52 47 -2108.4044887690975
53 47 -17429.051931019301
54 47 -3027.0168960883211
55 47 -262.91570931390083
1 48 -0.0079358027803702481
2 48 0.0010361575893495319
3 48 0.0010365745142411355
4 48 0.0046347235125167663
5 48 -0.0072176031157455888
11 48 -0.0036014169560725957
12 48 0.0028354405509331488
13 48 -0.003090514300752226
14 48 -0.0075016133255415155
20 48 -0.0065197094437135531
21 48 -0.0093008962871251322
22 48 -0.021327404753475228
28 48 -0.019415138350590194
29 48 -0.02247044717770437
35 48 -0.027898726728559746
41 48 -27499.210608392681
42 48 -15930.678172073844
43 48 25838.883215683887
44 48 37097.89871213396
45 48 4556.0888593707341
46 48 -4614.4313329820716
47 48 10584.52894091551
48 48 15196.753750594344
49 48 1866.2090700961685
50 48 -12139.354312998135
51 48 -24648.437327953474
52 48 -3026.9545505604974
53 48 -25023.534619980725
54 48 -4346.2164415223288
55 48 -377.28814732023557
1 49 0.00034289153259208199
2 49 -0.0057905044452914054
3 49 0.0076841260498987192
4 49 -0.010745545876707979
5 49 0.0060373550873401753
11 49 0.0028881945849838333
12 49 -0.008268025160999691
13 49 0.0068607405686194464
14 49 -0.01804371800720057
20 49 0.0023059731276407107
21 49 -0.015566197291492287
22 49 -0.016879370849240703
28 49 -0.01448082064205238
29 49 -0.046750635262483818
35 49 -0.034208843695374698
41 49 -3377.1631734609973
42 49 -1956.4531567486254
43 49 3173.2493188621324
44 49 4556.0658177180076
45 49 559.36523073323087
46 49 -566.70144695114743
47 49 1299.9249789045698
48 49 1866.2090700961685
49 49 229.40111017796363
50 49 -1490.8934751583554
51 49 -3026.9089965053022
52 49 -372.00678185278895
53 49 -3073.2987432951591
54 49 -533.43107360513216
55 49 -46.658329269752784
1 50 0.010038115628095069
2 50 0.00066538392535896065
3 50 -0.014123395736355909
4 50 0.0038016072147362191
5 50 0.0010839768489288072
11 50 2.5683364768316465e-05
12 50 0.0022334955700475897
13 50 -0.0065197094437135514
14 50 -0.0029537374852631484
20 50 0.0054023015043109281
21 50 -0.0045218491299517747
22 50 -0.01829480341081537
28 50 -0.0029239472889355739
29 50 -0.011176728001339828
35 50 -0.0089578504249660969
41 50 21966.862611884793
42 50 12725.692807526711
43 50 -20640.545444702377
44 50 -29634.51335589456
45 50 -3639.3532841567981
46 50 3686.0973371998239
47 50 -8455.1431279433145
48 50 -12139.354312998135
49 50 -1490.8934751583554
50 50 9697.1895861824705
51 50 19689.506197160987
52 50 2418.1378261796631
53 50 19989.343210700281
54 50 3471.6391776937621
55 50 301.57705028228111
1 51 0.00053471174899330672
2 51 0.0040369744324428034
3 51 0.005099324489445993
4 51 -0.024943760258412519
5 51 0.010193510583680867
11 51 0.0020702393374755976
12 51 -0.01045339291298486
13 51 0.0076464175365634291
14 51 -0.015566197291492258
20 51 0.0038713061034054445
21 51 -0.0010758299460645951
22 51 -0.0096999719174945785
28 51 -0.0083944435086617808
29 51 -0.030710906058321191
35 51 -0.025940465942565882
41 51 44602.48931999092
42 51 25838.873552842626
43 51 -41909.521139337863
44 51 -60171.223301232407
45 51 -7389.7472809891933
46 51 7484.39670757965
47 51 -17167.656897111869
48 51 -24648.437327953474
49 51 -3026.9089965053022
50 51 19689.506197160987
51 51 39978.731646577377
52 51 4909.553001164556
53 51 40587.037648372047
54 51 7049.4483426825454
55 51 611.86792994274265
1 52 -0.0062020918995267663
2 52 0.0030681261757423118
3 52 0.00031962622270388972
4 52 0.012554264805035128
5 52 -0.042974435729654065
11 52 -0.0029880410150039021
12 52 0.00781119549038872
13 52 -0.021327404753475089
14 52 0.017419706310919537
20 52 -0.018294803410815307
21 52 0.012676636996273121
22 52 -0.013252541842861879
28 52 -0.012585013089568976
29 52 -0.027669571636739564
35 52 -0.046672985440025391
41 52 5477.6222000116213
42 52 3173.2632212753729
43 52 -5146.8713272356954
44 52 -7389.6892838523618
45 52 -907.35858749294459
46 52 919.17050292011845
47 52 -2108.4044887690975
48 52 -3026.9545505604974
49 52 -372.00678185278895
50 52 2418.1378261796631
51 52 4909.553001164556
52 52 603.37858166984165
53 52 4984.7619934621043
54 52 865.16443641381693
55 52 75.71501990682269
1 53 0.0112640343485564
2 53 0.0021022026919553394
3 53 -0.014630354735062008
4 53 0.0094015685665628321
5 53 -0.024199921966118164
11 53 0.00045940565211467061
12 53 0.0057518856292590858
13 53 -0.019415138350590087
14 53 0.014668296625795933
20 53 -0.0029239472889355227
21 53 0.011018613688492185
22 53 -0.012585013089568923
28 53 0.0019056805994860742
29 53 -0.014853064162556448
35 53 -0.022233256071594081
41 53 45281.516404107497
42 53 26232.191872021718
43 53 -42547.496515110703
44 53 -61087.298743282525
45 53 -7501.9799091761679
46 53 7598.3555405487823
47 53 -17429.051931019301
48 53 -25023.534619980725
49 53 -3073.2987432951591
50 53 19989.343210700281
51 53 40587.037648372047
52 53 4984.7619934621043
53 53 41205.260762041144
54 53 7156.0580100123889
55 53 621.84479232628212
1 54 0.00073208930324238661
2 54 0.0014934480753409807
3 54 0.0089405963321241202
4 54 -0.030586010332983998
5 54 0.036530560180943625
11 54 0.0035270227987694619
12 54 -0.014546281128821508
13 54 0.02273557825653387
14 54 -0.046750635262483305
20 54 0.013281548063865447
21 54 -0.030710906058320813
22 54 0.025501151762179472
28 54 0.015237103843577302
29 54 -0.01806057956970563
35 54 -0.026578210600378377
41 54 7864.4452774670253
42 54 4556.0181805368311
43 54 -7389.6544636131275
44 54 -10609.504320411968
45 54 -1303.2350268883499
46 54 1319.6612078618862
47 54 -3027.0168960883211
48 54 -4346.2164415223288
49 54 -533.43107360513216
50 54 3471.6391776937621
51 54 7049.4483426825454
52 54 865.16443641381693
53 54 7156.0580100123889
54 54 1243.8770029689563
55 54 107.02438277935698
1 55 0.0088793892332401213
2 55 0.0016205479601633904
3 55 -0.01790347365648811
4 55 0.022884076764776391
5 55 -0.03789397980063041
11 55 -0.0018901391980286663
12 55 0.012252312362469889
13 55 -0.02789872672855926
14 55 0.03503892594711136
20 55 -0.0089578504249658488
21 55 0.024407161544804854
22 55 -0.046672985440024767
28 55 -0.02223325607159371
29 55 0.027045812527426816
35 55 -0.0098369602592917067
41 55 682.96748654004261
42 55 395.62389906933532
43 55 -641.69774788578059
44 55 -921.40540318900594
45 55 -112.92154426815951
46 55 114.61635292877135
47 55 -262.91570931390083
48 55 -377.28814732023557
49 55 -46.658329269752784
50 55 301.57705028228111
51 55 611.86792994274265
52 55 75.71501990682269
53 55 621.84479232628212
54 55 107.02438277935698
55 55 10.374044348966027
56 56 0.035294845711718086
57 56 0.022263816923208401
58 56 -0.017842275332345673
59 56 -0.025301559633966148
60 56 -0.013690002705556854
66 56 0.011339225284504895
67 56 -0.001518871390883464
68 56 -0.015766139155545072
69 56 -0.013638020348786029
75 56 0.01280727532757513
76 56 0.010144668116541617
77 56 -0.0076136391014497437
83 56 0.018571963299267871
84 56 0.010951556619730107
90 56 0.017606333940848536
96 56 0.019096220938355987
97 56 0.00064449598282409482
98 56 -0.015839664787845448
99 56 -0.0016119745860547219
100 56 -7.2271646103785096e-06
101 56 0.0039479432775743504
102 56 -0.0004837393016153133
103 56 -0.0079234459762279122
104 56 -4.475539119709276e-05
105 56 0.0095455552806256207
106 56 0.0010834798932423159
107 56 -0.0058756605913552031
108 56 0.010993558212683816
109 56 -0.00074473808395970713
110 56 0.0084731000058588003
56 57 0.022263816923208401
57 57 0.022909529372707838
58 57 -0.0016858536687232072
59 57 -0.021141300580409004
60 57 -0.017438453724220811
66 57 0.010535869032569986
67 57 0.00088411378729568151
68 57 -0.0095621536996676297
69 57 -0.012984252835991424
75 57 0.0049664839981190126
76 57 0.0090411614130764279
77 57 0.00041115761760982119
83 57 0.012018680099661568
84 57 0.015226684630336867
90 57 0.014977328265120191
96 57 0.00064449598282409514
97 57 0.0076648091314308357
98 57 -0.00022195583356153444
99 57 -0.012360831878901371
100 57 0.0017853257085226799
101 57 0.00024377475389441124
102 57 -0.0023480113737352668
103 57 0.00078168493748057206
104 57 -0.006239526638663351
105 57 0.00095345594897358003
106 57 0.003773293866502752
107 57 0.001752518047192715
108 57 0.0016399386242514572
109 57 0.0013143740494287975
110 57 0.003167700359370361
56 58 -0.017842275332345673
57 58 -0.0016858536687232072
58 58 0.029311790790765509
59 58 0.022203359661283492
60 58 0.0040216436242293133
66 58 0.0014421448411970203
67 58 0.010258752847468017
68 58 0.016666716309067516
69 58 0.013351493079785738
75 58 -0.007499271904161736
76 58 0.0014068867720856857
77 58 0.026412234240296779
83 58 -0.00060815047732737143
84 58 0.022742032807094737
90 58 0.014028078561446137
96 58 -0.015839664787845448
97 58 -0.0011462655284329942
98 58 0.017242491171508324
99 58 0.0047673558916319324
100 58 -0.015703916455167295
101 58 -0.0018236911779613673
102 58 0.0018105451815994698
103 58 0.00076928735817051539
104 58 0.0063740665215499936
105 58 -0.013472005302240624
106 58 0.0034172558115175304
107 58 -0.00077510731996043242
108 58 -0.014564057251975434
109 58 0.011907090030057185
110 58 -0.01683334151220767
56 59 -0.025301559633966148
57 59 -0.021141300580409004
58 59 0.022203359661283492
59 59 0.065843744135483356
60 59 0.070576698124984238
66 59 -0.0048007068681146445
67 59 0.022351221004647346
68 59 0.046390028435993359
69 59 0.071847255287982997
75 59 0.012301850946537782
76 59 0.02835473409992998
77 59 0.069802600886659252
83 59 0.028857039466505606
84 59 0.077640267382094605
90 59 0.071583491668645804
96 59 -0.0016119745860547268
97 59 -0.012360831878901364
98 59 -0.0017028119724682763
99 59 0.015470733076523859
100 59 0.0096687737617572687
101 59 -0.0014080222394363428
102 59 0.0015549505988112478
103 59 0.0039829808946444945
104 59 -0.010939331619724192
105 59 0.0026124404533211998
106 59 -0.024855114097436806
107 59 0.015525102264268308
108 59 0.01077395274306036
109 59 -0.029993194216608111
110 59 0.020297412099440214
56 60 -0.013690002705556854
57 60 -0.017438453724220811
58 60 0.0040216436242293133
59 60 0.070576698124984238
60 60 0.17549647298203749
66 60 -0.005423135939952012
67 60 0.026569121851093398
68 60 0.089759056711474591
69 60 0.16637698846750437
75 60 0.055202370999502051
76 60 0.12236941372405216
77 60 0.18139042822005605
83 60 0.11999553437729446
84 60 0.23826105631970118
90 60 0.23056292012961774
96 60 -7.2271646103829091e-06
97 60 -0.0019119130709631667
98 60 -0.015703916455167305
99 60 -0.011775211159260604
100 60 0.00088962016937932788
101 60 -0.0055557864906230978
102 60 -0.0068435621151118863
103 60 -0.0074071481428939897
104 60 0.0082298612860911679
105 60 0.00031091464491903167
106 60 0.013161510330239887
107 60 -0.04148226241235433
108 60 -0.023783829724722864
109 60 0.032877473523238186
110 60 -0.039036683760613498
61 61 1.276293465539633e-09
62 61 8.045163047566512e-11
63 61 5.959403713138241e-11
64 61 -3.0845621350609241e-11
65 61 1.1576532543953282e-10
70 61 -5.349600021708057e-11
71 61 -5.6333253715351511e-11
72 61 -4.1728501881135932e-11
73 61 2.1598495932001414e-11
74 61 -8.1060351553695785e-11
78 61 4.6465449779319443e-11
79 61 4.8929825796220498e-11
80 61 3.6244459411099715e-11
81 61 -1.8759978764109841e-11
82 61 7.0407239399734302e-11
85 61 2.6329073764917402e-11
86 61 2.7725482026144646e-11
87 61 2.0537475692942192e-11
88 61 -1.0630110481107806e-11
89 61 3.9895393427674564e-11
91 61 6.2489312583799079e-11
92 61 6.5803542059151916e-11
93 61 4.8743558156173758e-11
94 61 -2.5229459364399647e-11
95 61 9.4687558431223067e-11
61 62 8.045163047566512e-11
62 62 1.4205820863261673e-09
63 62 3.456004978725023e-11
64 62 1.1745439605383599e-10
65 62 -2.3362723177527928e-10
70 62 -5.6333253715351524e-11
71 62 -1.5452872553225734e-10
72 62 -2.4199385911379839e-11
73 62 -8.2243060255758275e-11
74 62 1.6358875568585219e-10
78 62 4.8929825796220504e-11
79 62 1.3422025397309578e-10
80 62 2.1019054624509532e-11
81 62 7.1434514178713057e-11
82 62 -1.4208959699673682e-10
85 62 2.7725482026144649e-11
86 62 7.6054250725803395e-11
87 62 1.1910187941920001e-11
88 62 4.0477486005300032e-11
89 62 -8.0513316847726502e-11
91 62 6.5803542059151929e-11
92 62 1.8050683777809172e-10
93 62 2.8267589808880169e-11
94 62 9.6069094498945101e-11
95 62 -1.9108996649779492e-10
61 63 5.959403713138241e-11
62 63 3.456004978725023e-11
63 63 1.413503919280198e-09
64 63 -7.719999607489734e-11
65 63 3.1560840060935052e-10
70 63 -4.1728501881135938e-11
71 63 -2.4199385911379823e-11
72 63 -1.4957250304574312e-10
73 63 5.4056417999219909e-11
74 63 -2.2099301159099172e-10
78 63 3.6244459411099728e-11
79 63 2.1019054624509519e-11
80 63 1.2991538807456586e-10
81 63 -4.6952216345151757e-11
82 63 1.9194967175103261e-10
85 63 2.0537475692942199e-11
86 63 1.1910187941919993e-11
87 63 7.3614951583563773e-11
88 63 -2.6604894033072834e-11
89 63 1.0876591296731533e-10
91 63 4.8743558156173771e-11
92 63 2.8267589808880153e-11
93 63 1.7471741548599754e-10
94 63 -6.3143943244474958e-11
95 63 2.5814455892228287e-10
61 64 -3.0845621350609241e-11
62 64 1.1745439605383599e-10
63 64 -7.719999607489734e-11
64 64 1.5340490519931827e-09
65 64 -5.0641378893755789e-10
70 64 2.1598495932001414e-11
71 64 -8.2243060255758314e-11
72 64 5.4056417999219909e-11
73 64 -2.3397973637490876e-10
74 64 3.5459736848715585e-10
78 64 -1.8759978764109841e-11
79 64 7.1434514178713096e-11
80 64 -4.6952216345151757e-11
81 64 2.0322965540955428e-10
82 64 -3.0799547910982012e-10
85 64 -1.0630110481107806e-11
86 64 4.0477486005300051e-11
87 64 -2.6604894033072834e-11
88 64 1.1515757651997209e-10
89 64 -1.7452183777962135e-10
91 64 -2.5229459364399647e-11
92 64 9.6069094498945139e-11
93 64 -6.3143943244474958e-11
94 64 2.7331450622991073e-10
95 64 -4.1420939342884803e-10
61 65 1.1576532543953282e-10
62 65 -2.3362723177527928e-10
63 65 3.1560840060935052e-10
64 65 -5.0641378893755789e-10
65 65 2.6270905908167724e-09
70 65 -8.1060351553695759e-11
71 65 1.6358875568585224e-10
72 65 -2.2099301159099166e-10
73 65 3.5459736848715569e-10
74 65 -9.9934130784228244e-10
78 65 7.0407239399734276e-11
79 65 -1.4208959699673687e-10
80 65 1.9194967175103258e-10
81 65 -3.0799547910981997e-10
82 65 8.6800589134734888e-10
85 65 3.9895393427674551e-11
86 65 -8.0513316847726528e-11
87 65 1.0876591296731532e-10
88 65 -1.745218377796213e-10
89 65 4.918448277205498e-10
91 65 9.4687558431223041e-11
92 65 -1.9108996649779497e-10
93 65 2.5814455892228282e-10
94 65 -4.1420939342884782e-10
95 65 1.1673424388786377e-09
56 66 0.011339225284504895
57 66 0.010535869032569986
58 66 0.0014421448411970203
59 66 -0.0048007068681146445
60 66 -0.005423135939952012
66 66 0.0061794895234655528
67 66 0.0028675811193492285
68 66 -0.0019904951746578473
69 66 -0.0020985438734302899
75 66 0.0037522445923310103
76 66 0.0055697435472041321
77 66 0.0055313151846949557
83 66 0.0090709680657291396
84 66 0.013516301286201187
90 66 0.0137628418632632
96 66 0.0039479432775743504
97 66 -8.3018072685629498e-05
98 66 -0.0018236911779613658
99 66 0.00087952754662392935
100 66 -0.0055557864906230908
101 66 0.0013291994394238932
102 66 0.00039825473696915005
103 66 -0.0036897388342922283
104 66 0.0022311951349625282
105 66 9.7044876150766231e-06
106 66 0.0017499223253077496
107 66 -0.0032118721167232775
108 66 0.00034760728411143695
109 66 0.00383742301024623
110 66 -0.0017149349637261262
56 67 -0.001518871390883464
57 67 0.00088411378729568151
58 67 0.010258752847468017
59 67 0.022351221004647346
60 67 0.026569121851093398
66 67 0.0028675811193492285
67 67 0.011617668951460611
68 67 0.018413937512506678
69 67 0.029431501769119118
75 67 0.0086341673669175674
76 67 0.018697947798209432
77 67 0.035106879301527782
83 67 0.020437859734622046
84 67 0.046433476018843088
90 67 0.043280410166263508
96 67 -0.00048373930161531585
97 67 -0.0023480113737352642
98 67 -0.00096238390301490594
99 67 0.0015549505988112443
100 67 0.0057270497351399738
101 67 -0.00058212374277096576
102 67 -0.00039653038746200944
103 67 0.0023823329160625336
104 67 -0.0085894291291937711
105 67 0.0017829482011473897
106 67 -0.010540910115467027
107 67 0.0086388101557305103
108 67 0.006206945683655909
109 67 -0.014339410083589656
110 67 0.011732556229405286
56 68 -0.015766139155545072
57 68 -0.0095621536996676297
58 68 0.016666716309067516
59 68 0.046390028435993359
60 68 0.089759056711474591
66 68 -0.0019904951746578473
67 68 0.018413937512506678
68 68 0.053212888681222724
69 68 0.08986424235596982
75 68 0.023851549342597856
76 68 0.061888149943331444
77 68 0.10390133053847719
83 68 0.05969369226990847
84 68 0.13050154509129638
90 68 0.12229549959128599
96 68 -0.0079234459762279157
97 68 -0.0015290892996980799
98 68 0.00076928735817050791
99 68 -0.0035039276338143382
100 68 -0.0074071481428939819
101 68 -0.0036897388342922322
102 68 -0.0025165084667562085
103 68 -0.0033189303923617372
104 68 0.0073019639038205807
105 68 -0.0065805453286607975
106 68 0.00828938307087871
107 68 -0.021128684866157377
108 68 -0.019173943488349148
109 68 0.022392281776647684
110 68 -0.027935012636410583
56 69 -0.013638020348786029
57 69 -0.012984252835991424
58 69 0.013351493079785738
59 69 0.071847255287982997
60 69 0.16637698846750437
66 69 -0.0020985438734302899
67 69 0.029431501769119118
68 69 0.08986424235596982
69 69 0.1907521771219195
75 69 0.052004138361853455
76 69 0.14833641890635907
77 69 0.24052822449765132
83 69 0.15853966338291697
84 69 0.32145591152892683
90 69 0.30419007584021329
96 69 -4.4755391197095199e-05
97 69 -0.006239526638663357
98 69 -0.0074905789015218853
99 69 -0.010939331619724258
100 69 -0.0066647292255517382
101 69 -0.0026706972637380502
102 69 -0.0085894291291938075
103 69 -0.007077654063536813
104 69 -0.017710454713216198
105 69 -0.0023787153106784482
106 69 -0.015360552222685741
107 69 0.01668477111041701
108 69 0.014423856667262222
109 69 -0.046810721196395892
110 69 0.034740537408719303
61 70 -5.349600021708057e-11
62 70 -5.6333253715351524e-11
63 70 -4.1728501881135938e-11
64 70 2.1598495932001414e-11
65 70 -8.1060351553695759e-11
70 70 1.373300070547858e-09
71 70 1.8260314965126912e-10
72 70 1.3526212975778907e-10
73 70 -7.0011105782068557e-11
74 70 2.6275555785108682e-10
78 70 -2.9267767858704417e-11
79 70 -3.0820034876924919e-11
80 70 -2.2829746171539978e-11
81 70 1.181657997737848e-11
82 70 -4.434827916463639e-11
85 70 7.2933695074961506e-11
86 70 7.6801860557493971e-11
87 70 5.6890493116941538e-11
88 70 -2.9446278413155612e-11
89 70 1.1051351388694656e-10
91 70 1.2776540356672502e-10
92 70 1.3454166416110021e-10
93 70 9.966088794384129e-11
94 70 -5.1584053723428542e-11
95 70 1.9359781081748587e-10
61 71 -5.6333253715351511e-11
62 71 -1.5452872553225734e-10
63 71 -2.4199385911379823e-11
64 71 -8.2243060255758314e-11
65 71 1.6358875568585224e-10
70 71 1.8260314965126912e-10
71 71 1.7007956906947773e-09
72 71 7.844184022057127e-11
73 71 2.6658928517683015e-10
74 71 -5.302697796706198e-10
78 71 -3.0820034876924925e-11
79 71 -8.4542972334883382e-11
80 71 -1.3239532045450543e-11
81 71 -4.4995341442114523e-11
82 71 8.9499732807671262e-11
85 71 7.6801860557493997e-11
86 71 2.1067651604901856e-10
87 71 3.2992198031627247e-11
88 71 1.1212595809751743e-10
89 71 -2.2302849514859366e-10
91 71 1.3454166416110023e-10
92 71 3.6906357298048477e-10
93 71 5.7795803321519718e-11
94 71 1.9642249404628257e-10
95 71 -3.9070179647763423e-10
61 72 -4.1728501881135932e-11
62 72 -2.4199385911379839e-11
63 72 -1.4957250304574312e-10
64 72 5.4056417999219909e-11
65 72 -2.2099301159099166e-10
70 72 1.3526212975778907e-10
71 72 7.844184022057127e-11
72 72 1.6847301916028383e-09
73 72 -1.7522283082386869e-10
74 72 7.1634456215401489e-10
78 72 -2.2829746171539984e-11
79 72 -1.3239532045450535e-11
80 72 -8.1831413179007014e-11
81 72 2.9574373539222328e-11
82 72 -1.2090571510757511e-10
85 72 5.6890493116941558e-11
86 72 3.2992198031627228e-11
87 72 2.0391945723923335e-10
88 72 -7.36977398534735e-11
89 72 3.0129050500356114e-10
91 72 9.9660887943841316e-11
92 72 5.7795803321519686e-11
93 72 3.5722654285512256e-10
94 72 -1.2910385884955829e-10
95 72 5.2780135331190326e-10
61 73 2.1598495932001414e-11
62 73 -8.2243060255758275e-11
63 73 5.4056417999219909e-11
64 73 -2.3397973637490876e-10
65 73 3.5459736848715569e-10
70 73 -7.0011105782068557e-11
71 73 2.6658928517683015e-10
72 73 -1.7522283082386869e-10
73 73 1.9583346018351374e-09
74 73 -1.1494204945268587e-09
78 73 1.181657997737848e-11
79 73 -4.4995341442114543e-11
80 73 2.9574373539222328e-11
81 73 -1.2801077800345883e-10
82 73 1.9400092384618878e-10
85 73 -2.9446278413155612e-11
86 73 1.1212595809751748e-10
87 73 -7.36977398534735e-11
88 73 3.1899593758859826e-10
89 73 -4.834398131202444e-10
91 73 -5.1584053723428542e-11
92 73 1.9642249404628265e-10
93 73 -1.2910385884955829e-10
94 73 5.5881776811476867e-10
95 73 -8.4689090220982142e-10
61 74 -8.1060351553695785e-11
62 74 1.6358875568585219e-10
63 74 -2.2099301159099172e-10
64 74 3.5459736848715585e-10
65 74 -9.9934130784228244e-10
70 74 2.6275555785108682e-10
71 74 -5.302697796706198e-10
72 74 7.1634456215401489e-10
73 74 -1.1494204945268587e-09
74 74 4.4392392958578387e-09
78 74 -4.4348279164636377e-11
79 74 8.9499732807671288e-11
80 74 -1.2090571510757508e-10
81 74 1.940009238461887e-10
82 74 -5.4674161228605895e-10
85 74 1.1051351388694653e-10
86 74 -2.2302849514859371e-10
87 74 3.0129050500356109e-10
88 74 -4.834398131202443e-10
89 74 1.362450536978853e-09
91 74 1.935978108174858e-10
92 74 -3.9070179647763433e-10
93 74 5.2780135331190316e-10
94 74 -8.4689090220982111e-10
95 74 2.3867437748476953e-09
56 75 0.01280727532757513
57 75 0.0049664839981190126
58 75 -0.007499271904161736
59 75 0.012301850946537782
60 75 0.055202370999502051
66 75 0.0037522445923310103
67 75 0.0086341673669175674
68 75 0.023851549342597856
69 75 0.052004138361853455
75 75 0.025920624580415871
76 75 0.04833645515564778
77 75 0.060324381650953926
83 75 0.051710809618949277
84 75 0.089713782462630329
90 75 0.090319469165309862
96 75 0.0095455552806256172
97 75 -0.00035371535734657881
98 75 -0.013472005302240629
99 75 -0.0049691531233357024
100 75 0.00031091464491903861
101 75 9.7044876150738042e-06
102 75 -0.0026614342403411401
103 75 -0.0065805453286607958
104 75 0.0028873176662113039
105 75 0.0048827025672090376
106 75 0.0051950365492058666
107 75 -0.017604024821045387
108 75 -0.0029120745341269464
109 75 0.011251573196301594
110 75 -0.0095650018981528872
56 76 0.010144668116541617
57 76 0.0090411614130764279
58 76 0.0014068867720856857
59 76 0.02835473409992998
60 76 0.12236941372405216
66 76 0.0055697435472041321
67 76 0.018697947798209432
68 76 0.061888149943331444
69 76 0.14833641890635907
75 76 0.04833645515564778
76 76 0.13867963442538167
77 76 0.20583250395336961
83 76 0.1501204833430726
84 76 0.29024911939226322
90 76 0.27588699303666187
96 76 0.0010834798932423157
97 76 0.0037732938665027437
98 76 -0.0067501508320685147
99 76 -0.024855114097436872
100 76 -0.010606453252169024
101 76 -0.0018447987670726733
102 76 -0.010540910115467064
103 76 -0.0086783020421187709
104 76 -0.015360552222685781
105 76 -0.0032082075628522585
106 76 -0.001046348240715969
107 76 0.0097984790018792161
108 76 0.0098568496078577754
109 76 -0.031156937063377438
110 76 0.026175681538684371
56 77 -0.0076136391014497437
57 77 0.00041115761760982119
58 77 0.026412234240296779
59 77 0.069802600886659252
60 77 0.18139042822005605
66 77 0.0055313151846949557
67 77 0.035106879301527782
68 77 0.10390133053847719
69 77 0.24052822449765132
75 77 0.060324381650953926
76 77 0.20583250395336961
77 77 0.39092059715210448
83 77 0.2632776481837365
84 77 0.55989959777919829
90 77 0.53214165593817786
96 77 -0.005875660591355204
97 77 -0.0028690304271645588
98 77 -0.00077510731996052816
99 77 -0.012970045186197418
100 77 -0.041482262412354511
101 77 -0.0032118721167233122
102 77 -0.0079195378066809902
103 77 -0.021128684866157519
104 77 -0.017655534791426321
105 77 -0.017604024821045453
106 77 -0.012605027411909881
107 77 -0.014461239502037327
108 77 -0.012889428990885259
109 77 0.027991379417922693
110 77 -0.04610679983154533
61 78 4.6465449779319443e-11
62 78 4.8929825796220504e-11
63 78 3.6244459411099728e-11
64 78 -1.8759978764109841e-11
65 78 7.0407239399734276e-11
70 78 -2.9267767858704417e-11
71 78 -3.0820034876924925e-11
72 78 -2.2829746171539984e-11
73 78 1.181657997737848e-11
74 78 -4.4348279164636377e-11
78 78 1.3460962735719072e-09
79 78 1.5395655194586088e-10
80 78 1.1404234344332457e-10
81 78 -5.9027834211562213e-11
82 78 2.2153473129363049e-10
85 78 3.0121427197849064e-11
86 78 3.1718969525185974e-11
87 78 2.3495626334445557e-11
88 78 -1.2161236730949071e-11
89 78 4.5641795051008512e-11
91 78 1.758281176295001e-10
92 78 1.8515346793259456e-10
93 78 1.3715126191652293e-10
94 78 -7.0988912590509761e-11
95 78 2.6642532096298962e-10
61 79 4.8929825796220498e-11
62 79 1.3422025397309578e-10
63 79 2.1019054624509519e-11
64 79 7.1434514178713096e-11
65 79 -1.4208959699673687e-10
70 79 -3.0820034876924919e-11
71 79 -8.4542972334883382e-11
72 79 -1.3239532045450535e-11
73 79 -4.4995341442114543e-11
74 79 8.9499732807671288e-11
78 79 1.5395655194586088e-10
79 79 1.6222147115697301e-09
80 79 6.613596354559575e-11
81 79 2.2476702734821265e-10
82 79 -4.4708159215813714e-10
85 79 3.171896952518598e-11
86 79 8.7008855563188967e-11
87 79 1.3625692350912385e-11
88 79 4.6307730334410569e-11
89 79 -9.211019094479551e-11
91 79 1.8515346793259462e-10
92 79 5.078976899164005e-10
93 79 7.9537394484106082e-11
94 79 2.7031259186069836e-10
95 79 -5.3767576755040773e-10
61 80 3.6244459411099715e-11
62 80 2.1019054624509532e-11
63 80 1.2991538807456586e-10
64 80 -4.6952216345151757e-11
65 80 1.9194967175103258e-10
70 80 -2.2829746171539978e-11
71 80 -1.3239532045450543e-11
72 80 -8.1831413179007014e-11
73 80 2.9574373539222328e-11
74 80 -1.2090571510757508e-10
78 80 1.1404234344332457e-10
79 80 6.613596354559575e-11
80 80 1.6086695517507024e-09
81 80 -1.4773405008268015e-10
82 80 6.0396515068344034e-10
85 80 2.3495626334445563e-11
86 80 1.3625692350912377e-11
87 80 8.4218207772735753e-11
88 80 -3.0436975712814491e-11
89 80 1.244321983486552e-10
91 80 1.3715126191652295e-10
92 80 7.9537394484106031e-11
93 80 4.9160781278875391e-10
94 80 -1.776700722302143e-10
95 80 7.263493547114184e-10
61 81 -1.8759978764109841e-11
62 81 7.1434514178713057e-11
63 81 -4.6952216345151757e-11
64 81 2.0322965540955428e-10
65 81 -3.0799547910981997e-10
70 81 1.181657997737848e-11
71 81 -4.4995341442114523e-11
72 81 2.9574373539222328e-11
73 81 -1.2801077800345883e-10
74 81 1.940009238461887e-10
78 81 -5.9027834211562213e-11
79 81 2.2476702734821265e-10
80 81 -1.4773405008268015e-10
81 81 1.8393511784202936e-09
82 81 -9.6910056815129822e-10
85 81 -1.2161236730949071e-11
86 81 4.6307730334410595e-11
87 81 -3.0436975712814491e-11
88 81 1.3174449615652683e-10
89 81 -1.9965939090946141e-10
91 81 -7.0988912590509761e-11
92 81 2.7031259186069846e-10
93 81 -1.776700722302143e-10
94 81 7.6903350611830123e-10
95 81 -1.1654738216776788e-09
61 82 7.0407239399734302e-11
62 82 -1.4208959699673682e-10
63 82 1.9194967175103261e-10
64 82 -3.0799547910982012e-10
65 82 8.6800589134734888e-10
70 82 -4.434827916463639e-11
71 82 8.9499732807671262e-11
72 82 -1.2090571510757511e-10
73 82 1.9400092384618878e-10
74 82 -5.4674161228605895e-10
78 82 2.2153473129363049e-10
79 82 -4.4708159215813714e-10
80 82 6.0396515068344034e-10
81 82 -9.6910056815129822e-10
82 82 3.9310540495234344e-09
85 82 4.5641795051008499e-11
86 82 -9.2110190944795536e-11
87 82 1.2443219834865517e-10
88 82 -1.9965939090946131e-10
89 82 5.6268854358878849e-10
91 82 2.6642532096298952e-10
92 82 -5.3767576755040783e-10
93 82 7.2634935471141819e-10
94 82 -1.1654738216776784e-09
95 82 3.2845876385952438e-09
56 83 0.018571963299267871
57 83 0.012018680099661568
58 83 -0.00060815047732737143
59 83 0.028857039466505606
60 83 0.11999553437729446
66 83 0.0090709680657291396
67 83 0.020437859734622046
68 83 0.05969369226990847
69 83 0.15853966338291697
75 83 0.051710809618949277
76 83 0.1501204833430726
77 83 0.2632776481837365
83 83 0.19566640773922483
84 83 0.39334405884590828
90 83 0.38012446504584474
96 83 0.010993558212683816
97 83 -0.0013011968149688738
98 83 -0.014564057251975501
99 83 -0.011662709036134786
100 83 -0.023783829724722993
101 83 0.00034760728411141391
102 83 -0.0064819529255518288
103 83 -0.019173943488349242
104 83 -0.014760298902652184
105 83 -0.0029120745341269941
106 83 -0.0095795427920692226
107 83 -0.012889428990885302
108 83 0.0015317482834949305
109 83 0.015210733106972763
110 83 -0.022414395850111551
56 84 0.010951556619730107
57 84 0.015226684630336867
58 84 0.022742032807094737
59 84 0.077640267382094605
60 84 0.23826105631970118
66 84 0.013516301286201187
67 84 0.046433476018843088
68 84 0.13050154509129638
69 84 0.32145591152892683
75 84 0.089713782462630329
76 84 0.29024911939226322
77 84 0.55989959777919829
83 84 0.39334405884590828
84 84 0.91403164334736697
90 84 0.91423108341800419
96 84 -0.00074473808395970702
97 84 0.0013143740494287362
98 84 -0.0093520329519861892
99 84 -0.029993194216608485
100 84 -0.036384132945796073
101 84 -0.0036788120010945937
102 84 -0.014339410083589871
103 84 -0.02286808294889113
104 84 -0.04681072119639642
105 84 -0.013236102608762493
106 84 -0.031156937063377799
107 84 -0.025243257129734385
108 84 -0.014915604378535958
109 84 -0.018391118232725712
110 84 0.026354706269309476
61 85 2.6329073764917402e-11
62 85 2.7725482026144649e-11
63 85 2.0537475692942199e-11
64 85 -1.0630110481107806e-11
65 85 3.9895393427674551e-11
70 85 7.2933695074961506e-11
71 85 7.6801860557493997e-11
72 85 5.6890493116941558e-11
73 85 -2.9446278413155612e-11
74 85 1.1051351388694653e-10
78 85 3.0121427197849064e-11
79 85 3.171896952518598e-11
80 85 2.3495626334445563e-11
81 85 -1.2161236730949071e-11
82 85 4.5641795051008499e-11
85 85 1.4439648078336667e-09
86 85 2.570157142934218e-10
87 85 1.903827670165603e-10
88 85 -9.8541314295044001e-11
89 85 3.6983101066238499e-10
91 85 3.309894572041731e-10
92 85 3.4854405925914128e-10
93 85 2.581818104444116e-10
94 85 -1.3363381217194527e-10
95 85 5.0153509893569038e-10
61 86 2.7725482026144646e-11
62 86 7.6054250725803395e-11
63 86 1.1910187941919993e-11
64 86 4.0477486005300051e-11
65 86 -8.0513316847726528e-11
70 86 7.6801860557493971e-11
71 86 2.1067651604901856e-10
72 86 3.2992198031627228e-11
73 86 1.1212595809751748e-10
74 86 -2.2302849514859371e-10
78 86 3.1718969525185974e-11
79 86 8.7008855563188967e-11
80 86 1.3625692350912377e-11
81 86 4.6307730334410595e-11
82 86 -9.2110190944795536e-11
85 86 2.570157142934218e-10
86 86 1.9049180876690704e-09
87 86 1.1040765525284284e-10
88 86 3.7522701926855579e-10
89 86 -7.4635988727762093e-10
91 86 3.4854405925914138e-10
92 86 9.5609725547376181e-10
93 86 1.4972599026056759e-10
94 86 5.0885273221178202e-10
95 86 -1.0121533054704557e-09
61 87 2.0537475692942192e-11
62 87 1.1910187941920001e-11
63 87 7.3614951583563773e-11
64 87 -2.6604894033072834e-11
65 87 1.0876591296731532e-10
70 87 5.6890493116941538e-11
71 87 3.2992198031627247e-11
72 87 2.0391945723923335e-10
73 87 -7.36977398534735e-11
74 87 3.0129050500356109e-10
78 87 2.3495626334445557e-11
79 87 1.3625692350912385e-11
80 87 8.4218207772735753e-11
81 87 -3.0436975712814491e-11
82 87 1.2443219834865517e-10
85 87 1.903827670165603e-10
86 87 1.1040765525284284e-10
87 87 1.8823057409900532e-09
88 87 -2.4662784355428027e-10
89 87 1.0082619586454819e-09
91 87 2.5818181044441166e-10
92 87 1.4972599026056748e-10
93 87 9.2543220791996956e-10
94 87 -3.3445686367877232e-10
95 87 1.3673238495513393e-09
61 88 -1.0630110481107806e-11
62 88 4.0477486005300032e-11
63 88 -2.6604894033072834e-11
64 88 1.1515757651997209e-10
65 88 -1.745218377796213e-10
70 88 -2.9446278413155612e-11
71 88 1.1212595809751743e-10
72 88 -7.36977398534735e-11
73 88 3.1899593758859826e-10
74 88 -4.834398131202443e-10
78 88 -1.2161236730949071e-11
79 88 4.6307730334410569e-11
80 88 -3.0436975712814491e-11
81 88 1.3174449615652683e-10
82 88 -1.9965939090946131e-10
85 88 -9.8541314295044001e-11
86 88 3.7522701926855579e-10
87 88 -2.4662784355428027e-10
88 88 2.2674066172015607e-09
89 88 -1.6178205577970738e-09
91 88 -1.3363381217194527e-10
92 88 5.0885273221178233e-10
93 88 -3.3445686367877232e-10
94 88 1.4476750715052421e-09
95 88 -2.193958240715683e-09
61 89 3.9895393427674564e-11
62 89 -8.0513316847726502e-11
63 89 1.0876591296731533e-10
64 89 -1.7452183777962135e-10
65 89 4.918448277205498e-10
70 89 1.1051351388694656e-10
71 89 -2.2302849514859366e-10
72 89 3.0129050500356114e-10
73 89 -4.834398131202444e-10
74 89 1.362450536978853e-09
78 89 4.5641795051008512e-11
79 89 -9.211019094479551e-11
80 89 1.244321983486552e-10
81 89 -1.9965939090946141e-10
82 89 5.6268854358878849e-10
85 89 3.6983101066238499e-10
86 89 -7.4635988727762093e-10
87 89 1.0082619586454819e-09
88 89 -1.6178205577970738e-09
89 89 5.7593041734369283e-09
91 89 5.0153509893569017e-10
92 89 -1.0121533054704559e-09
93 89 1.3673238495513389e-09
94 89 -2.1939582407156818e-09
95 89 6.1831059462799716e-09
56 90 0.017606333940848536
57 90 0.014977328265120191
58 90 0.014028078561446137
59 90 0.071583491668645804
60 90 0.23056292012961774
66 90 0.0137628418632632
67 90 0.043280410166263508
68 90 0.12229549959128599
69 90 0.30419007584021329
75 90 0.090319469165309862
76 90 0.27588699303666187
77 90 0.53214165593817786
83 90 0.38012446504584474
84 90 0.91423108341800419
90 90 0.99822340631424611
96 90 0.0084731000058588003
97 90 -0.0020609848659101865
98 90 -0.016833341512207934
99 90 -0.022776994756442459
100 90 -0.039036683760614192
101 90 -0.0017149349637262193
102 90 -0.012418989811176322
103 90 -0.027935012636411072
104 90 -0.034590470578442514
105 90 -0.0095650018981531335
106 90 -0.024232465633176381
107 90 -0.046106799831545996
108 90 -0.022414395850111912
109 90 -0.027333774890040352
110 90 -0.010328149779180633
61 91 6.2489312583799079e-11
62 91 6.5803542059151929e-11
63 91 4.8743558156173771e-11
64 91 -2.5229459364399647e-11
65 91 9.4687558431223041e-11
70 91 1.2776540356672502e-10
71 91 1.3454166416110023e-10
72 91 9.9660887943841316e-11
73 91 -5.1584053723428542e-11
74 91 1.935978108174858e-10
78 91 1.758281176295001e-10
79 91 1.8515346793259462e-10
80 91 1.3715126191652295e-10
81 91 -7.0988912590509761e-11
82 91 2.6642532096298952e-10
85 91 3.309894572041731e-10
86 91 3.4854405925914138e-10
87 91 2.5818181044441166e-10
88 91 -1.3363381217194527e-10
89 91 5.0153509893569017e-10
91 91 2.0567763216078536e-09
92 91 9.0232875349345498e-10
93 91 6.6839432491885e-10
94 91 -3.4595807318591492e-10
95 91 1.2983998109673391e-09
61 92 6.5803542059151916e-11
62 92 1.8050683777809172e-10
63 92 2.8267589808880153e-11
64 92 9.6069094498945139e-11
65 92 -1.9108996649779497e-10
70 92 1.3454166416110021e-10
71 92 3.6906357298048477e-10
72 92 5.7795803321519686e-11
73 92 1.9642249404628265e-10
74 92 -3.9070179647763433e-10
78 92 1.8515346793259456e-10
79 92 5.078976899164005e-10
80 92 7.9537394484106031e-11
81 92 2.7031259186069846e-10
82 92 -5.3767576755040783e-10
85 92 3.4854405925914128e-10
86 92 9.5609725547376181e-10
87 92 1.4972599026056748e-10
88 92 5.0885273221178233e-10
89 92 -1.0121533054704559e-09
91 92 9.0232875349345498e-10
92 92 3.6750874803479452e-09
93 92 3.8761832993097499e-10
94 92 1.3173440756510439e-09
95 92 -2.6203144371782412e-09
61 93 4.8743558156173758e-11
62 93 2.8267589808880169e-11
63 93 1.7471741548599754e-10
64 93 -6.3143943244474958e-11
65 93 2.5814455892228282e-10
70 93 9.966088794384129e-11
71 93 5.7795803321519718e-11
72 93 3.5722654285512256e-10
73 93 -1.2910385884955829e-10
74 93 5.2780135331190316e-10
78 93 1.3715126191652293e-10
79 93 7.9537394484106082e-11
80 93 4.9160781278875391e-10
81 93 -1.776700722302143e-10
82 93 7.2634935471141819e-10
85 93 2.581818104444116e-10
86 93 1.4972599026056759e-10
87 93 9.2543220791996956e-10
88 93 -3.3445686367877232e-10
89 93 1.3673238495513389e-09
91 93 6.6839432491885e-10
92 93 3.8761832993097499e-10
93 93 3.5957002310175574e-09
94 93 -8.6585909839369028e-10
95 93 3.5397981747559337e-09
61 94 -2.5229459364399647e-11
62 94 9.6069094498945101e-11
63 94 -6.3143943244474958e-11
64 94 2.7331450622991073e-10
65 94 -4.1420939342884782e-10
70 94 -5.1584053723428542e-11
71 94 1.9642249404628257e-10
72 94 -1.2910385884955829e-10
73 94 5.5881776811476867e-10
74 94 -8.4689090220982111e-10
78 94 -7.0988912590509761e-11
79 94 2.7031259186069836e-10
80 94 -1.776700722302143e-10
81 94 7.6903350611830123e-10
82 94 -1.1654738216776784e-09
85 94 -1.3363381217194527e-10
86 94 5.0885273221178202e-10
87 94 -3.3445686367877232e-10
88 94 1.4476750715052421e-09
89 94 -2.1939582407156818e-09
91 94 -3.4595807318591492e-10
92 94 1.3173440756510439e-09
93 94 -8.6585909839369028e-10
94 94 4.9477093661650595e-09
95 94 -5.6798317227659199e-09
61 95 9.4687558431223067e-11
62 95 -1.9108996649779492e-10
63 95 2.5814455892228287e-10
64 95 -4.1420939342884803e-10
65 95 1.1673424388786377e-09
70 95 1.9359781081748587e-10
71 95 -3.9070179647763423e-10
72 95 5.2780135331190326e-10
73 95 -8.4689090220982142e-10
74 95 2.3867437748476953e-09
78 95 2.6642532096298962e-10
79 95 -5.3767576755040773e-10
80 95 7.263493547114184e-10
81 95 -1.1654738216776788e-09
82 95 3.2845876385952438e-09
85 95 5.0153509893569038e-10
86 95 -1.0121533054704557e-09
87 95 1.3673238495513393e-09
88 95 -2.193958240715683e-09
89 95 6.1831059462799716e-09
91 95 1.2983998109673391e-09
92 95 -2.6203144371782412e-09
93 95 3.5397981747559337e-09
94 95 -5.6798317227659199e-09
95 95 1.7207035913208585e-08
56 96 0.019096220938355987
57 96 0.00064449598282409514
58 96 -0.015839664787845448
59 96 -0.0016119745860547268
60 96 -7.2271646103829091e-06
66 96 0.0039479432775743504
67 96 -0.00048373930161531585
68 96 -0.0079234459762279157
69 96 -4.4755391197095199e-05
75 96 0.0095455552806256172
76 96 0.0010834798932423157
77 96 -0.005875660591355204
83 96 0.010993558212683816
84 96 -0.00074473808395970702
90 96 0.0084731000058588003
96 96 0.039343488269975149
97 96 -0.029278454179834094
98 96 -0.0069606622165285471
99 96 0.012487927820634404
100 96 -0.0053922505230425289
101 96 0.017210777820235747
102 96 -0.0083952631390828477
103 96 -0.0061764564980689197
104 96 0.0054297790033647052
105 96 0.017765295042249465
106 96 -0.015453412212111663
107 96 0.00032606997016932071
108 96 0.022363275484406763
109 96 -0.017043746378201819
110 96 0.01850133186816175
56 97 0.00064449598282409482
57 97 0.0076648091314308357
58 97 -0.0011462655284329942
59 97 -0.012360831878901364
60 97 -0.0019119130709631667
66 97 -8.3018072685629498e-05
67 97 -0.0023480113737352642
68 97 -0.0015290892996980799
69 97 -0.006239526638663357
75 97 -0.00035371535734657881
76 97 0.0037732938665027437
77 97 -0.0028690304271645588
83 97 -0.0013011968149688738
84 97 0.0013143740494287362
90 97 -0.0020609848659101865
96 97 -0.029278454179834094
97 97 0.034652634366727102
98 97 -0.012334849859701843
99 97 -0.0075794413152001101
100 97 0.0058302474491117801
101 97 -0.01900025490109046
102 97 0.013536595935892069
103 97 -0.003252301173750144
104 97 -0.0015026338990310497
105 97 -0.0125779233206321
106 97 0.019613403250692003
107 97 -0.010523089479186636
108 97 -0.017719147027600708
109 97 0.021735904668511986
110 97 -0.017349762056324262
56 98 -0.015839664787845448
57 98 -0.00022195583356153444
58 98 0.017242491171508324
59 98 -0.0017028119724682763
60 98 -0.015703916455167305
66 98 -0.0018236911779613658
67 98 -0.00096238390301490594
68 98 0.00076928735817050791
69 98 -0.0074905789015218853
75 98 -0.013472005302240629
76 98 -0.0067501508320685147
77 98 -0.00077510731996052816
83 98 -0.014564057251975501
84 98 -0.0093520329519861892
90 98 -0.016833341512207934
96 98 -0.0069606622165285471
97 98 -0.012334849859701843
98 98 0.039227830190041682
99 98 -0.029711057581832873
100 98 0.015250087862124929
101 98 0.010388800774438441
102 98 -0.021022953529120186
103 98 0.027238958102849493
104 98 -0.023463424818926517
105 98 0.0019113891999727464
106 98 -0.014775321433799735
107 98 0.033174629065266199
108 98 0.0061085418887484822
109 98 -0.02759343513172029
110 98 0.019720658892004334
56 99 -0.0016119745860547219
57 99 -0.012360831878901371
58 99 0.0047673558916319324
59 99 0.015470733076523859
60 99 -0.011775211159260604
66 99 0.00087952754662392935
67 99 0.0015549505988112443
68 99 -0.0035039276338143382
69 99 -0.010939331619724258
75 99 -0.0049691531233357024
76 99 -0.024855114097436872
77 99 -0.012970045186197418
83 99 -0.011662709036134786
84 99 -0.029993194216608485
90 99 -0.022776994756442459
96 99 0.012487927820634404
97 99 -0.0075794413152001101
98 99 -0.029711057581832873
99 99 0.073426368437319534
100 99 -0.079192355443048743
101 99 -0.0042604810603162147
102 99 0.032923462806005006
103 99 -0.054451706035596438
104 99 0.078356475217720101
105 99 -0.021754761765828162
106 99 0.037853571528673378
107 99 -0.074654003226897192
108 99 -0.036039942749265391
109 99 0.085943966195360544
110 99 -0.079223351386953286
56 100 -7.2271646103785096e-06
57 100 0.0017853257085226799
58 100 -0.015703916455167295
59 100 0.0096687737617572687
60 100 0.00088962016937932788
66 100 -0.0055557864906230908
67 100 0.0057270497351399738
68 100 -0.0074071481428939819
69 100 -0.0066647292255517382
75 100 0.00031091464491903861
76 100 -0.010606453252169024
77 100 -0.041482262412354511
83 100 -0.023783829724722993
84 100 -0.036384132945796073
90 100 -0.039036683760614192
96 100 -0.0053922505230425289
97 100 0.0058302474491117801
98 100 0.015250087862124929
99 100 -0.079192355443048743
100 100 0.17728646871425288
101 100 0.0026955945761994527
102 100 -0.036681053632691384
103 100 0.09626827659876068
104 100 -0.16973211604231636
105 100 0.059984106207779692
106 100 -0.12722081602454363
107 100 0.18944095250796969
108 100 0.12586713603609448
109 100 -0.2490654493711161
110 100 0.23519089453447536
56 101 0.0039479432775743504
57 101 0.00024377475389441124
58 101 -0.0018236911779613673
59 101 -0.0014080222394363428
60 101 -0.0055557864906230978
66 101 0.0013291994394238932
67 101 -0.00058212374277096576
68 101 -0.0036897388342922322
69 101 -0.0026706972637380502
75 101 9.7044876150738042e-06
76 101 -0.0018447987670726733
77 101 -0.0032118721167233122
83 101 0.00034760728411141391
84 101 -0.0036788120010945937
90 101 -0.0017149349637262193
96 101 0.017210777820235747
97 101 -0.01900025490109046
98 101 0.010388800774438441
99 101 -0.0042604810603162147
100 101 0.0026955945761994527
101 101 0.012278386283534721
102 101 -0.011630368064197745
103 101 0.0065421981494283828
104 101 -0.0055806847862041606
105 101 0.0095584255848825527
106 101 -0.012950570987424588
107 101 0.011892037259660307
108 101 0.013341333558399403
109 101 -0.018277626031305273
110 101 0.016222972042683879
56 102 -0.0004837393016153133
57 102 -0.0023480113737352668
58 102 0.0018105451815994698
59 102 0.0015549505988112478
60 102 -0.0068435621151118863
66 102 0.00039825473696915005
67 102 -0.00039653038746200944
68 102 -0.0025165084667562085
69 102 -0.0085894291291938075
75 102 -0.0026614342403411401
76 102 -0.010540910115467064
77 102 -0.0079195378066809902
83 102 -0.0064819529255518288
84 102 -0.014339410083589871
90 102 -0.012418989811176322
96 102 -0.0083952631390828477
97 102 0.013536595935892069
98 102 -0.021022953529120186
99 102 0.032923462806005006
100 102 -0.036681053632691384
101 102 -0.011630368064197745
102 102 0.023230030965836371
103 102 -0.02885200386087856
104 102 0.03842692136853202
105 102 -0.017166342422315947
106 102 0.028733487471765518
107 102 -0.042588546496104183
108 102 -0.026879544917811426
109 102 0.053839935605364458
110 102 -0.048286557153417731
56 103 -0.0079234459762279122
57 103 0.00078168493748057206
58 103 0.00076928735817051539
59 103 0.0039829808946444945
60 103 -0.0074071481428939897
66 103 -0.0036897388342922283
67 103 0.0023823329160625336
68 103 -0.0033189303923617372
69 103 -0.007077654063536813
75 103 -0.0065805453286607958
76 103 -0.0086783020421187709
77 103 -0.021128684866157519
83 103 -0.019173943488349242
84 103 -0.02286808294889113
90 103 -0.027935012636411072
96 103 -0.0061764564980689197
97 103 -0.003252301173750144
98 103 0.027238958102849493
99 103 -0.054451706035596438
100 103 0.09626827659876068
101 103 0.0065421981494283828
102 103 -0.02885200386087856
103 103 0.061753619617308596
104 103 -0.096597772384912947
105 103 0.030947747446238839
106 103 -0.070998068452179097
107 103 0.11130778997609535
108 103 0.065987839385087593
109 103 -0.13832944301114838
110 103 0.127455776956857
56 104 -4.475539119709276e-05
57 104 -0.006239526638663351
58 104 0.0063740665215499936
59 104 -0.010939331619724192
60 104 0.0082298612860911679
66 104 0.0022311951349625282
67 104 -0.0085894291291937711
68 104 0.0073019639038205807
69 104 -0.017710454713216198
75 104 0.0028873176662113039
76 104 -0.015360552222685781
77 104 -0.017655534791426321
83 104 -0.014760298902652184
84 104 -0.04681072119639642
90 104 -0.034590470578442514
96 104 0.0054297790033647052
97 104 -0.0015026338990310497
98 104 -0.023463424818926517
99 104 0.078356475217720101
100 104 -0.16973211604231636
101 104 -0.0055806847862041606
102 104 0.03842692136853202
103 104 -0.096597772384912947
104 104 0.19567243776029938
105 104 -0.057294475836939161
106 104 0.15574287837642639
107 104 -0.24760798507052606
108 104 -0.16407482304096885
109 104 0.32875364590187944
110 104 -0.30896811805437141
56 105 0.0095455552806256207
57 105 0.00095345594897358003
58 105 -0.013472005302240624
59 105 0.0026124404533211998
60 105 0.00031091464491903167
66 105 9.7044876150766231e-06
67 105 0.0017829482011473897
68 105 -0.0065805453286607975
69 105 -0.0023787153106784482
75 105 0.0048827025672090376
76 105 -0.0032082075628522585
77 105 -0.017604024821045453
83 105 -0.0029120745341269941
84 105 -0.013236102608762493
90 105 -0.0095650018981531335
96 105 0.017765295042249465
97 105 -0.0125779233206321
98 105 0.0019113891999727464
99 105 -0.021754761765828162
100 105 0.059984106207779692
101 105 0.0095584255848825527
102 105 -0.017166342422315947
103 105 0.030947747446238839
104 105 -0.057294475836939161
105 105 0.030090233192879227
106 105 -0.052706057043731755
107 105 0.067140526530603525
108 105 0.055682390429044187
109 105 -0.096579807250822935
110 105 0.092403204235163017
56 106 0.0010834798932423159
57 106 0.003773293866502752
58 106 0.0034172558115175304
59 106 -0.024855114097436806
60 106 0.013161510330239887
66 106 0.0017499223253077496
67 106 -0.010540910115467027
68 106 0.00828938307087871
69 106 -0.015360552222685741
75 106 0.0051950365492058666
76 106 -0.001046348240715969
77 106 -0.012605027411909881
83 106 -0.0095795427920692226
84 106 -0.031156937063377799
90 106 -0.024232465633176381
96 106 -0.015453412212111663
97 106 0.019613403250692003
98 106 -0.014775321433799735
99 106 0.037853571528673378
100 106 -0.12722081602454363
101 106 -0.012950570987424588
102 106 0.028733487471765518
103 106 -0.070998068452179097
104 106 0.15574287837642639
105 106 -0.052706057043731755
106 106 0.14662279608899492
107 106 -0.21554252940932811
108 106 -0.15491442475614886
109 106 0.29664961390694133
110 106 -0.27803132118379542
56 107 -0.0058756605913552031
57 107 0.001752518047192715
58 107 -0.00077510731996043242
59 107 0.015525102264268308
60 107 -0.04148226241235433
66 107 -0.0032118721167232775
67 107 0.0086388101557305103
68 107 -0.021128684866157377
69 107 0.01668477111041701
75 107 -0.017604024821045387
76 107 0.0097984790018792161
77 107 -0.014461239502037327
83 107 -0.012889428990885302
84 107 -0.025243257129734385
90 107 -0.046106799831545996
96 107 0.00032606997016932071
97 107 -0.010523089479186636
98 107 0.033174629065266199
99 107 -0.074654003226897192
100 107 0.18944095250796969
101 107 0.011892037259660307
102 107 -0.042588546496104183
103 107 0.11130778997609535
104 107 -0.24760798507052606
105 107 0.067140526530603525
106 107 -0.21554252940932811
107 107 0.39508806768379429
108 107 0.26780348119822517
109 107 -0.56293213579801726
110 107 0.53736989926828216
56 108 0.010993558212683816
57 108 0.0016399386242514572
58 108 -0.014564057251975434
59 108 0.01077395274306036
60 108 -0.023783829724722864
66 108 0.00034760728411143695
67 108 0.006206945683655909
68 108 -0.019173943488349148
69 108 0.014423856667262222
75 108 -0.0029120745341269464
76 108 0.0098568496078577754
77 108 -0.012889428990885259
83 108 0.0015317482834949305
84 108 -0.014915604378535958
90 108 -0.022414395850111912
96 108 0.022363275484406763
97 108 -0.017719147027600708
98 108 0.0061085418887484822
99 108 -0.036039942749265391
100 108 0.12586713603609448
101 108 0.013341333558399403
102 108 -0.026879544917811426
103 108 0.065987839385087593
104 108 -0.16407482304096885
105 108 0.055682390429044187
106 108 -0.15491442475614886
107 108 0.26780348119822517
108 108 0.19838760155045077
109 108 -0.39681925172919025
110 108 0.38225625809379687
56 109 -0.00074473808395970713
57 109 0.0013143740494287975
58 109 0.011907090030057185
59 109 -0.029993194216608111
60 109 0.032877473523238186
66 109 0.00383742301024623
67 109 -0.014339410083589656
68 109 0.022392281776647684
69 109 -0.046810721196395892
75 109 0.011251573196301594
76 109 -0.031156937063377438
77 109 0.027991379417922693
83 109 0.015210733106972763
84 109 -0.018391118232725712
90 109 -0.027333774890040352
96 109 -0.017043746378201819
97 109 0.021735904668511986
98 109 -0.02759343513172029
99 109 0.085943966195360544
100 109 -0.2490654493711161
101 109 -0.018277626031305273
102 109 0.053839935605364458
103 109 -0.13832944301114838
104 109 0.32875364590187944
105 109 -0.096579807250822935
106 109 0.29664961390694133
107 109 -0.56293213579801726
108 109 -0.39681925172919025
109 109 0.91829522989483425
110 109 -0.91908052599363377
56 110 0.0084731000058588003
57 110 0.003167700359370361
58 110 -0.01683334151220767
59 110 0.020297412099440214
60 110 -0.039036683760613498
66 110 -0.0017149349637261262
67 110 0.011732556229405286
68 110 -0.027935012636410583
69 110 0.034740537408719303
75 110 -0.0095650018981528872
76 110 0.026175681538684371
77 110 -0.04610679983154533
83 110 -0.022414395850111551
84 110 0.026354706269309476
90 110 -0.010328149779180633
96 110 0.01850133186816175
97 110 -0.017349762056324262
98 110 0.019720658892004334
99 110 -0.079223351386953286
100 110 0.23519089453447536
101 110 0.016222972042683879
102 110 -0.048286557153417731
103 110 0.127455776956857
104 110 -0.30896811805437141
105 110 0.092403204235163017
106 110 -0.27803132118379542
107 110 0.53736989926828216
108 110 0.38225625809379687
109 110 -0.91908052599363377
110 110 1.0000000201264574
111 111 30511.4912739721
112 111 -8507.2945589688643
113 111 -39789.591088572022
114 111 24186.07981747653
115 111 30243.060708724181
121 111 1186.0386369968428
122 111 7844.85217226243
123 111 -4768.4973450186499
124 111 -5962.680447021824
130 111 25944.550528187101
131 111 -22302.677366425385
132 111 -27888.001941523209
138 111 9586.046646786659
139 111 16951.734462892473
145 111 14988.541726325242
151 111 0.017918274257105311
152 111 2.0446815249804707e-05
153 111 -0.014384407196493813
154 111 -0.00022222614323586206
155 111 0.00068978428084037378
156 111 0.0038734811925579819
157 111 -0.00010088966399302909
158 111 -0.0068473114578267193
159 111 -0.00051032333537933555
160 111 0.0092030126998217162
161 111 -0.00038898685613650296
162 111 -0.0062714468583877766
163 111 0.009610210463130266
164 111 0.0010967728725458097
165 111 0.0085279404387601388
111 112 -8507.2945589688643
112 112 2372.2207396956987
113 112 11094.117755269857
114 112 -6743.913204498419
115 112 -8431.9291385375582
121 112 -330.71386973214419
122 112 -2187.4165093653223
123 112 1329.6959074772064
124 112 1662.5171059875813
130 112 -7233.7128543861809
131 112 6218.6608168848579
132 112 7775.1949764041965
138 112 -2672.9883620310056
139 112 -4726.372448052146
145 112 -4178.5747389853732
151 112 2.0446815249802874e-05
152 112 0.0075156342719523723
153 112 0.00031997669520498806
154 112 -0.01084020129526923
155 112 0.0011289187232198588
156 112 0.00012335225312545557
157 112 -0.0016622835116584305
158 112 0.0007244477092124233
159 112 -0.0060287844773513283
160 112 0.0004093564499235125
161 112 0.0031491333062594715
162 112 0.002727963576190076
163 112 0.0018260561056782562
164 112 0.0010860923662163614
165 112 0.0030723397651005492
111 113 -39789.591088572022
112 113 11094.117755269857
113 113 51889.342178370804
114 113 -31540.427806532294
115 113 -39440.29859967986
121 113 -1546.6178732531621
122 113 -10230.22349764761
123 113 6218.3847165038378
124 113 7775.8784235060684
130 113 -33834.234353465923
131 113 29084.49990684976
132 113 36369.235402470455
138 113 -12500.757017791593
139 113 -22106.67314237724
145 113 -19547.035369764726
151 113 -0.014384407196493811
152 113 -0.00060533575744940499
153 113 0.016555400494334644
154 113 0.0026884830967572495
155 113 -0.016271664824069242
156 113 -0.0013389856208453317
157 113 0.0010415736696539224
158 113 0.0001418678351327003
159 113 0.0073545258394620248
160 113 -0.01294510586739389
161 113 0.005707616412358698
162 113 -0.00023743294524556551
163 113 -0.013213312021308713
164 113 0.010148399332288137
165 113 -0.017216954939993721
111 114 24186.07981747653
112 114 -6743.913204498419
113 114 -31540.427806532294
114 114 19172.552760291008
115 114 23972.447658939025
121 114 940.21574836376851
122 114 6218.7127609151976
123 114 -3780.0969512012216
124 114 -4726.4434300639823
130 114 20565.560151433558
131 114 -17679.283580098294
132 114 -22105.316934636183
138 114 7599.1135669697269
139 114 13437.274656646776
145 114 11880.341401917873
151 114 -0.00022222614323586139
152 114 -0.01084020129526923
153 114 -0.0037887040718234993
154 114 0.012696968135047079
155 114 0.012284695521988041
156 114 -0.00145062224216567
157 114 0.000928383419888926
158 114 0.0042479957250822721
159 114 -0.011180907006116089
160 114 0.0042321826825869463
161 114 -0.022949491721274248
162 114 0.013770336646963888
163 114 0.010965494521219601
164 114 -0.029774195030468614
165 114 0.020550900874340569
111 115 30243.060708724181
112 115 -8431.9291385375582
113 115 -39440.29859967986
114 115 23972.447658939025
115 115 29979.573091042439
121 115 1175.4300717459371
122 115 7775.4891647116883
123 115 -4725.9358318125987
124 115 -5910.1161834172726
130 115 25717.323196703572
131 115 -22105.888943009479
132 115 -27645.180440692886
138 115 9501.0511973230023
139 115 16803.480937117634
145 115 14859.244030637225
151 115 0.0006897842808403715
152 115 -0.0025723310873977234
153 115 -0.016271664824069259
154 115 -0.0091825533795938767
155 115 0.00098188169998132506
156 115 -0.0054080101287268057
157 115 -0.0058774422334958009
158 115 -0.0076448915620439652
159 115 0.0080990693719353076
160 115 0.00069203974461006803
161 115 0.011404180518033385
162 115 -0.042043950273477119
163 115 -0.023631767936678486
164 115 0.033240487521745958
165 115 -0.038115657027729885
116 116 47879.904413148273
117 116 -9429.1077899119864
118 116 -44161.18869518672
119 116 26817.720918232393
120 116 33593.622167809466
125 116 -9439.9196160654992
126 116 1859.0266768273957
127 116 8706.7440201070003
128 116 -5287.3357383871271
129 116 -6623.2607763836904
133 116 -44151.429562193858
134 116 8694.8500320380881
135 116 40722.29541717525
136 116 -24729.387634591672
137 116 -30977.640015374145
140 116 26837.443401435579
141 116 -5285.1639897658979
142 116 -24753.044448889086
143 116 15031.756560920227
144 116 18829.756337822637
146 116 33558.40016459702
147 116 -6608.738598945487
148 116 -30952.000847571155
149 116 18796.190617068401
150 116 23545.331376561295
116 117 -9429.1077899119864
117 117 1857.1769368254338
118 117 8696.413731088187
119 117 -5281.7536009454061
120 117 -6614.598221313021
125 117 1859.0266768273952
126 117 -366.15781111746753
127 117 -1714.5699761877379
128 117 1041.3414570455686
129 117 1304.1228103333337
133 117 8694.8500320380863
134 117 -1712.5559817995572
135 117 -8019.2118801809147
136 117 4870.4560908223666
137 117 6099.5102440163591
140 117 -5285.163989765897
141 117 1040.9770349246151
142 117 4874.4773859544575
143 117 -2960.5063974768273
144 117 -3707.5868793710611
146 117 -6608.7385989454851
147 117 1301.6710786351307
148 117 6095.2028948624957
149 117 -3701.912171375553
150 117 -4636.085572006763
116 118 -44161.18869518672
117 118 8696.413731088187
118 118 40731.777258452923
119 118 -24734.236709188619
120 118 -30985.898139949117
125 118 8706.7440201070003
126 118 -1714.5699761877386
127 118 -8030.6071587246124
128 118 4876.5595746545505
129 118 6109.1263914970559
133 118 40722.29541717525
134 118 -8019.2118801809174
135 118 -37559.937026016654
136 118 22808.147243094969
137 118 28572.983089991842
140 118 -24753.044448889083
141 118 4874.4773859544594
142 118 22830.805119849418
143 118 -13863.93072201476
144 118 -17368.085792276412
146 118 -30952.000847571151
147 118 6095.2028948624984
148 118 28548.371125800077
149 118 -17335.903724672029
150 118 -21717.611636549798
116 119 26817.720918232393
117 119 -5281.7536009454061
118 119 -24734.236709188619
119 119 15021.548924100411
120 119 18814.022330275835
125 119 -5287.3357383871271
126 119 1041.3414570455691
127 119 4876.5595746545514
128 119 -2961.6227536443253
129 119 -3709.3402885720516
133 119 -24729.387634591672
134 119 4870.4560908223684
135 119 22808.147243094973
136 119 -13851.799985116606
137 119 -17348.948204429333
140 119 15031.756560920227
141 119 -2960.5063974768286
142 119 -13863.930722014762
143 119 8419.8156615724583
144 119 10545.556964467951
146 119 18796.190617068401
147 119 -3701.9121713755549
148 119 -17335.903724672033
149 119 10528.407607860121
150 119 13186.502726009971
116 120 33593.622167809466
117 120 -6614.598221313021
118 120 -30985.898139949117
119 120 18814.022330275835
120 120 23574.352986203372
125 120 -6623.2607763836932
126 120 1304.1228103333347
127 120 6109.1263914970559
128 120 -3709.340288572052
129 120 -4647.8788944573616
133 120 -30977.640015374152
134 120 6099.5102440163628
135 120 28572.983089991842
136 120 -17348.948204429336
137 120 -21738.585281277232
140 120 18829.75633782264
141 120 -3707.5868793710633
142 120 -17368.085792276412
143 120 10545.556964467953
144 120 13213.797557602096
146 120 23545.331376561302
147 120 -4636.0855720067648
148 120 -21717.611636549798
149 120 13186.502726009972
150 120 16522.956359854528
111 121 1186.0386369968428
112 121 -330.71386973214419
113 121 -1546.6178732531621
114 121 940.21574836376851
115 121 1175.4300717459371
121 121 46.124539650846536
122 121 304.97654888422358
123 121 -185.38932748959979
124 121 -231.77111931522882
130 121 1008.4428887682851
131 121 -866.95973898316981
132 121 -1083.8533257099996
138 121 372.68727929033048
139 121 658.91104597966921
145 121 582.48141675847057
151 121 0.0038734811925579845
152 121 -0.00020379510186868341
153 121 -0.0013389856208453328
154 121 0.00083940924279329822
155 121 -0.0054080101287267987
156 121 0.0014633376900734852
157 121 0.00031780707046230713
158 121 -0.0033734978747860661
159 121 0.002345055879057974
160 121 2.4720278904866105e-05
161 121 0.0018234537067269825
162 121 -0.0032196686520240048
163 121 0.00013349396546457576
164 121 0.0041363874292978907
165 121 -0.0018231425753463242
111 122 7844.85217226243
112 122 -2187.4165093653223
113 122 -10230.22349764761
114 122 6218.7127609151976
115 122 7775.4891647116883
121 122 304.97654888422358
122 122 2017.0860217048703
123 122 -1226.0935511845103
124 122 -1533.0279484367602
130 122 6670.4991824938406
131 122 -5734.3335565160996
132 122 -7169.8476974270498
138 122 2464.8296004000372
139 122 4358.4283020262392
145 122 3853.385254019634
151 122 -0.00010088966399302986
152 122 -0.0016622835116584295
153 122 -0.0017343636883092545
154 122 0.00092838341988892622
155 122 0.00670680712260395
156 122 -0.00066363499452010762
157 122 -0.000366950045884752
158 122 0.002486221717147347
159 122 -0.008604845741733709
160 122 0.0023207695662552288
161 122 -0.0099001792075073865
162 122 0.0082491501115769823
163 122 0.0063957753134489276
164 122 -0.014344051332126125
165 122 0.011811620319720559
111 123 -4768.4973450186499
112 123 1329.6959074772064
113 123 6218.3847165038378
114 123 -3780.0969512012216
115 123 -4725.9358318125987
121 123 -185.38932748959979
122 123 -1226.0935511845103
123 123 745.41820275718612
124 123 931.95993708848493
130 123 -4054.5065048539609
131 123 3485.7607007665174
132 123 4358.0017996064716
138 123 -1498.2648311975595
139 123 -2649.0350330396013
145 123 -2341.8498811637546
151 123 -0.0068473114578267193
152 123 -0.0015888334224235651
153 123 0.0001418678351326926
154 123 -0.0032470351414183138
155 123 -0.0076448915620439548
156 123 -0.0033734978747860691
157 123 -0.0024179342819209393
158 123 -0.003751511863455632
159 123 0.0077267976056986654
160 123 -0.0061265330613919098
161 123 0.0085558984651960407
162 123 -0.021140691609361339
163 123 -0.0184225399789936
164 123 0.021694443427017041
165 123 -0.027666305983861803
111 124 -5962.680447021824
112 124 1662.5171059875813
113 124 7775.8784235060684
114 124 -4726.4434300639823
115 124 -5910.1161834172726
121 124 -231.77111931522882
122 124 -1533.0279484367602
123 124 931.95993708848493
124 124 1165.4461580772265
130 124 -5070.1528844913446
131 124 4358.6209701065618
132 124 5450.2985150805616
138 124 -1873.1596903951754
139 124 -3312.465470078319
145 124 -2928.8720823990852
151 124 -0.00051032333537933501
152 124 -0.006028784477351337
153 124 -0.0065251609503538593
154 124 -0.01118090700611615
155 124 -0.0068116798651240073
156 124 -0.0025621544458541024
157 124 -0.008604845741733742
158 124 -0.0066684204077389316
159 124 -0.017942362544202912
160 124 -0.0026634541796401938
161 124 -0.015366301279820502
162 124 0.016796684895015845
163 124 0.013928880901194122
164 124 -0.046438637212159538
165 124 0.034533798008385463
116 125 -9439.9196160654992
117 125 1859.0266768273952
118 125 8706.7440201070003
119 125 -5287.3357383871271
120 125 -6623.2607763836932
125 125 1861.3830875099952
126 125 -366.56676711368516
127 125 -1716.8139905253029
128 125 1042.5679160090774
129 125 1305.9884082423339
133 125 8704.5389622360344
134 125 -1714.2063490393141
135 125 -8028.4785930015205
136 125 4875.4461704194291
137 125 6107.3011031751457
140 125 -5291.6019747401087
141 125 1042.0882416681518
142 125 4880.6161200721781
143 125 -2963.8468728851881
144 125 -3712.7074412672059
146 125 -6615.4179694950217
147 125 1302.7905939712227
148 125 6101.6145464187739
149 125 -3705.3213668209205
150 125 -4641.5266378086289
116 126 1859.0266768273957
117 126 -366.15781111746753
118 126 -1714.5699761877386
119 126 1041.3414570455691
120 126 1304.1228103333347
125 126 -366.56676711368516
126 126 72.199762784495775
127 126 338.08249284186132
128 126 -205.33388580635739
129 126 -257.14966248840381
133 126 -1714.2063490393136
134 126 337.63369422921835
135 126 1581.0029924202609
136 126 -960.21975339899973
137 126 -1202.5301354015783
140 126 1042.0882416681513
141 126 -205.25189569180577
142 126 -961.11219595391344
143 126 583.73002468190077
144 126 731.03364426102416
146 126 1302.7905939712223
147 126 -256.60038028449372
148 126 -1201.5565271472658
149 126 729.76352209560855
150 126 913.91853159691391
116 127 8706.7440201070003
117 127 -1714.5699761877379
118 127 -8030.6071587246124
119 127 4876.5595746545514
120 127 6109.1263914970559
125 127 -1716.8139905253029
126 127 338.08249284186132
127 127 1583.4919104871185
128 127 -961.57021316611122
129 127 -1204.6103152439539
133 127 -8028.4785930015196
134 127 1581.0029924202615
135 127 7405.0135749635801
136 127 -4496.6699448377158
137 127 -5633.2183813843167
140 127 4880.6161200721772
141 127 -961.11219595391378
142 127 -4501.6036606020143
143 127 2733.5838995136587
144 127 3424.5064144578446
146 127 6101.6145464187739
147 127 -1201.5565271472665
148 127 -5627.7833990629551
149 127 3417.4528122654378
150 127 4281.2254925821489
116 128 -5287.3357383871271
117 128 1041.3414570455686
118 128 4876.5595746545505
119 128 -2961.6227536443253
120 128 -3709.340288572052
125 128 1042.5679160090774
126 128 -205.33388580635739
127 128 -961.57021316611122
128 128 583.97896692300208
129 128 731.41547383649856
133 128 4875.4461704194291
134 128 -960.21975339900018
135 128 -4496.6699448377167
136 128 2730.9089164984398
137 128 3420.3783908410824
140 128 -2963.8468728851881
141 128 583.73002468190111
142 128 2733.5838995136592
143 128 -1660.1549005722818
144 128 -2079.2923239077213
146 128 -3705.3213668209205
147 128 729.76352209560889
148 128 3417.4528122654388
149 128 -2075.4808494322729
150 128 -2599.4751436473607
116 129 -6623.2607763836904
117 129 1304.1228103333337
118 129 6109.1263914970559
119 129 -3709.3402885720516
120 129 -4647.8788944573616
125 129 1305.9884082423339
126 129 -257.14966248840381
127 129 -1204.6103152439539
128 129 731.41547383649856
129 129 916.47847850522601
133 129 6107.3011031751475
134 129 -1202.5301354015789
135 129 -5633.2183813843167
136 129 3420.3783908410828
137 129 4285.8037540600535
140 129 -3712.7074412672073
141 129 731.03364426102462
142 129 3424.5064144578446
143 129 -2079.2923239077213
144 129 -2605.3956110395761
146 129 -4641.5266378086299
147 129 913.91853159691448
148 129 4281.2254925821489
149 129 -2599.4751436473607
150 129 -3257.1952737925249
111 130 25944.550528187101
112 130 -7233.7128543861809
113 130 -33834.234353465923
114 130 20565.560151433558
115 130 25717.323196703572
121 130 1008.4428887682851
122 130 6670.4991824938406
123 130 -4054.5065048539609
124 130 -5070.1528844913446
130 130 22061.619376927629
131 130 -18964.196224355317
132 130 -23714.778587670451
138 130 8150.9307817715089
139 130 14414.741081031292
145 130 12746.084868455206
151 130 0.0092030126998217127
152 130 -0.00089923297005304508
153 130 -0.012945105867393896
154 130 -0.0033576359532770709
155 130 0.00069203974461007171
156 130 2.4720278904861992e-05
157 130 -0.002128434461665058
158 130 -0.0061265330613919132
159 130 0.0026082917694081964
160 130 0.0048461793480430518
161 130 0.0038374932610202089
162 130 -0.018000504602316721
163 130 -0.0035499864481609569
164 130 0.012300673504559595
165 130 -0.0092119495574641726
111 131 -22302.677366425385
112 131 6218.6608168848579
113 131 29084.49990684976
114 131 -17679.283580098294
115 131 -22105.888943009479
121 131 -866.95973898316981
122 131 -5734.3335565160996
123 131 3485.7607007665174
124 131 4358.6209701065618
130 131 -18964.196224355317
131 131 16302.661416979008
132 131 20384.689879117555
138 131 -7007.0377554640954
139 131 -12390.630188561621
145 131 -10955.25752074883
151 131 -0.00038898685613650259
152 131 0.0031491333062594632
153 131 -0.0044708205668396138
154 131 -0.02294949172127431
155 131 -0.012389568264508103
156 131 -0.0017751671982085388
157 131 -0.0099001792075074212
158 131 -0.0084301944156738549
159 131 -0.01536630127982053
160 131 -0.0045748672959719126
161 131 -0.0023169887660536436
162 131 0.011275498359628941
163 131 0.0093591616934234536
164 131 -0.031008493513817049
165 131 0.025794517453765455
111 132 -27888.001941523209
112 132 7775.1949764041965
113 132 36369.235402470455
114 132 -22105.316934636183
115 132 -27645.180440692886
121 132 -1083.8533257099996
122 132 -7169.8476974270498
123 132 4358.0017996064716
124 132 5450.2985150805616
130 132 -23714.778587670451
131 132 20384.689879117555
132 132 25493.560112129104
138 132 -8760.637835615913
139 132 -15494.313831914484
145 132 -13701.88597143566
151 132 -0.0062714468583877766
152 132 -0.0018985986870818621
153 132 -0.00023743294524566048
154 132 -0.014755724393438559
155 132 -0.0420439502734773
156 132 -0.0032196686520240382
157 132 -0.0083271615402602094
158 132 -0.021140691609361478
159 132 -0.017580875845981982
160 132 -0.018000504602316787
161 132 -0.011152312992803622
162 132 -0.013750069808620423
163 132 -0.012774545809827648
164 132 0.027442539266716082
165 132 -0.046727787164332929
116 133 -44151.429562193858
117 133 8694.8500320380863
118 133 40722.29541717525
119 133 -24729.387634591672
120 133 -30977.640015374152
125 133 8704.5389622360344
126 133 -1714.2063490393136
127 133 -8028.4785930015196
128 133 4875.4461704194291
129 133 6107.3011031751475
133 133 40713.668812461154
134 133 -8017.8433198803887
135 133 -37551.537183242363
136 133 22803.884451157945
137 133 28565.629441305926
140 133 -24747.082912083544
141 133 4873.5041375699238
142 133 22825.037174382283
143 133 -13860.937510442973
144 133 -17363.112213643319
146 133 -30946.295097339767
147 133 6094.3302988532887
148 133 28542.771627490951
149 133 -17333.140396701401
150 133 -21712.619474405408
116 134 8694.8500320380881
117 134 -1712.5559817995572
118 134 -8019.2118801809174
119 134 4870.4560908223684
120 134 6099.5102440163628
125 134 -1714.2063490393141
126 134 337.63369422921835
127 134 1581.0029924202615
128 134 -960.21975339900018
129 134 -1202.5301354015789
133 134 -8017.8433198803887
134 134 1579.2113133646144
135 134 7394.8123506786596
136 134 -4491.2279899803334
137 134 -5624.584355604482
140 134 4873.5041375699229
141 134 -959.89564309528566
142 134 -4494.8057912565018
143 134 2729.9134341609379
144 134 3418.8040393833035
146 134 6094.3302988532869
147 134 -1200.3521360237951
148 134 -5620.7669774903725
149 134 3413.7642413799904
150 134 4275.2238337987328
116 135 40722.29541717525
117 135 -8019.2118801809147
118 135 -37559.937026016654
119 135 22808.147243094973
120 135 28572.983089991842
125 135 -8028.4785930015205
126 135 1581.0029924202609
127 135 7405.0135749635801
128 135 -4496.6699448377167
129 135 -5633.2183813843167
133 135 -37551.537183242363
134 135 7394.8123506786596
135 135 34635.409359509802
136 135 -21032.237512787986
137 135 -26348.206208617772
140 135 22825.03717438228
141 135 -4494.8057912565037
142 135 -21052.520495313369
143 135 12784.073279004251
144 135 16015.290752421424
146 135 28542.771627490947
147 135 -5620.7669774903743
148 135 -26326.234655828743
149 135 15986.518719946089
150 135 20027.165038192477
116 136 -24729.387634591672
117 136 4870.4560908223666
118 136 22808.147243094969
119 136 -13851.799985116606
120 136 -17348.948204429336
125 136 4875.4461704194291
126 136 -960.21975339899973
127 136 -4496.6699448377158
128 136 2730.9089164984398
129 136 3420.3783908410828
133 136 22803.884451157945
134 136 -4491.2279899803334
135 136 -21032.237512787986
136 136 12773.257913565631
137 136 15998.107840306135
140 136 -13860.937510442973
141 136 2729.9134341609392
142 136 12784.073279004253
143 136 -7763.9987224061497
144 136 -9724.1666670763661
146 136 -17333.140396701401
147 136 3413.7642413799917
148 136 15986.518719946092
149 136 -9708.9017098508884
150 136 -12160.09710413679
116 137 -30977.640015374145
117 137 6099.5102440163591
118 137 28572.983089991842
119 137 -17348.948204429333
120 137 -21738.585281277232
125 137 6107.3011031751457
126 137 -1202.5301354015783
127 137 -5633.2183813843167
128 137 3420.3783908410824
129 137 4285.8037540600535
133 137 28565.629441305926
134 137 -5624.584355604482
135 137 -26348.206208617772
136 137 15998.107840306135
137 137 20045.954805306032
140 137 -17363.112213643326
141 137 3418.8040393833057
142 137 16015.290752421424
143 137 -9724.166667076368
144 137 -12184.578793521525
146 137 -21712.619474405416
147 137 4275.2238337987355
148 137 20027.165038192477
149 137 -12160.097104136792
150 137 -15236.849220600061
111 138 9586.046646786659
112 138 -2672.9883620310056
113 138 -12500.757017791593
114 138 7599.1135669697269
115 138 9501.0511973230023
121 138 372.68727929033048
122 138 2464.8296004000372
123 138 -1498.2648311975595
124 138 -1873.1596903951754
130 138 8150.9307817715089
131 138 -7007.0377554640954
132 138 -8760.637835615913
138 138 3012.1858882159227
139 138 5326.0575007672869
145 138 4708.6752466489252
151 138 0.009610210463130266
152 138 -0.0011182700892689735
153 138 -0.013213312021308779
154 138 -0.011495508165949318
155 138 -0.023631767936678618
156 138 0.00013349396546454988
157 138 -0.0063068891276091476
158 138 -0.018422539978993697
159 138 -0.015286935744329955
160 138 -0.0035499864481610046
161 138 -0.010098316705989777
162 138 -0.012774545809827682
163 138 0.00044374852895836967
164 138 0.016365191051720959
165 138 -0.022690452159635079
111 139 16951.734462892473
112 139 -4726.372448052146
113 139 -22106.67314237724
114 139 13437.274656646776
115 139 16803.480937117634
121 139 658.91104597966921
122 139 4358.4283020262392
123 139 -2649.0350330396013
124 139 -3312.465470078319
130 139 14414.741081031292
131 139 -12390.630188561621
132 139 -15494.313831914484
138 139 5326.0575007672869
139 139 9419.2243243721277
145 139 8328.946000090642
151 139 0.0010967728725458088
152 139 0.0010860923662162983
153 139 -0.011133787078762699
154 139 -0.029774195030468981
155 139 -0.036096258930489393
156 139 -0.0033880017355672276
157 139 -0.014344051332126342
158 139 -0.023615023004626045
159 139 -0.046438637212160044
160 139 -0.012213568296334354
161 139 -0.03100849351381741
162 139 -0.025849850051918085
163 139 -0.013793829656253666
164 139 -0.018914549357919221
165 139 0.027118139865290318
116 140 26837.443401435579
117 140 -5285.163989765897
118 140 -24753.044448889083
119 140 15031.756560920227
120 140 18829.75633782264
125 140 -5291.6019747401087
126 140 1042.0882416681513
127 140 4880.6161200721772
128 140 -2963.8468728851881
129 140 -3712.7074412672073
133 140 -24747.082912083544
134 140 4873.5041375699229
135 140 22825.03717438228
136 140 -13860.937510442973
137 140 -17363.112213643326
140 140 15043.487253931711
141 140 -2962.5510867671856
142 140 -13875.096189040105
143 140 8425.9157940615787
144 140 10554.850371757086
146 140 18808.475561214644
147 140 -3703.999529746794
148 140 -17347.667012040583
149 140 10534.700406785863
150 140 13196.451189706806
116 141 -5285.1639897658979
117 141 1040.9770349246151
118 141 4874.4773859544594
119 141 -2960.5063974768286
120 141 -3707.5868793710633
125 141 1042.0882416681518
126 141 -205.25189569180577
127 141 -961.11219595391378
128 141 583.73002468190111
129 141 731.03364426102462
133 141 4873.5041375699238
134 141 -959.89564309528566
135 141 -4494.8057912565037
136 141 2729.9134341609392
137 141 3418.8040393833057
140 141 -2962.5510867671856
141 141 583.51030395530881
142 141 2732.3444088290425
143 141 -1659.4852046614865
144 141 -2078.254442063399
146 141 -3703.9995297467931
147 141 729.54755146751359
148 141 3416.1781886613558
149 141 -2074.8106066907981
150 141 -2598.386745288878
116 142 -24753.044448889086
117 142 4874.4773859544575
118 142 22830.805119849418
119 142 -13863.930722014762
120 142 -17368.085792276412
125 142 4880.6161200721781
126 142 -961.11219595391344
127 142 -4501.6036606020143
128 142 2733.5838995136592
129 142 3424.5064144578446
133 142 22825.037174382283
134 142 -4494.8057912565018
135 142 -21052.520495313369
136 142 12784.073279004253
137 142 16015.290752421424
140 142 -13875.096189040105
141 142 2732.3444088290425
142 142 12797.602241019964
143 142 -7771.3015351845443
144 142 -9735.5241083547353
146 142 -17347.66701204058
147 142 3416.1781886613576
148 142 16000.504732003346
149 142 -9716.2534548070653
150 142 -12172.069160344694
116 143 15031.756560920227
117 143 -2960.5063974768273
118 143 -13863.93072201476
119 143 8419.8156615724583
120 143 10545.556964467953
125 143 -2963.8468728851881
126 143 583.73002468190077
127 143 2733.5838995136587
128 143 -1660.1549005722818
129 143 -2079.2923239077213
133 143 -13860.937510442973
134 143 2729.9134341609379
135 143 12784.073279004251
136 143 -7763.9987224061497
137 143 -9724.166667076368
140 143 8425.9157940615787
141 143 -1659.4852046614865
142 143 -7771.3015351845443
143 143 4719.6518569487343
144 143 5911.2170040789242
146 143 10534.700406785863
147 143 -2074.8106066907994
148 143 -9716.2534548070671
149 143 5900.8563048202559
150 143 7390.6387981420949
116 144 18829.756337822637
117 144 -3707.5868793710611
118 144 -17368.085792276412
119 144 10545.556964467951
120 144 13213.797557602096
125 144 -3712.7074412672059
126 144 731.03364426102416
127 144 3424.5064144578446
128 144 -2079.2923239077213
129 144 -2605.3956110395761
133 144 -17363.112213643319
134 144 3418.8040393833035
135 144 16015.290752421424
136 144 -9724.1666670763661
137 144 -12184.578793521525
140 144 10554.850371757086
141 144 -2078.254442063399
142 144 -9735.5241083547353
143 144 5911.2170040789242
144 144 7406.8752436830218
146 144 13196.45118970681
147 144 -2598.3867452888794
148 144 -12172.069160344694
149 144 7390.6387981420958
150 144 9260.6208689648302
111 145 14988.541726325242
112 145 -4178.5747389853732
113 145 -19547.035369764726
114 145 11880.341401917873
115 145 14859.244030637225
121 145 582.48141675847057
122 145 3853.385254019634
123 145 -2341.8498811637546
124 145 -2928.8720823990852
130 145 12746.084868455206
131 145 -10955.25752074883
132 145 -13701.88597143566
138 145 4708.6752466489252
139 145 8328.946000090642
145 145 7366.3080544154082
151 145 0.0085279404387601388
152 145 -0.002162017914805595
153 145 -0.017216954939993982
154 145 -0.02257023620298157
155 145 -0.038115657027730586
156 145 -0.001823142575346417
157 145 -0.012366127058893584
158 145 -0.027666305983862279
159 145 -0.03487242525374698
160 145 -0.0092119495574644206
161 145 -0.024668316109658996
162 145 -0.046727787164333554
163 145 -0.022690452159635416
164 145 -0.026628586428385233
165 145 -0.010347761702331232
116 146 33558.40016459702
117 146 -6608.7385989454851
118 146 -30952.000847571151
119 146 18796.190617068401
120 146 23545.331376561302
125 146 -6615.4179694950217
126 146 1302.7905939712223
127 146 6101.6145464187739
128 146 -3705.3213668209205
129 146 -4641.5266378086299
133 146 -30946.295097339767
134 146 6094.3302988532869
135 146 28542.771627490947
136 146 -17333.140396701401
137 146 -21712.619474405416
140 146 18808.475561214644
141 146 -3703.9995297467931
142 146 -17347.66701204058
143 146 10534.700406785863
144 146 13196.45118970681
146 146 23524.331205108116
147 146 -4632.7046249832683
148 146 -21697.253618399878
149 146 13176.069517661695
150 146 16505.20200365681
116 147 -6608.738598945487
117 147 1301.6710786351307
118 147 6095.2028948624984
119 147 -3701.9121713755549
120 147 -4636.0855720067648
125 147 1302.7905939712227
126 147 -256.60038028449372
127 147 -1201.5565271472665
128 147 729.76352209560889
129 147 913.91853159691448
133 147 6094.3302988532887
134 147 -1200.3521360237951
135 147 -5620.7669774903743
136 147 3413.7642413799917
137 147 4275.2238337987355
140 147 -3703.999529746794
141 147 729.54755146751359
142 147 3416.1781886613576
143 147 -2074.8106066907994
144 147 -2598.3867452888794
146 147 -4632.7046249832683
147 147 912.46726374834668
148 147 4272.7177385630785
149 147 -2595.0285944657985
150 147 -3249.8811610858643
116 148 -30952.000847571155
117 148 6095.2028948624957
118 148 28548.371125800077
119 148 -17335.903724672033
120 148 -21717.611636549798
125 148 6101.6145464187739
126 148 -1201.5565271472658
127 148 -5627.7833990629551
128 148 3417.4528122654388
129 148 4281.2254925821489
133 148 28542.771627490951
134 148 -5620.7669774903725
135 148 -26326.234655828743
136 148 15986.518719946092
137 148 20027.165038192477
140 148 -17347.667012040583
141 148 3416.1781886613558
142 148 16000.504732003346
143 148 -9716.2534548070671
144 148 -12172.069160344694
146 148 -21697.253618399878
147 148 4272.7177385630785
148 148 20012.316869567814
149 148 -12152.413075676446
150 148 -15223.976310439723
116 149 18796.190617068401
117 149 -3701.912171375553
118 149 -17335.903724672029
119 149 10528.407607860121
120 149 13186.502726009972
125 149 -3705.3213668209205
126 149 729.76352209560855
127 149 3417.4528122654378
128 149 -2075.4808494322729
129 149 -2599.4751436473607
133 149 -17333.140396701401
134 149 3413.7642413799904
135 149 15986.518719946089
136 149 -9708.9017098508884
137 149 -12160.097104136792
140 149 10534.700406785863
141 149 -2074.8106066907981
142 149 -9716.2534548070653
143 149 5900.8563048202559
144 149 7390.6387981420958
146 149 13176.069517661695
147 149 -2595.0285944657985
148 149 -12152.413075676446
149 149 7380.3800662403646
150 149 9243.6962442255553
116 150 23545.331376561295
117 150 -4636.085572006763
118 150 -21717.611636549798
119 150 13186.502726009971
120 150 16522.956359854528
125 150 -4641.5266378086289
126 150 913.91853159691391
127 150 4281.2254925821489
128 150 -2599.4751436473607
129 150 -3257.1952737925249
133 150 -21712.619474405408
134 150 4275.2238337987328
135 150 20027.165038192477
136 150 -12160.09710413679
137 150 -15236.849220600061
140 150 13196.451189706806
141 150 -2598.386745288878
142 150 -12172.069160344694
143 150 7390.6387981420949
144 150 9260.6208689648302
146 150 16505.20200365681
147 150 -3249.8811610858643
148 150 -15223.976310439723
149 150 9243.6962442255553
150 150 11582.539572516403
111 151 0.017918274257105311
112 151 2.0446815249802874e-05
113 151 -0.014384407196493811
114 151 -0.00022222614323586139
115 151 0.0006897842808403715
121 151 0.0038734811925579845
122 151 -0.00010088966399302986
123 151 -0.0068473114578267193
124 151 -0.00051032333537933501
130 151 0.0092030126998217127
131 151 -0.00038898685613650259
132 151 -0.0062714468583877766
138 151 0.009610210463130266
139 151 0.0010967728725458088
145 151 0.0085279404387601388
151 151 75135.27515328431
152 151 -20925.53656732805
153 151 -98004.5321665378
154 151 59515.12436830948
155 151 74552.491728895911
156 151 2913.9419971832226
157 151 19300.265135587975
158 151 -11720.464845017337
159 151 -14681.798459188389
160 151 63917.345207074723
161 151 -54892.729209767589
162 151 -68762.194677990919
163 151 23571.171139657294
164 151 41757.135122764317
165 151 36987.158260209602
111 152 2.0446815249804707e-05
112 152 0.0075156342719523723
113 152 -0.00060533575744940499
114 152 -0.01084020129526923
115 152 -0.0025723310873977234
121 152 -0.00020379510186868341
122 152 -0.0016622835116584295
123 152 -0.0015888334224235651
124 152 -0.006028784477351337
130 152 -0.00089923297005304508
131 152 0.0031491333062594632
132 152 -0.0018985986870818621
138 152 -0.0011182700892689735
139 152 0.0010860923662162983
145 152 -0.002162017914805595
151 152 -20925.53656732805
152 152 5828.3227659224895
153 152 27294.13416037161
154 152 -16575.982391616915
155 152 -20761.510694136337
156 152 -811.68272589742742
157 152 -5375.4950296488969
158 152 3264.5927416430045
159 152 4088.9174897956373
160 152 -17800.545813947516
161 152 15288.257045120732
162 152 19148.627845246854
163 152 -6565.2756283689714
164 152 -11629.115658475563
165 152 -10299.425738999151
111 153 -0.014384407196493813
112 153 0.00031997669520498806
113 153 0.016555400494334644
114 153 -0.0037887040718234993
115 153 -0.016271664824069259
121 153 -0.0013389856208453328
122 153 -0.0017343636883092545
123 153 0.0001418678351326926
124 153 -0.0065251609503538593
130 153 -0.012945105867393896
131 153 -0.0044708205668396138
132 153 -0.00023743294524566048
138 153 -0.013213312021308779
139 153 -0.011133787078762699
145 153 -0.017216954939993982
151 153 -98004.5321665378
152 153 27294.13416037161
153 153 127835.44841379853
154 153 -77629.081681530384
155 153 -97246.627527504446
156 153 -3800.6838871756599
157 153 -25174.44352519036
158 153 15287.388503684233
159 153 19150.609333217821
160 153 -83373.152367500166
161 153 71600.209437913596
162 153 89694.282660874393
163 153 -30744.852918114113
164 153 -54467.564087499253
165 153 -48247.284552044584
111 154 -0.00022222614323586206
112 154 -0.01084020129526923
113 154 0.0026884830967572495
114 154 0.012696968135047079
115 154 -0.0091825533795938767
121 154 0.00083940924279329822
122 154 0.00092838341988892622
123 154 -0.0032470351414183138
124 154 -0.01118090700611615
130 154 -0.0033576359532770709
131 154 -0.02294949172127431
132 154 -0.014755724393438559
138 154 -0.011495508165949318
139 154 -0.029774195030468981
145 154 -0.02257023620298157
151 154 59515.12436830948
152 154 -16575.982391616915
153 154 -77629.081681530384
154 154 47143.687610123641
155 154 59050.475961389384
156 154 2308.3435105454887
157 154 15288.394506687138
158 154 -9284.5742673528548
159 154 -11629.419347007184
160 154 50628.052048057165
161 154 -43481.515419170872
162 154 -54463.626515934193
163 154 18671.872286348491
164 154 33075.448628464714
165 154 29294.726639043274
111 155 0.00068978428084037378
112 155 0.0011289187232198588
113 155 -0.016271664824069242
114 155 0.012284695521988041
115 155 0.00098188169998132506
121 155 -0.0054080101287267987
122 155 0.00670680712260395
123 155 -0.0076448915620439548
124 155 -0.0068116798651240073
130 155 0.00069203974461007171
131 155 -0.012389568264508103
132 155 -0.0420439502734773
138 155 -0.023631767936678618
139 155 -0.036096258930489393
145 155 -0.038115657027730586
151 155 74552.491728895911
152 155 -20761.510694136337
153 155 -97246.627527504446
154 155 59050.475961389384
155 155 73981.218916431782
156 155 2890.8521887827901
157 155 19149.432049754807
158 155 -11627.933581130928
159 155 -14568.250069455147
160 155 63424.54181427919
161 155 -54465.598618982905
162 155 -68236.4857885073
163 155 23386.107449658575
164 155 41434.737766560116
165 155 36707.219173504338
111 156 0.0038734811925579819
112 156 0.00012335225312545557
113 156 -0.0013389856208453317
114 156 -0.00145062224216567
115 156 -0.0054080101287268057
121 156 0.0014633376900734852
122 156 -0.00066363499452010762
123 156 -0.0033734978747860691
124 156 -0.0025621544458541024
130 156 2.4720278904861992e-05
131 156 -0.0017751671982085388
132 156 -0.0032196686520240382
138 156 0.00013349396546454988
139 156 -0.0033880017355672276
145 156 -0.001823142575346417
151 156 2913.9419971832226
152 156 -811.68272589742742
153 156 -3800.6838871756599
154 156 2308.3435105454887
155 156 2890.8521887827901
156 156 113.05525830219803
157 156 748.58197055754465
158 156 -454.65255906641403
159 156 -569.38965062792988
160 156 2478.6710788895502
161 156 -2128.9838786217756
162 156 -2666.2113885294248
163 156 914.32012402500516
164 156 1619.3097165473755
165 156 1433.9972699641498
111 157 -0.00010088966399302909
112 157 -0.0016622835116584305
113 157 0.0010415736696539224
114 157 0.000928383419888926
115 157 -0.0058774422334958009
121 157 0.00031780707046230713
122 157 -0.000366950045884752
123 157 -0.0024179342819209393
124 157 -0.008604845741733742
130 157 -0.002128434461665058
131 157 -0.0099001792075074212
132 157 -0.0083271615402602094
138 157 -0.0063068891276091476
139 157 -0.014344051332126342
145 157 -0.012366127058893584
151 157 19300.265135587975
152 157 -5375.4950296488969
153 157 -25174.44352519036
154 157 15288.394506687138
155 157 19149.432049754807
156 157 748.58197055754465
157 157 4957.9527866147746
158 157 -3010.9644270004437
159 157 -3771.3249014075946
160 157 16418.189932114914
161 157 -14100.724928109661
162 157 -17661.947293721321
163 157 6055.1795660044891
164 157 10726.084721066958
165 157 9499.8680607715141
111 158 -0.0068473114578267193
112 158 0.0007244477092124233
113 158 0.0001418678351327003
114 158 0.0042479957250822721
115 158 -0.0076448915620439652
121 158 -0.0033734978747860661
122 158 0.002486221717147347
123 158 -0.003751511863455632
124 158 -0.0066684204077389316
130 158 -0.0061265330613919132
131 158 -0.0084301944156738549
132 158 -0.021140691609361478
138 158 -0.018422539978993697
139 158 -0.023615023004626045
145 158 -0.027666305983862279
151 158 -11720.464845017337
152 158 3264.5927416430045
153 158 15287.388503684233
154 158 -9284.5742673528548
155 158 -11627.933581130928
156 158 -454.65255906641403
157 158 -3010.9644270004437
158 158 1828.7000401120581
159 158 2290.1195523694992
160 158 -9969.8719847959765
161 158 8563.0697157281083
162 158 10724.655696409058
163 158 -3677.3700152231618
164 158 -6513.5107662460687
165 158 -5768.0338278823074
111 159 -0.00051032333537933555
112 159 -0.0060287844773513283
113 159 0.0073545258394620248
114 159 -0.011180907006116089
115 159 0.0080990693719353076
121 159 0.002345055879057974
122 159 -0.008604845741733709
123 159 0.0077267976056986654
124 159 -0.017942362544202912
130 159 0.0026082917694081964
131 159 -0.01536630127982053
132 159 -0.017580875845981982
138 159 -0.015286935744329955
139 159 -0.046438637212160044
145 159 -0.03487242525374698
151 159 -14681.798459188389
152 159 4088.9174897956373
153 159 19150.609333217821
154 159 -11629.419347007184
155 159 -14568.250069455147
156 159 -569.38965062792988
157 159 -3771.3249014075946
158 159 2290.1195523694992
159 159 2869.102999665789
160 159 -12489.879757399474
161 159 10726.43201910431
162 159 13436.401765825023
163 159 -4606.0345783798102
164 159 -8159.2698906209134
165 159 -7227.9272031838946
111 160 0.0092030126998217162
112 160 0.0004093564499235125
113 160 -0.01294510586739389
114 160 0.0042321826825869463
115 160 0.00069203974461006803
121 160 2.4720278904866105e-05
122 160 0.0023207695662552288
123 160 -0.0061265330613919098
124 160 -0.0026634541796401938
130 160 0.0048461793480430518
131 160 -0.0045748672959719126
132 160 -0.018000504602316787
138 160 -0.0035499864481610046
139 160 -0.012213568296334354
145 160 -0.0092119495574644206
151 160 63917.345207074723
152 160 -17800.545813947516
153 160 -83373.152367500166
154 160 50628.052048057165
155 160 63424.54181427919
156 160 2478.6710788895502
157 160 16418.189932114914
158 160 -9969.8719847959765
159 160 -12489.879757399474
160 160 54375.598946561666
161 160 -46696.512314676562
162 160 -58499.087038706457
163 160 20050.964810393652
164 160 35523.322386542066
165 160 31467.811339435073
111 161 -0.00038898685613650296
112 161 0.0031491333062594715
113 161 0.005707616412358698
114 161 -0.022949491721274248
115 161 0.011404180518033385
121 161 0.0018234537067269825
122 161 -0.0099001792075073865
123 161 0.0085558984651960407
124 161 -0.015366301279820502
130 161 0.0038374932610202089
131 161 -0.0023169887660536436
132 161 -0.011152312992803622
138 161 -0.010098316705989777
139 161 -0.03100849351381741
145 161 -0.024668316109658996
151 161 -54892.729209767589
152 161 15288.257045120732
153 161 71600.209437913596
154 161 -43481.515419170872
155 161 -54465.598618982905
156 161 -2128.9838786217756
157 161 -14100.724928109661
158 161 8563.0697157281083
159 161 10726.43201910431
160 161 -46696.512314676562
161 161 40104.322040666309
162 161 50234.73309763681
163 161 -17221.427342649156
164 161 -30506.504181538909
165 161 -27021.052991166613
111 162 -0.0062714468583877766
112 162 0.002727963576190076
113 162 -0.00023743294524556551
114 162 0.013770336646963888
115 162 -0.042043950273477119
121 162 -0.0032196686520240048
122 162 0.0082491501115769823
123 162 -0.021140691609361339
124 162 0.016796684895015845
130 162 -0.018000504602316721
131 162 0.011275498359628941
132 162 -0.013750069808620423
138 162 -0.012774545809827682
139 162 -0.025849850051918085
145 162 -0.046727787164333554
151 162 -68762.194677990919
152 162 19148.627845246854
153 162 89694.282660874393
154 162 -54463.626515934193
155 162 -68236.4857885073
156 162 -2666.2113885294248
157 162 -17661.947293721321
158 162 10724.655696409058
159 162 13436.401765825023
160 162 -58499.087038706457
161 162 50234.73309763681
162 162 62939.091352260555
163 162 -21568.84819094741
164 162 -38217.781689608702
165 162 -33857.051702478282
111 163 0.009610210463130266
112 163 0.0018260561056782562
113 163 -0.013213312021308713
114 163 0.010965494521219601
115 163 -0.023631767936678486
121 163 0.00013349396546457576
122 163 0.0063957753134489276
123 163 -0.0184225399789936
124 163 0.013928880901194122
130 163 -0.0035499864481609569
131 163 0.0093591616934234536
132 163 -0.012774545809827648
138 163 0.00044374852895836967
139 163 -0.013793829656253666
145 163 -0.022690452159635416
151 163 23571.171139657294
152 163 -6565.2756283689714
153 163 -30744.852918114113
154 163 18671.872286348491
155 163 23386.107449658575
156 163 914.32012402500516
157 163 6055.1795660044891
158 163 -3677.3700152231618
159 163 -4606.0345783798102
160 163 20050.964810393652
161 163 -17221.427342649156
162 163 -21568.84819094741
163 163 7395.6768120404813
164 163 13098.92006864794
165 163 11601.512532909672
111 164 0.0010967728725458097
112 164 0.0010860923662163614
113 164 0.010148399332288137
114 164 -0.029774195030468614
115 164 0.033240487521745958
121 164 0.0041363874292978907
122 164 -0.014344051332126125
123 164 0.021694443427017041
124 164 -0.046438637212159538
130 164 0.012300673504559595
131 164 -0.031008493513817049
132 164 0.027442539266716082
138 164 0.016365191051720959
139 164 -0.018914549357919221
145 164 -0.026628586428385233
151 164 41757.135122764317
152 164 -11629.115658475563
153 164 -54467.564087499253
154 164 33075.448628464714
155 164 41434.737766560116
156 164 1619.3097165473755
157 164 10726.084721066958
158 164 -6513.5107662460687
159 164 -8159.2698906209134
160 164 35523.322386542066
161 164 -30506.504181538909
162 164 -38217.781689608702
163 164 13098.92006864794
164 164 23208.287277182855
165 164 20556.738731856734
111 165 0.0085279404387601388
112 165 0.0030723397651005492
113 165 -0.017216954939993721
114 165 0.020550900874340569
115 165 -0.038115657027729885
121 165 -0.0018231425753463242
122 165 0.011811620319720559
123 165 -0.027666305983861803
124 165 0.034533798008385463
130 165 -0.0092119495574641726
131 165 0.025794517453765455
132 165 -0.046727787164332929
138 165 -0.022690452159635079
139 165 0.027118139865290318
145 165 -0.010347761702331232
151 165 36987.158260209602
152 165 -10299.425738999151
153 165 -48247.284552044584
154 165 29294.726639043274
155 165 36707.219173504338
156 165 1433.9972699641498
157 165 9499.8680607715141
158 165 -5768.0338278823074
159 165 -7227.9272031838946
160 165 31467.811339435073
161 165 -27021.052991166613
162 165 -33857.051702478282
163 165 11601.512532909672
164 165 20556.738731856734
165 165 18215.473889710804
166 166 0.034306164436538798
167 166 0.021344638309208849
168 166 -0.016171160965257541
169 166 -0.018733387830150543
170 166 -0.0045441368259367901
176 166 0.011435712643487906
177 166 0.0013056252043977625
178 166 -0.010357649182848379
179 166 -0.0079636194682905018
185 166 0.015546486683023426
186 166 0.012075393765328485
187 166 -0.0067361637909190411
193 166 0.018107263116646923
194 166 0.010971126908865056
200 166 0.016146342320012021
206 166 0.019352113475744663
207 166 -0.00019641848554460841
208 166 -0.016630987715038965
209 166 -0.0014951788416077828
210 166 0.0028698678308281766
211 166 0.0037961146423052226
212 166 -0.00084579866357619587
213 166 -0.0068805599421053951
214 166 0.00054961456192214675
215 166 0.010690708240016196
216 166 0.0011989947399537347
217 166 -0.0086160346979960219
218 166 0.0094635422715478642
219 166 0.00020261931730496843
220 166 0.0099382711234552671
166 167 0.021344638309208849
167 167 0.02310226667422139
168 167 0.0023081124977296238
169 167 -0.01349372882969639
170 167 -0.0094155401776209457
176 167 0.01148836025051612
177 167 0.0048042684913268338
178 167 -0.0035537137882427853
179 167 -0.0058988189905776756
185 167 0.0073434230610917558
186 167 0.012399177886449772
187 167 0.0044350270643549522
193 167 0.012992315700688029
194 167 0.014384072291341582
200 167 0.011901289090315386
206 167 -0.00019641848554461644
207 167 0.0073613895254449569
208 167 -0.0007344604227355069
209 167 -0.010884779982673979
210 167 0.0026239904408720378
211 167 -0.00035788021548701547
212 167 -0.001761695228614511
213 167 0.00094476500906826553
214 167 -0.0061407113900933223
215 167 0.0008295114744823383
216 167 0.0029823733639661454
217 167 0.0028403072686947104
218 167 0.0021698622602898685
219 167 0.00084489769241227807
220 167 0.0021015573452887368
166 168 -0.016171160965257541
167 168 0.0023081124977296238
168 168 0.034786410997062769
169 168 0.024925737721060496
170 168 0.0052473708942391596
176 168 0.0042132722842503981
177 168 0.013616925100419871
178 168 0.020016889660095363
179 168 0.017362053285315402
185 168 -0.0062303543211004305
186 168 0.0060532412453204142
187 168 0.031400334220856946
193 168 0.0018189549954590674
194 168 0.02237093708221333
200 168 0.012229028286641406
206 168 -0.016630987715038962
207 168 -0.0016578194593974975
208 168 0.019534698406708406
209 168 0.0049273912507735466
210 168 -0.019571785417079081
211 168 -0.0014089350016107016
212 168 0.0016347858956880237
213 168 -1.8543505185335806e-05
214 168 0.0074571024520046726
215 168 -0.015235164951691782
216 168 0.0041644970969191494
217 168 0.0027339837611231638
218 168 -0.013288834256284169
219 168 0.010142606365285266
220 168 -0.019072163729221742
166 169 -0.018733387830150543
167 169 -0.01349372882969639
168 169 0.024925737721060496
169 169 0.064884826220755476
170 169 0.070547715966966809
176 169 -0.00055411496245409513
177 169 0.025695548036364625
178 169 0.047736726458036283
179 169 0.070946408743364428
185 169 0.015575690450392641
186 169 0.031757132434953116
187 169 0.069383103590511211
193 169 0.030881989661099785
194 169 0.080878792465031296
200 169 0.075498204660932072
206 169 -0.0014951788416077882
207 169 -0.010884779982673979
208 169 -0.0015361220058604185
209 169 0.012417403334628695
210 169 0.010997511811810487
211 169 -0.0012906905643407854
212 169 0.00076631167597735904
213 169 0.0047306949029750365
214 169 -0.011396204965049518
215 169 0.0031406181683512817
216 169 -0.023047296623700853
217 169 0.013756897451647921
218 169 0.0095231071988811748
219 169 -0.029176584936822882
220 169 0.02135474493206831
166 170 -0.0045441368259367901
167 170 -0.0094155401776209457
168 170 0.0052473708942391596
169 170 0.070547715966966809
170 170 0.17243220761649852
176 170 -0.00041684298117028657
177 170 0.030566087840192623
178 170 0.088839787646057253
179 170 0.16187747833580937
185 170 0.058691923136594749
186 170 0.12189585108593566
187 170 0.17868003079916617
193 170 0.12221856609321484
194 170 0.24365636370726679
200 170 0.23769996514199673
206 170 0.0028698678308281744
207 170 -0.0010694457057759499
208 170 -0.019571785417079091
209 170 -0.010424417838747774
210 170 0.003836476695753805
211 170 -0.0054847371787582165
212 170 -0.0057469317722618598
213 170 -0.0078676543606626421
214 170 0.0067182504199835031
215 170 0.0027913332591299233
216 170 0.011395736486469412
217 170 -0.044630254948877776
218 170 -0.023203750910849551
219 170 0.034368476412309015
220 170 -0.036509699736857887
171 171 1.3206333739234324e-09
172 171 1.358355273820687e-10
173 171 6.8150974493478232e-11
174 171 -3.0737328900988592e-11
175 171 7.8124977080718631e-11
180 171 5.0459412561476431e-11
181 171 5.2203124130968028e-11
182 171 2.6191187605306286e-11
183 171 -1.1812701927084472e-11
184 171 3.0024309213321178e-11
188 171 1.5629933043088276e-10
189 171 1.6170052194186347e-10
190 171 8.1127878389617706e-11
191 171 -3.6590148558179695e-11
192 171 9.300107132588019e-11
195 171 1.0203371279045447e-10
196 171 1.0555966278549525e-10
197 171 5.2961062725509843e-11
198 171 -2.3886402447490531e-11
199 171 6.0711997771901372e-11
201 171 1.8670018026797608e-10
202 171 1.9315192530093313e-10
203 171 9.6907577776208394e-11
204 171 -4.3707079953647575e-11
205 171 1.1109015460136586e-10
171 172 1.358355273820687e-10
172 172 1.5114165607174048e-09
173 172 8.2451992475699663e-11
174 172 9.3050957379133058e-11
175 172 -2.6473994885296182e-10
180 172 5.2203124130968028e-11
181 172 1.2377954150163275e-10
182 172 3.1687229997995243e-11
183 172 3.5760531667870057e-11
184 172 -1.0174254614203138e-10
188 172 1.6170052194186347e-10
189 172 3.8341031882161055e-10
190 172 9.8152011299418181e-11
191 172 1.1076916816522141e-10
192 172 -3.1515015794047127e-10
195 172 1.0555966278549525e-10
196 172 2.5029395995295336e-10
197 172 6.4074581145815831e-11
198 172 7.2311183032263247e-11
199 172 -2.0573306752189905e-10
201 172 1.9315192530093313e-10
202 172 4.5798517142241723e-10
203 172 1.1724297316404251e-10
204 172 1.3231421790207725e-10
205 172 -3.7644813408197024e-10
171 173 6.8150974493478232e-11
172 173 8.2451992475699663e-11
173 173 1.4021839909359116e-09
174 173 2.9079573745652267e-11
175 173 2.64118443274489e-10
180 173 2.6191187605306292e-11
181 173 3.1687229997995269e-11
182 173 8.180023380984649e-11
183 173 1.1175607936869669e-11
184 173 1.015036945434371e-10
188 173 8.1127878389617719e-11
189 173 9.8152011299418259e-11
190 173 2.533783317035621e-10
191 173 3.4616733509584061e-11
192 173 3.1441030896012198e-10
195 173 5.2961062725509856e-11
196 173 6.407458114581587e-11
197 173 1.6540782262530736e-10
198 173 2.2598138040153169e-11
199 173 2.0525008696042664e-10
201 173 9.6907577776208407e-11
202 173 1.1724297316404261e-10
203 173 3.026614386295993e-10
204 173 4.1349827722939727e-11
205 173 3.7556438149249016e-10
171 174 -3.0737328900988592e-11
172 174 9.3050957379133058e-11
173 174 2.9079573745652267e-11
174 174 1.4462748832750556e-09
175 174 -3.592279835508285e-10
180 174 -1.1812701927084478e-11
181 174 3.5760531667870051e-11
182 174 1.1175607936869664e-11
183 174 9.8744860669883418e-11
184 174 -1.3805536282032172e-10
188 174 -3.6590148558179714e-11
189 174 1.107691681652214e-10
190 174 3.4616733509584048e-11
191 174 3.0586474995899152e-10
192 174 -4.2763004315438076e-10
195 174 -2.3886402447490544e-11
196 174 7.2311183032263234e-11
197 174 2.2598138040153162e-11
198 174 1.9967146349254937e-10
199 174 -2.7916102316944079e-10
201 174 -4.3707079953647601e-11
202 174 1.3231421790207725e-10
203 174 4.1349827722939708e-11
204 174 3.6535667681708719e-10
205 174 -5.1080581039488699e-10
171 175 7.8124977080718631e-11
172 175 -2.6473994885296182e-10
173 175 2.64118443274489e-10
174 175 -3.592279835508285e-10
175 175 2.7909325107969271e-09
180 175 3.0024309213321217e-11
181 175 -1.0174254614203137e-10
182 175 1.0150369454343712e-10
183 175 -1.3805536282032174e-10
184 175 6.1551194212521366e-10
188 175 9.3001071325880307e-11
189 175 -3.1515015794047122e-10
190 175 3.1441030896012203e-10
191 175 -4.2763004315438081e-10
192 175 1.9065640986044852e-09
195 175 6.0711997771901449e-11
196 175 -2.0573306752189903e-10
197 175 2.0525008696042669e-10
198 175 -2.7916102316944084e-10
199 175 1.2446234613885739e-09
201 175 1.1109015460136599e-10
202 175 -3.7644813408197018e-10
203 175 3.7556438149249027e-10
204 175 -5.1080581039488699e-10
205 175 2.2773985014562568e-09
166 176 0.011435712643487906
167 176 0.01148836025051612
168 176 0.0042132722842503981
169 176 -0.00055411496245409513
170 176 -0.00041684298117028657
176 176 0.0072074752481626307
177 176 0.0054671230704953569
178 176 0.0018982157166926323
179 176 0.0021566044785450984
185 176 0.0055704801569973327
186 176 0.0081778409015397999
187 176 0.0077336125729924069
193 176 0.0096967297529533449
194 176 0.013394884879919501
200 176 0.012396786098223079
206 176 0.0037961146423052226
207 176 -0.00068433693363379768
208 176 -0.0014089350016107036
209 176 0.00099450646268672838
210 176 -0.0054847371787582113
211 176 0.0013999235742076081
212 176 0.00015508476452646508
213 176 -0.0034468360901844571
214 176 0.0029112911368687406
215 176 -4.1090104910340636e-05
216 176 0.002071869438708478
217 176 -0.0033414081204259653
218 176 3.3458727432618452e-05
219 176 0.0036872625285520105
220 176 -0.0017738925906887703
166 177 0.0013056252043977625
167 177 0.0048042684913268338
168 177 0.013616925100419871
169 177 0.025695548036364625
170 177 0.030566087840192623
176 177 0.0054671230704953569
177 177 0.015249910367274858
178 177 0.022091507224850804
179 177 0.032523796419493933
185 177 0.011459557013862549
186 177 0.022078155743391632
187 177 0.036909066196393732
193 177 0.021937153255803993
194 177 0.047631433654937071
200 177 0.043699748261083568
206 177 -0.00084579866357620184
207 177 -0.0017616952286145103
208 177 -0.0011352912142979623
209 177 0.00076631167597735719
210 177 0.0068107511263412633
211 177 -0.00082428538991390001
212 177 -0.00049769177631857624
213 177 0.0028377299560216527
214 177 -0.0087684581775714209
215 177 0.0019850648214168108
216 177 -0.010032461629867354
217 177 0.0082986023601713133
218 177 0.0058464847295855212
219 177 -0.014165843622205302
220 177 0.011728151138678523
166 178 -0.010357649182848379
167 178 -0.0035537137882427853
168 178 0.020016889660095363
169 178 0.047736726458036283
170 178 0.088839787646057253
176 178 0.0018982157166926323
177 178 0.022091507224850804
178 178 0.054428341918300649
179 178 0.089619768354780915
185 178 0.026230783860357307
186 178 0.063974546366808271
187 178 0.10504018205206299
193 178 0.062018761902657253
194 178 0.13301365240147972
200 178 0.1249644978591026
206 178 -0.0068805599421053951
207 178 -0.0013636325825867224
208 178 -1.8543505185341281e-05
209 178 -0.0027485132939871139
210 178 -0.0078676543606626386
211 178 -0.0034468360901844593
212 178 -0.0020560729382869177
213 178 -0.0039430989329239897
214 178 0.0070876764359940874
215 178 -0.0062219158462809279
216 178 0.0077801167916942832
217 178 -0.020948135593877308
218 178 -0.018246292583566862
219 178 0.022255541388797147
220 178 -0.027790931733039818
166 179 -0.0079636194682905018
167 179 -0.0058988189905776756
168 179 0.017362053285315402
169 179 0.070946408743364428
170 179 0.16187747833580937
176 179 0.0021566044785450984
177 179 0.032523796419493933
178 179 0.089619768354780915
179 179 0.18785218743165061
185 179 0.053250522147069421
186 179 0.14942956891626111
187 179 0.24093682667024213
193 179 0.16024784161687461
194 179 0.32507770860591284
200 179 0.30821348025175888
206 179 0.00054961456192214491
207 179 -0.006140711390093331
208 179 -0.0063932830979252448
209 179 -0.011396204965049577
210 179 -0.0081610209136554878
211 179 -0.001985559635333067
212 179 -0.0087684581775714521
213 179 -0.0072771520057903659
214 179 -0.017813682297805236
215 179 -0.0026105493337644416
216 179 -0.015185935510327115
217 179 0.016678446305546778
218 179 0.014328616679563059
219 179 -0.046599447153902948
220 179 0.035255888663176881
171 180 5.0459412561476431e-11
172 180 5.2203124130968028e-11
173 180 2.6191187605306292e-11
174 180 -1.1812701927084478e-11
175 180 3.0024309213321217e-11
180 180 1.4944748316381966e-09
181 180 3.1568437491147269e-10
182 180 1.5838417384038097e-10
183 180 -7.1434142801714726e-11
184 180 1.8156394744454364e-10
188 180 1.3038228471126551e-10
189 180 1.3488786824398687e-10
190 180 6.7675517924842334e-11
191 180 -3.0522889341805242e-11
192 180 7.7579936693495527e-11
195 180 2.4968355155766211e-10
196 180 2.5831179504013257e-10
197 180 1.295993831247755e-10
198 180 -5.8451678704207847e-11
199 180 1.4856645721576986e-10
201 180 3.3662163898717854e-10
202 180 3.4825417723220944e-10
203 180 1.7472499284404882e-10
204 180 -7.8804149349094762e-11
205 180 2.002962710779187e-10
171 181 5.2203124130968028e-11
172 181 1.2377954150163275e-10
173 181 3.1687229997995269e-11
174 181 3.5760531667870051e-11
175 181 -1.0174254614203137e-10
180 181 3.1568437491147269e-10
181 181 1.9378586225169326e-09
182 181 1.916200143404655e-10
183 181 2.1625221237241198e-10
184 181 -6.1526072654520371e-10
188 181 1.3488786824398687e-10
189 181 3.1983446897709132e-10
190 181 8.1876764583346624e-11
191 181 9.2401785606717646e-11
192 181 -2.6289298556890021e-10
195 181 2.5831179504013257e-10
196 181 6.1248662961847215e-10
197 181 1.5679493127837646e-10
198 181 1.7695046571431562e-10
199 181 -5.0344304413595442e-10
201 181 3.4825417723220944e-10
202 181 8.257502419909648e-10
203 181 2.1138984295335097e-10
204 181 2.3856339521244514e-10
205 181 -6.7873843349509515e-10
171 182 2.6191187605306286e-11
172 182 3.1687229997995243e-11
173 182 8.180023380984649e-11
174 182 1.1175607936869664e-11
175 182 1.0150369454343712e-10
180 182 1.5838417384038097e-10
181 182 1.916200143404655e-10
182 182 1.6840000320875444e-09
183 182 6.7581487976761311e-11
184 182 6.1381633564228234e-10
188 182 6.7675517924842347e-11
189 182 8.1876764583346689e-11
190 182 2.1136396229443993e-10
191 182 2.8876699546812667e-11
192 182 2.6227581593590618e-10
195 182 1.295993831247755e-10
196 182 1.5679493127837656e-10
197 182 4.0476438109552211e-10
198 182 5.5299206606775656e-11
199 182 5.0226115730047868e-10
201 182 1.7472499284404887e-10
202 182 2.1138984295335112e-10
203 182 5.4570054181778711e-10
204 182 7.455400824977647e-11
205 182 6.7714502182991659e-10
171 183 -1.1812701927084472e-11
172 183 3.5760531667870057e-11
173 183 1.1175607936869669e-11
174 183 9.8744860669883418e-11
175 183 -1.3805536282032174e-10
180 183 -7.1434142801714726e-11
181 183 2.1625221237241198e-10
182 183 6.7581487976761311e-11
183 183 1.7864681128292038e-09
184 183 -8.3485273421128613e-10
188 183 -3.0522889341805255e-11
189 183 9.2401785606717633e-11
190 183 2.8876699546812654e-11
191 183 2.5514725368531472e-10
192 183 -3.5672182269712834e-10
195 183 -5.8451678704207886e-11
196 183 1.7695046571431559e-10
197 183 5.529920660677563e-11
198 183 4.8860987987295738e-10
199 183 -6.8312632967265277e-10
201 183 -7.8804149349094801e-11
202 183 2.3856339521244508e-10
203 183 7.4554008249776444e-11
204 183 6.5874046392751251e-10
205 183 -9.2098619750928211e-10
171 184 3.0024309213321178e-11
172 184 -1.0174254614203138e-10
173 184 1.015036945434371e-10
174 184 -1.3805536282032172e-10
175 184 6.1551194212521366e-10
180 184 1.8156394744454364e-10
181 184 -6.1526072654520371e-10
182 184 6.1381633564228234e-10
183 184 -8.3485273421128613e-10
184 184 4.9114782688262969e-09
188 184 7.7579936693495631e-11
189 184 -2.6289298556890016e-10
190 184 2.6227581593590623e-10
191 184 -3.567218226971284e-10
192 184 1.5904238517160701e-09
195 184 1.4856645721577004e-10
196 184 -5.0344304413595431e-10
197 184 5.0226115730047878e-10
198 184 -6.8312632967265287e-10
199 184 3.0456796846126577e-09
201 184 2.0029627107791896e-10
202 184 -6.7873843349509504e-10
203 184 6.7714502182991669e-10
204 184 -9.2098619750928232e-10
205 184 4.1061643062518509e-09
166 185 0.015546486683023426
167 185 0.0073434230610917558
168 185 -0.0062303543211004305
169 185 0.015575690450392641
170 185 0.058691923136594749
176 185 0.0055704801569973327
177 185 0.011459557013862549
178 185 0.026230783860357307
179 185 0.053250522147069421
185 185 0.028523973985968055
186 185 0.049134389374698113
187 185 0.059804850693905905
193 185 0.052264420550677503
194 185 0.091631098396522004
200 185 0.092112801574648559
206 185 0.010690708240016196
207 185 -0.00047631539810480823
208 185 -0.015235164951691785
209 185 -0.0044331776926541718
210 185 0.0027913332591299228
211 185 -4.1090104910342439e-05
212 185 -0.0024547465453794901
213 185 -0.0062219158462809296
214 185 0.0026500674958009254
215 185 0.0063322394580492547
216 185 0.0046284986430756075
217 185 -0.020087195309215985
218 185 -0.0034719936732386918
219 185 0.01225240102374929
220 185 -0.0079389925697808273
166 186 0.012075393765328485
167 186 0.012399177886449772
168 186 0.0060532412453204142
169 186 0.031757132434953116
170 186 0.12189585108593566
176 186 0.0081778409015397999
177 186 0.022078155743391632
178 186 0.063974546366808271
179 186 0.14942956891626111
185 186 0.049134389374698113
186 186 0.13975059392799316
187 186 0.20846278990278919
193 186 0.15130300452370504
194 186 0.29183034821104625
200 186 0.27641502211063612
206 186 0.0011989947399537306
207 186 0.0029823733639661376
208 186 -0.005992452306362789
209 186 -0.023047296623700916
210 186 -0.012347781599124714
211 186 -0.0015191544609061824
212 186 -0.010032461629867389
213 186 -0.0091701169527437492
214 186 -0.015185935510327139
215 186 -0.0037661026806989134
216 186 -0.0021711005164936109
217 186 0.011220151214070172
218 186 0.010651994210267402
219 186 -0.031588705839285365
220 186 0.0256292948697871
166 187 -0.0067361637909190411
167 187 0.0044350270643549522
168 187 0.031400334220856946
169 187 0.069383103590511211
170 187 0.17868003079916617
176 187 0.0077336125729924069
177 187 0.036909066196393732
178 187 0.10504018205206299
179 187 0.24093682667024213
185 187 0.059804850693905905
186 187 0.20846278990278919
187 187 0.39429098693953918
193 187 0.26433605055704712
194 187 0.56047176932913778
200 187 0.53169684292902886
206 187 -0.0086160346979960219
207 187 -0.0017764879146152371
208 187 0.0027339837611230666
209 187 -0.014708942564303168
210 187 -0.044630254948877977
211 187 -0.003341408120426
212 187 -0.0082427152394592019
213 187 -0.02094813559387745
214 187 -0.017626540380342982
215 187 -0.020087195309216054
216 187 -0.011160313055499024
217 187 -0.01121402269810191
218 187 -0.013204138071777756
219 187 0.02722795591923341
220 187 -0.048452522533943811
171 188 1.5629933043088276e-10
172 188 1.6170052194186347e-10
173 188 8.1127878389617719e-11
174 188 -3.6590148558179714e-11
175 188 9.3001071325880307e-11
180 188 1.3038228471126551e-10
181 188 1.3488786824398687e-10
182 188 6.7675517924842347e-11
183 188 -3.0522889341805255e-11
184 188 7.7579936693495631e-11
188 188 1.5675461932936113e-09
189 188 3.9128084283049732e-10
190 188 1.9631219647363051e-10
191 188 -8.8540370774344728e-11
192 188 2.2504279600045326e-10
195 188 3.0089794102459346e-10
196 188 3.112959855987658e-10
197 188 1.5618244492688008e-10
198 188 -7.0441123020734652e-11
199 188 1.7903999203255359e-10
201 188 5.473269132311236e-10
202 188 5.6624073371471484e-10
203 188 2.8409252383595549e-10
204 188 -1.2813089480170739e-10
205 188 3.2566991269672123e-10
171 189 1.6170052194186347e-10
172 189 3.8341031882161055e-10
173 189 9.8152011299418259e-11
174 189 1.107691681652214e-10
175 189 -3.1515015794047122e-10
180 189 1.3488786824398687e-10
181 189 3.1983446897709132e-10
182 189 8.1876764583346689e-11
183 189 9.2401785606717633e-11
184 189 -2.6289298556890016e-10
188 189 3.9128084283049732e-10
189 189 2.1171064413770454e-09
190 189 2.3750697428517068e-10
191 189 2.680378081581191e-10
192 189 -7.6259629799739697e-10
195 189 3.112959855987658e-10
196 189 7.3811816840777994e-10
197 189 1.8895626760523904e-10
198 189 2.1324604870691401e-10
199 189 -6.067078686546084e-10
201 189 5.6624073371471484e-10
202 189 1.3426211470201491e-09
203 189 3.4370740568010962e-10
204 189 3.8788999751895782e-10
205 189 -1.1035886249438302e-09
171 190 8.1127878389617706e-11
172 190 9.8152011299418181e-11
173 190 2.533783317035621e-10
174 190 3.4616733509584048e-11
175 190 3.1441030896012203e-10
180 190 6.7675517924842334e-11
181 190 8.1876764583346624e-11
182 190 2.1136396229443993e-10
183 190 2.8876699546812654e-11
184 190 2.6227581593590623e-10
188 190 1.9631219647363051e-10
189 190 2.3750697428517068e-10
190 190 1.8024567117196051e-09
191 190 8.3765126426361099e-11
192 190 7.6080602095238891e-10
195 190 1.5618244492688011e-10
196 190 1.889562676052392e-10
197 190 4.8778851515018429e-10
198 190 6.6642024692722579e-11
199 190 6.0528355650789258e-10
201 190 2.8409252383595554e-10
202 190 3.4370740568010988e-10
203 190 8.8727686669322316e-10
204 190 1.2122041627250264e-10
205 190 1.1009978316400108e-09
171 191 -3.6590148558179695e-11
172 191 1.1076916816522141e-10
173 191 3.4616733509584061e-11
174 191 3.0586474995899152e-10
175 191 -4.2763004315438081e-10
180 191 -3.0522889341805242e-11
181 191 9.2401785606717646e-11
182 191 2.8876699546812667e-11
183 191 2.5514725368531472e-10
184 191 -3.567218226971284e-10
188 191 -8.8540370774344728e-11
189 191 2.680378081581191e-10
190 191 8.3765126426361099e-11
191 191 1.929462671412933e-09
192 191 -1.0347736772627499e-09
195 191 -7.0441123020734691e-11
196 191 2.1324604870691399e-10
197 191 6.6642024692722553e-11
198 191 5.8883216736082646e-10
199 191 -8.2324728551739902e-10
201 191 -1.2813089480170747e-10
202 191 3.8788999751895777e-10
203 191 1.2122041627250258e-10
204 191 1.0710731069657008e-09
205 191 -1.4974691886353306e-09
171 192 9.300107132588019e-11
172 192 -3.1515015794047127e-10
173 192 3.1441030896012198e-10
174 192 -4.2763004315438076e-10
175 192 1.9065640986044852e-09
180 192 7.7579936693495527e-11
181 192 -2.6289298556890021e-10
182 192 2.6227581593590618e-10
183 192 -3.5672182269712834e-10
184 192 1.5904238517160701e-09
188 192 2.2504279600045326e-10
189 192 -7.6259629799739697e-10
190 192 7.6080602095238891e-10
191 192 -1.0347736772627499e-09
192 192 5.8028143633847132e-09
195 192 1.790399920325538e-10
196 192 -6.067078686546083e-10
197 192 6.0528355650789268e-10
198 192 -8.2324728551739912e-10
199 192 3.6704009551415681e-09
201 192 3.2566991269672159e-10
202 192 -1.10358862494383e-09
203 192 1.100997831640011e-09
204 192 -1.4974691886353308e-09
205 192 6.6763807630508408e-09
166 193 0.018107263116646923
167 193 0.012992315700688029
168 193 0.0018189549954590674
169 193 0.030881989661099785
170 193 0.12221856609321484
176 193 0.0096967297529533449
177 193 0.021937153255803993
178 193 0.062018761902657253
179 193 0.16024784161687461
185 193 0.052264420550677503
186 193 0.15130300452370504
187 193 0.26433605055704712
193 193 0.19532434984838815
194 193 0.39388963170770375
200 193 0.37971599788554311
206 193 0.0094635422715478642
207 193 -0.00076824820303119387
208 193 -0.013288834256284238
209 193 -0.012890478335596726
210 193 -0.023203750910849693
211 193 3.3458727432594369e-05
212 193 -0.0068293632693139598
213 193 -0.018246292583566963
214 193 -0.014825522806745624
215 193 -0.0034719936732387395
216 193 -0.008764407740462863
217 193 -0.013204138071777791
218 193 9.3347973837729491e-05
219 193 0.015768429057091318
220 193 -0.022548943535201638
166 194 0.010971126908865056
167 194 0.014384072291341582
168 194 0.02237093708221333
169 194 0.080878792465031296
170 194 0.24365636370726679
176 194 0.013394884879919501
177 194 0.047631433654937071
178 194 0.13301365240147972
179 194 0.32507770860591284
185 194 0.091631098396522004
186 194 0.29183034821104625
187 194 0.56047176932913778
193 194 0.39388963170770375
194 194 0.91305654315683915
200 194 0.91329606526508289
206 194 0.00020261931730496534
207 194 0.00084489769241221681
208 194 -0.011094651477940419
209 194 -0.029176584936823253
210 194 -0.034821894068229331
211 194 -0.003821241988824027
212 194 -0.014165843622205519
213 194 -0.022958272773084865
214 194 -0.046599447153903455
215 194 -0.012210089056049795
216 194 -0.031588705839285719
217 194 -0.025951928477123454
218 194 -0.014326923304913294
219 194 -0.018687404912767099
220 194 0.026426259171331099
171 195 1.0203371279045447e-10
172 195 1.0555966278549525e-10
173 195 5.2961062725509856e-11
174 195 -2.3886402447490544e-11
175 195 6.0711997771901449e-11
180 195 2.4968355155766211e-10
181 195 2.5831179504013257e-10
182 195 1.295993831247755e-10
183 195 -5.8451678704207886e-11
184 195 1.4856645721577004e-10
188 195 3.0089794102459346e-10
189 195 3.112959855987658e-10
190 195 1.5618244492688011e-10
191 195 -7.0441123020734691e-11
192 195 1.790399920325538e-10
195 195 1.7308898126594781e-09
196 195 5.6026908119671167e-10
197 195 2.810964450759883e-10
198 195 -1.2677960879379874e-10
199 195 3.2223535308559103e-10
201 195 7.39630486531706e-10
202 195 7.6518968690770614e-10
203 195 3.8390856825284179e-10
204 195 -1.7314974610413626e-10
205 195 4.4009419261811078e-10
171 196 1.0555966278549525e-10
172 196 2.5029395995295336e-10
173 196 6.407458114581587e-11
174 196 7.2311183032263234e-11
175 196 -2.0573306752189903e-10
180 196 2.5831179504013257e-10
181 196 6.1248662961847215e-10
182 196 1.5679493127837656e-10
183 196 1.7695046571431559e-10
184 196 -5.0344304413595431e-10
188 196 3.112959855987658e-10
189 196 7.3811816840777994e-10
190 196 1.889562676052392e-10
191 196 2.1324604870691399e-10
192 196 -6.067078686546083e-10
195 196 5.6026908119671167e-10
196 196 2.5177967642715336e-09
197 196 3.4008262019157556e-10
198 196 3.8379925635098074e-10
199 196 -1.0919500277914291e-09
201 196 7.6518968690770614e-10
202 196 1.8143517305514456e-09
203 196 4.6446916740668324e-10
204 196 5.2417533406507223e-10
205 196 -1.4913350172739974e-09
171 197 5.2961062725509843e-11
172 197 6.4074581145815831e-11
173 197 1.6540782262530736e-10
174 197 2.2598138040153162e-11
175 197 2.0525008696042669e-10
180 197 1.295993831247755e-10
181 197 1.5679493127837646e-10
182 197 4.0476438109552211e-10
183 197 5.529920660677563e-11
184 197 5.0226115730047878e-10
188 197 1.5618244492688008e-10
189 197 1.8895626760523904e-10
190 197 4.8778851515018429e-10
191 197 6.6642024692722553e-11
192 197 6.0528355650789268e-10
195 197 2.810964450759883e-10
196 197 3.4008262019157556e-10
197 197 2.0672546072400022e-09
198 197 1.1994200911991549e-10
199 197 1.0893865573494868e-09
201 197 3.8390856825284184e-10
202 197 4.6446916740668355e-10
203 197 1.1990220190826137e-09
204 197 1.6381126763146471e-10
205 197 1.4878339475010996e-09
171 198 -2.3886402447490531e-11
172 198 7.2311183032263247e-11
173 198 2.2598138040153169e-11
174 198 1.9967146349254937e-10
175 198 -2.7916102316944084e-10
180 198 -5.8451678704207847e-11
181 198 1.7695046571431562e-10
182 198 5.5299206606775656e-11
183 198 4.8860987987295738e-10
184 198 -6.8312632967265287e-10
188 198 -7.0441123020734652e-11
189 198 2.1324604870691401e-10
190 198 6.6642024692722579e-11
191 198 5.8883216736082646e-10
192 198 -8.2324728551739912e-10
195 198 -1.2677960879379874e-10
196 198 3.8379925635098074e-10
197 198 1.1994200911991549e-10
198 198 2.2491125071288372e-09
199 198 -1.4816766729816408e-09
201 198 -1.7314974610413637e-10
202 198 5.2417533406507213e-10
203 198 1.6381126763146465e-10
204 198 1.4473951564693842e-09
205 198 -2.0236057058076467e-09
171 199 6.0711997771901372e-11
172 199 -2.0573306752189905e-10
173 199 2.0525008696042664e-10
174 199 -2.7916102316944079e-10
175 199 1.2446234613885739e-09
180 199 1.4856645721576986e-10
181 199 -5.0344304413595442e-10
182 199 5.0226115730047868e-10
183 199 -6.8312632967265277e-10
184 199 3.0456796846126577e-09
188 199 1.7903999203255359e-10
189 199 -6.067078686546084e-10
190 199 6.0528355650789258e-10
191 199 -8.2324728551739902e-10
192 199 3.6704009551415681e-09
195 199 3.2223535308559103e-10
196 199 -1.0919500277914291e-09
197 199 1.0893865573494868e-09
198 199 -1.4816766729816408e-09
199 199 7.7953058191097477e-09
201 199 4.400941926181113e-10
202 199 -1.4913350172739972e-09
203 199 1.4878339475011e-09
204 199 -2.0236057058076472e-09
205 199 9.0221303441751056e-09
166 200 0.016146342320012021
167 200 0.011901289090315386
168 200 0.012229028286641406
169 200 0.075498204660932072
170 200 0.23769996514199673
176 200 0.012396786098223079
177 200 0.043699748261083568
178 200 0.1249644978591026
179 200 0.30821348025175888
185 200 0.092112801574648559
186 200 0.27641502211063612
187 200 0.53169684292902886
193 200 0.37971599788554311
194 200 0.91329606526508289
200 200 0.99706724604866859
206 200 0.0099382711234552671
207 200 -0.003121750145059781
208 200 -0.019072163729222005
209 200 -0.021675359631279135
210 200 -0.036509699736858588
211 200 -0.0017738925906888626
212 200 -0.012398554888169456
213 200 -0.027790931733040293
214 200 -0.034003811955600566
215 200 -0.0079389925697810702
216 200 -0.024727007212490892
217 200 -0.048452522533944442
218 200 -0.022548943535201971
219 200 -0.027207003054742395
220 200 -0.008700378915244172
171 201 1.8670018026797608e-10
172 201 1.9315192530093313e-10
173 201 9.6907577776208407e-11
174 201 -4.3707079953647601e-11
175 201 1.1109015460136599e-10
180 201 3.3662163898717854e-10
181 201 3.4825417723220944e-10
182 201 1.7472499284404887e-10
183 201 -7.8804149349094801e-11
184 201 2.0029627107791896e-10
188 201 5.473269132311236e-10
189 201 5.6624073371471484e-10
190 201 2.8409252383595554e-10
191 201 -1.2813089480170747e-10
192 201 3.2566991269672159e-10
195 201 7.39630486531706e-10
196 201 7.6518968690770614e-10
197 201 3.8390856825284184e-10
198 201 -1.7314974610413637e-10
199 201 4.400941926181113e-10
201 201 2.5676048284929509e-09
202 201 1.4258982198749292e-09
203 201 7.1539717985311338e-10
204 201 -3.2265713844031867e-10
205 201 8.2009668526432744e-10
171 202 1.9315192530093313e-10
172 202 4.5798517142241723e-10
173 202 1.1724297316404261e-10
174 202 1.3231421790207725e-10
175 202 -3.7644813408197018e-10
180 202 3.4825417723220944e-10
181 202 8.257502419909648e-10
182 202 2.1138984295335112e-10
183 202 2.3856339521244508e-10
184 202 -6.7873843349509504e-10
188 202 5.6624073371471484e-10
189 202 1.3426211470201491e-09
190 202 3.4370740568010988e-10
191 202 3.8788999751895777e-10
192 202 -1.10358862494383e-09
195 202 7.6518968690770614e-10
196 202 1.8143517305514456e-09
197 202 4.6446916740668355e-10
198 202 5.2417533406507213e-10
199 202 -1.4913350172739972e-09
201 202 1.4258982198749292e-09
202 202 4.5703018524197159e-09
203 202 8.65518407165702e-10
204 202 9.7677829240775344e-10
205 202 -2.7790389530231971e-09
171 203 9.6907577776208394e-11
172 203 1.1724297316404251e-10
173 203 3.026614386295993e-10
174 203 4.1349827722939708e-11
175 203 3.7556438149249027e-10
180 203 1.7472499284404882e-10
181 203 2.1138984295335097e-10
182 203 5.4570054181778711e-10
183 203 7.4554008249776444e-11
184 203 6.7714502182991669e-10
188 203 2.8409252383595549e-10
189 203 3.4370740568010962e-10
190 203 8.8727686669322316e-10
191 203 1.2122041627250258e-10
192 203 1.100997831640011e-09
195 203 3.8390856825284179e-10
196 203 4.6446916740668324e-10
197 203 1.1990220190826137e-09
198 203 1.6381126763146465e-10
199 203 1.4878339475011e-09
201 203 7.1539717985311338e-10
202 203 8.65518407165702e-10
203 203 3.4236612805043896e-09
204 203 3.0525528363444126e-10
205 203 2.7725148594000754e-09
171 204 -4.3707079953647575e-11
172 204 1.3231421790207725e-10
173 204 4.1349827722939727e-11
174 204 3.6535667681708719e-10
175 204 -5.1080581039488699e-10
180 204 -7.8804149349094762e-11
181 204 2.3856339521244514e-10
182 204 7.455400824977647e-11
183 204 6.5874046392751251e-10
184 204 -9.2098619750928232e-10
188 204 -1.2813089480170739e-10
189 204 3.8788999751895782e-10
190 204 1.2122041627250264e-10
191 204 1.0710731069657008e-09
192 204 -1.4974691886353308e-09
195 204 -1.7314974610413626e-10
196 204 5.2417533406507223e-10
197 204 1.6381126763146471e-10
198 204 1.4473951564693842e-09
199 204 -2.0236057058076472e-09
201 204 -3.2265713844031867e-10
202 204 9.7677829240775344e-10
203 204 3.0525528363444126e-10
204 204 3.8864939879024235e-09
205 204 -3.7709025918796836e-09
171 205 1.1109015460136586e-10
172 205 -3.7644813408197024e-10
173 205 3.7556438149249016e-10
174 205 -5.1080581039488699e-10
175 205 2.2773985014562568e-09
180 205 2.002962710779187e-10
181 205 -6.7873843349509515e-10
182 205 6.7714502182991659e-10
183 205 -9.2098619750928211e-10
184 205 4.1061643062518509e-09
188 205 3.2566991269672123e-10
189 205 -1.1035886249438302e-09
190 205 1.1009978316400108e-09
191 205 -1.4974691886353306e-09
192 205 6.6763807630508408e-09
195 205 4.4009419261811078e-10
196 205 -1.4913350172739974e-09
197 205 1.4878339475010996e-09
198 205 -2.0236057058076467e-09
199 205 9.0221303441751056e-09
201 205 8.2009668526432744e-10
202 205 -2.7790389530231971e-09
203 205 2.7725148594000754e-09
204 205 -3.7709025918796836e-09
205 205 1.8001688697101794e-08
166 206 0.019352113475744663
167 206 -0.00019641848554461644
168 206 -0.016630987715038962
169 206 -0.0014951788416077882
170 206 0.0028698678308281744
176 206 0.0037961146423052226
177 206 -0.00084579866357620184
178 206 -0.0068805599421053951
179 206 0.00054961456192214491
185 206 0.010690708240016196
186 206 0.0011989947399537306
187 206 -0.0086160346979960219
193 206 0.0094635422715478642
194 206 0.00020261931730496534
200 206 0.0099382711234552671
206 206 0.039704337432782254
207 206 -0.028585970730933882
208 206 -0.010108339498740744
209 206 0.0172322718478326
210 206 -0.013585441917822611
211 206 0.016278330445251479
212 206 -0.0056768494250113042
213 206 -0.01184689080493485
214 206 0.015905695333130014
215 206 0.015048989023810962
216 206 -0.0070034261221034108
217 206 -0.011380552499230107
218 206 0.015378739936628886
219 206 -0.011128893477590789
220 206 0.020226630393899991
166 207 -0.00019641848554460841
167 207 0.0073613895254449569
168 207 -0.0016578194593974975
169 207 -0.010884779982673979
170 207 -0.0010694457057759499
176 207 -0.00068433693363379768
177 207 -0.0017616952286145103
178 207 -0.0013636325825867224
179 207 -0.006140711390093331
185 207 -0.00047631539810480823
186 207 0.0029823733639661376
187 207 -0.0017764879146152371
193 207 -0.00076824820303119387
194 207 0.00084489769241221681
200 207 -0.003121750145059781
206 207 -0.028585970730933882
207 207 0.032787501957245425
208 207 -0.0084899569589516923
209 207 -0.015599834771151353
210 207 0.020647331760702159
211 207 -0.017294638225165838
212 207 0.0085938329922234744
213 207 0.0060786874245460443
214 207 -0.015576066249729978
215 207 -0.0069930511955550272
216 207 0.0086176014615502571
217 207 0.0010693112945094506
218 207 -0.010535215035801291
219 207 0.015180281436934472
220 207 -0.016651494662392054
166 208 -0.016630987715038965
167 208 -0.0007344604227355069
168 208 0.019534698406708406
169 208 -0.0015361220058604185
170 208 -0.019571785417079091
176 208 -0.0014089350016107036
177 208 -0.0011352912142979623
178 208 -1.8543505185341281e-05
179 208 -0.0063932830979252448
185 208 -0.015235164951691785
186 208 -0.005992452306362789
187 208 0.0027339837611230666
193 208 -0.013288834256284238
194 208 -0.011094651477940419
200 208 -0.019072163729222005
206 208 -0.010108339498740744
207 208 -0.0084899569589516923
208 208 0.033791415499191541
209 208 -0.017752891987253737
210 208 -0.0013207869595125133
211 208 0.006892899342846451
212 208 -0.013121424355897819
213 208 0.016235313502149192
214 208 -0.011857714951302124
215 208 -0.0055211384569388237
216 208 -0.007226247715221467
217 208 0.029087453112244609
218 208 0.0035666963895929159
219 208 -0.023361288650622265
220 208 0.013918654808476727
166 209 -0.0014951788416077828
167 209 -0.010884779982673979
168 209 0.0049273912507735466
169 209 0.012417403334628695
170 209 -0.010424417838747774
176 209 0.00099450646268672838
177 209 0.00076631167597735719
178 209 -0.0027485132939871139
179 209 -0.011396204965049577
185 209 -0.0044331776926541718
186 209 -0.023047296623700916
187 209 -0.014708942564303168
193 209 -0.012890478335596726
194 209 -0.029176584936823253
200 209 -0.021675359631279135
206 209 0.0172322718478326
207 209 -0.015599834771151353
208 209 -0.017752891987253737
209 209 0.059427779313602137
210 209 -0.070770830897316991
211 209 0.0023395408687864124
212 209 0.021913971621647772
213 209 -0.044261861164687701
214 209 0.071742617571763173
215 209 -0.01640513117994714
216 209 0.034228811478531497
217 209 -0.070373454541266478
218 209 -0.0348688158031299
219 209 0.080159196012055955
220 209 -0.072786444742826861
166 210 0.0028698678308281766
167 210 0.0026239904408720378
168 210 -0.019571785417079081
169 210 0.010997511811810487
170 210 0.003836476695753805
176 210 -0.0054847371787582113
177 210 0.0068107511263412633
178 210 -0.0078676543606626386
179 210 -0.0081610209136554878
185 210 0.0027913332591299228
186 210 -0.012347781599124714
187 210 -0.044630254948877977
193 210 -0.023203750910849693
194 210 -0.034821894068229331
200 210 -0.036509699736858588
206 210 -0.013585441917822611
207 210 0.020647331760702159
208 210 -0.0013207869595125133
209 210 -0.070770830897316991
210 210 0.18059278306848273
211 210 -0.0072596900250976723
212 210 -0.025061749297016801
213 210 0.089635996622239075
214 210 -0.16859528221982084
215 210 0.057056469101929554
216 210 -0.12288620209211056
217 210 0.18106952265654791
218 210 0.12170973474194655
219 210 -0.2398213561284489
220 210 0.22994558863614337
166 211 0.0037961146423052226
167 211 -0.00035788021548701547
168 211 -0.0014089350016107016
169 211 -0.0012906905643407854
170 211 -0.0054847371787582165
176 211 0.0013999235742076081
177 211 -0.00082428538991390001
178 211 -0.0034468360901844593
179 211 -0.001985559635333067
185 211 -4.1090104910342439e-05
186 211 -0.0015191544609061824
187 211 -0.003341408120426
193 211 3.3458727432594369e-05
194 211 -0.003821241988824027
200 211 -0.0017738925906888626
206 211 0.016278330445251479
207 211 -0.017294638225165838
208 211 0.006892899342846451
209 211 0.0023395408687864124
210 211 -0.0072596900250976723
211 211 0.010576174786670464
212 211 -0.0074775486896845088
213 211 -0.00018339504403716987
214 211 0.003760511631254136
215 211 0.0055724772767455936
216 211 -0.0060565773728690148
217 211 0.0045936911894116873
218 211 0.008950387612894432
219 211 -0.013823909703984293
220 211 0.015034303078326634
166 212 -0.00084579866357619587
167 212 -0.001761695228614511
168 212 0.0016347858956880237
169 212 0.00076631167597735904
170 212 -0.0057469317722618598
176 212 0.00015508476452646508
177 212 -0.00049769177631857624
178 212 -0.0020560729382869177
179 212 -0.0087684581775714521
185 212 -0.0024547465453794901
186 212 -0.010032461629867389
187 212 -0.0082427152394592019
193 212 -0.0068293632693139598
194 212 -0.014165843622205519
200 212 -0.012398554888169456
206 212 -0.0056768494250113042
207 212 0.0085938329922234744
208 212 -0.013121424355897819
209 212 0.021913971621647772
210 212 -0.025061749297016801
211 212 -0.0074775486896845088
212 212 0.015253903762304658
213 212 -0.0190915868718185
214 212 0.028083276104479488
215 212 -0.011699091091299864
216 212 0.021423206529522534
217 212 -0.034652071711013838
218 212 -0.022702015362751085
219 212 0.047669738692832787
220 212 -0.044718970022134485
166 213 -0.0068805599421053951
167 213 0.00094476500906826553
168 213 -1.8543505185335806e-05
169 213 0.0047306949029750365
170 213 -0.0078676543606626421
176 213 -0.0034468360901844571
177 213 0.0028377299560216527
178 213 -0.0039430989329239897
179 213 -0.0072771520057903659
185 213 -0.0062219158462809296
186 213 -0.0091701169527437492
187 213 -0.02094813559387745
193 213 -0.018246292583566963
194 213 -0.022958272773084865
200 213 -0.027790931733040293
206 213 -0.01184689080493485
207 213 0.0060786874245460443
208 213 0.016235313502149192
209 213 -0.044261861164687701
210 213 0.089635996622239075
211 213 -0.00018339504403716987
212 213 -0.0190915868718185
213 213 0.052935656802302729
214 213 -0.09022649987490057
215 213 0.025767665225301249
216 213 -0.06505622469299345
217 213 0.10507848729151514
218 213 0.062638215697893726
219 213 -0.13159132268655452
220 213 0.12193212187820038
166 214 0.00054961456192214675
167 214 -0.0061407113900933223
168 214 0.0074571024520046726
169 214 -0.011396204965049518
170 214 0.0067182504199835031
176 214 0.0029112911368687406
177 214 -0.0087684581775714209
178 214 0.0070876764359940874
179 214 -0.017813682297805236
185 214 0.0026500674958009254
186 214 -0.015185935510327139
187 214 -0.017626540380342982
193 214 -0.014825522806745624
194 214 -0.046599447153903455
200 214 -0.034003811955600566
206 214 0.015905695333130014
207 214 -0.015576066249729978
208 214 -0.011857714951302124
209 214 0.071742617571763173
210 214 -0.16859528221982084
211 214 0.003760511631254136
212 214 0.028083276104479488
213 214 -0.09022649987490057
214 214 0.19312722000991389
215 214 -0.051654586230000216
216 214 0.14946787390218691
217 214 -0.24237822295899963
218 214 -0.15924210248938808
219 214 0.32078928052223732
220 214 -0.30171117913282963
166 215 0.010690708240016196
167 215 0.0008295114744823383
168 215 -0.015235164951691782
169 215 0.0031406181683512817
170 215 0.0027913332591299233
176 215 -4.1090104910340636e-05
177 215 0.0019850648214168108
178 215 -0.0062219158462809279
179 215 -0.0026105493337644416
185 215 0.0063322394580492547
186 215 -0.0037661026806989134
187 215 -0.020087195309216054
193 215 -0.0034719936732387395
194 215 -0.012210089056049795
200 215 -0.0079389925697810702
206 215 0.015048989023810962
207 215 -0.0069930511955550272
208 215 -0.0055211384569388237
209 215 -0.01640513117994714
210 215 0.057056469101929554
211 215 0.0055724772767455936
212 215 -0.011699091091299864
213 215 0.025767665225301249
214 215 -0.051654586230000216
215 215 0.027697003976072436
216 215 -0.046948546359908486
217 215 0.058327467566792295
218 215 0.05072025932900364
219 215 -0.090354100136831483
220 215 0.091411357731782369
166 216 0.0011989947399537347
167 216 0.0029823733639661454
168 216 0.0041644970969191494
169 216 -0.023047296623700853
170 216 0.011395736486469412
176 216 0.002071869438708478
177 216 -0.010032461629867354
178 216 0.0077801167916942832
179 216 -0.015185935510327115
185 216 0.0046284986430756075
186 216 -0.0021711005164936109
187 216 -0.011160313055499024
193 216 -0.008764407740462863
194 216 -0.031588705839285719
200 216 -0.024727007212490892
206 216 -0.0070034261221034108
207 216 0.0086176014615502571
208 216 -0.007226247715221467
209 216 0.034228811478531497
210 216 -0.12288620209211056
211 216 -0.0060565773728690148
212 216 0.021423206529522534
213 216 -0.06505622469299345
214 216 0.14946787390218691
215 216 -0.046948546359908486
216 216 0.13666227041528689
217 216 -0.2066568407167973
218 216 -0.14707530183649267
219 216 0.28829982234746154
220 216 -0.2736437018096774
166 217 -0.0086160346979960219
167 217 0.0028403072686947104
168 217 0.0027339837611231638
169 217 0.013756897451647921
170 217 -0.044630254948877776
176 217 -0.0033414081204259653
177 217 0.0082986023601713133
178 217 -0.020948135593877308
179 217 0.016678446305546778
185 217 -0.020087195309215985
186 217 0.011220151214070172
187 217 -0.01121402269810191
193 217 -0.013204138071777791
194 217 -0.025951928477123454
200 217 -0.048452522533944442
206 217 -0.011380552499230107
207 217 0.0010693112945094506
208 217 0.029087453112244609
209 217 -0.070373454541266478
210 217 0.18106952265654791
211 217 0.0045936911894116873
212 217 -0.034652071711013838
213 217 0.10507848729151514
214 217 -0.24237822295899963
215 217 0.058327467566792295
216 217 -0.2066568407167973
217 217 0.39288809800602642
218 217 0.26183959211378804
219 217 -0.55655252975642822
220 217 0.52895076712303712
166 218 0.0094635422715478642
167 218 0.0021698622602898685
168 218 -0.013288834256284169
169 218 0.0095231071988811748
170 218 -0.023203750910849551
176 218 3.3458727432618452e-05
177 218 0.0058464847295855212
178 218 -0.018246292583566862
179 218 0.014328616679563059
185 218 -0.0034719936732386918
186 218 0.010651994210267402
187 218 -0.013204138071777756
193 218 9.3347973837729491e-05
194 218 -0.014326923304913294
200 218 -0.022548943535201971
206 218 0.015378739936628886
207 218 -0.010535215035801291
208 218 0.0035666963895929159
209 218 -0.0348688158031299
210 218 0.12170973474194655
211 218 0.008950387612894432
212 218 -0.022702015362751085
213 218 0.062638215697893726
214 218 -0.15924210248938808
215 218 0.05072025932900364
216 218 -0.14707530183649267
217 218 0.26183959211378804
218 218 0.19157690509739994
219 218 -0.3908470522849215
220 218 0.37921700052130575
166 219 0.00020261931730496843
167 219 0.00084489769241227807
168 219 0.010142606365285266
169 219 -0.029176584936822882
170 219 0.034368476412309015
176 219 0.0036872625285520105
177 219 -0.014165843622205302
178 219 0.022255541388797147
179 219 -0.046599447153902948
185 219 0.01225240102374929
186 219 -0.031588705839285365
187 219 0.02722795591923341
193 219 0.015768429057091318
194 219 -0.018687404912767099
200 219 -0.027207003054742395
206 219 -0.011128893477590789
207 219 0.015180281436934472
208 219 -0.023361288650622265
209 219 0.080159196012055955
210 219 -0.2398213561284489
211 219 -0.013823909703984293
212 219 0.047669738692832787
213 219 -0.13159132268655452
214 219 0.32078928052223732
215 219 -0.090354100136831483
216 219 0.28829982234746154
217 219 -0.55655252975642822
218 219 -0.3908470522849215
219 219 0.91205854749820692
220 219 -0.91477754909119513
166 220 0.0099382711234552671
167 220 0.0021015573452887368
168 220 -0.019072163729221742
169 220 0.02135474493206831
170 220 -0.036509699736857887
176 220 -0.0017738925906887703
177 220 0.011728151138678523
178 220 -0.027790931733039818
179 220 0.035255888663176881
185 220 -0.0079389925697808273
186 220 0.0256292948697871
187 220 -0.048452522533943811
193 220 -0.022548943535201638
194 220 0.026426259171331099
200 220 -0.008700378915244172
206 220 0.020226630393899991
207 220 -0.016651494662392054
208 220 0.013918654808476727
209 220 -0.072786444742826861
210 220 0.22994558863614337
211 220 0.015034303078326634
212 220 -0.044718970022134485
213 220 0.12193212187820038
214 220 -0.30171117913282963
215 220 0.091411357731782369
216 220 -0.2736437018096774
217 220 0.52895076712303712
218 220 0.37921700052130575
219 220 -0.91477754909119513
220 220 1.0000000127238378
221 221 0.046968078466393649
222 221 0.038512382996148488
223 221 -0.0083603664379217381
224 221 -0.025818828446991737
225 221 -0.014039668571012161
231 221 0.020528202748646768
232 221 0.0063467772520011175
233 221 -0.011200017562806383
234 221 -0.010977179594538387
240 221 0.018520266187558285
241 221 0.021188426231068508
242 221 0.0020712322576412574
248 221 0.027904456870765176
249 221 0.023985655320242105
255 221 0.023224543154133869
261 221 0.017003453464447052
262 221 0.0038639941878302882
263 221 -0.012812261968247302
264 221 -0.0076537578904270409
265 221 -0.0011178440280360101
266 221 0.0039719080721804419
267 221 -0.0018948818512983759
268 221 -0.0069650529981416581
269 221 -0.0019446450539000258
270 221 0.0081065091859569543
271 221 0.0038142309852286383
272 221 -0.004978788542391378
273 221 0.0095110102518477825
274 221 0.0030362108006512134
275 221 0.0084583982207649851
221 222 0.038512382996148488
222 222 0.041286871024625853
223 222 0.0094366269138322877
224 222 -0.014686895560488232
225 222 -0.013680362301837617
231 222 0.02259254275548964
232 222 0.013299987149275633
233 222 -0.0021218677668682346
234 222 -0.0063887845991794203
240 222 0.014419452984445002
241 222 0.021598098103518856
242 222 0.011503023733495203
248 222 0.024053706103251325
249 222 0.027685160407732334
255 222 0.02144488801737689
261 222 0.0038639941878302886
262 222 0.0077133519225277142
263 222 -0.00221883916953446
264 222 -0.011002393521785161
265 222 -0.00090642963456183845
266 222 0.0011475189823450726
267 222 -0.0016445207996287233
268 222 -0.0015626344020481496
269 222 -0.0063851482294504719
270 222 0.0016115258232815848
271 222 0.0029727244927059649
272 222 0.0030764957599703634
273 222 0.0048918862196519223
274 222 0.0019418281965150465
275 222 0.0046524045530360455
221 223 -0.0083603664379217381
222 223 0.0094366269138322877
223 223 0.040727961214798825
224 223 0.03780074327612188
225 223 0.01767887507424298
231 223 0.010219325120449091
232 223 0.023618684985609956
233 223 0.029203417383563503
234 223 0.02440901988258368
240 223 0.002070243029639257
241 223 0.010226961938401715
242 223 0.031734136172449905
248 223 0.0038597312042558379
249 223 0.024503259878889651
255 223 0.015909761774690643
261 223 -0.012812261968247311
262 223 -0.00314069605686713
263 223 0.014369304597248571
264 223 0.0086206362949983635
265 223 -0.014415925379498979
266 223 -0.0013258146232989064
267 223 0.0027399701190656172
268 223 -2.3310391125203292e-05
269 223 0.0076857801966336917
270 223 -0.011502930280585145
271 223 0.0018051140207009434
272 223 -0.0015506057450947333
273 223 -0.012582891182251707
274 223 0.0099714233206789089
275 223 -0.016701620216161745
221 224 -0.025818828446991737
222 224 -0.014686895560488232
223 224 0.03780074327612188
224 224 0.084432571414580632
225 224 0.088863509715787325
231 224 0.00045516662892378649
232 224 0.034872837289290873
233 224 0.063332126287608898
234 224 0.084155479252950874
240 224 0.018508580866513226
241 224 0.034595746631235394
242 224 0.0714389449528888
248 224 0.024240967154200696
249 224 0.073041092075848274
255 224 0.069297735576219516
261 224 -0.0076537578904270417
262 224 -0.011002393521785159
263 224 0.0021676380836696939
264 224 0.012522929448000278
265 224 0.014987390385563472
266 224 -0.0030605031511529942
267 224 0.00076026796310755878
268 224 0.0085775142346165793
269 224 -0.010279360252695106
270 224 0.0014719637417474761
271 224 -0.022042021737587823
272 224 0.013579834565381052
273 224 0.0050091383692983651
274 224 -0.031198990632085182
275 224 0.018002647740788254
221 225 -0.014039668571012161
222 225 -0.013680362301837617
223 225 0.01767887507424298
224 225 0.088863509715787325
225 225 0.18636062501078274
231 225 -0.00076940837267545947
232 225 0.037591573503484153
233 225 0.10201974875594574
234 225 0.17513819814454465
240 225 0.058868595981147194
241 225 0.12386626308154808
242 225 0.18362282608789313
248 225 0.11657068456966319
249 225 0.23466488605832855
255 225 0.22858911589950637
261 225 -0.0011178440280360134
262 225 -0.0045938571838925199
263 225 -0.014415925379498986
264 225 -0.0063996894005544274
265 225 0.00090282537015126273
266 225 -0.0056557213104794996
267 225 -0.0054967732922234737
268 225 -0.0067565500046738612
269 225 0.010319598702299431
270 225 -0.00023972504328740051
271 225 0.011222514810630392
272 225 -0.041249073344862393
273 225 -0.024629622197369975
274 225 0.029621113970749902
275 225 -0.039286877600468686
226 226 1.2842842885189905e-09
227 226 -5.0896871390944749e-12
228 226 9.2164554154470926e-11
229 226 -4.5577260786468942e-11
230 226 1.1059131010276474e-10
235 226 -8.3784364150959227e-11
236 226 5.5846390231884108e-12
237 226 -1.0112719144017821e-10
238 226 5.0009468598385047e-11
239 226 -1.2134587630769627e-10
243 226 5.5941052048569974e-11
244 226 -3.7287456369039135e-12
245 226 6.7520491886622996e-11
246 226 -3.3390266956529203e-11
247 226 8.1020081147568811e-11
250 226 1.8917079853674216e-12
251 226 -1.2609162034726839e-13
252 226 2.2832794343403143e-12
253 226 -1.1291284722420756e-12
254 226 2.7397828404961216e-12
256 226 4.5514128926047803e-11
257 226 -3.0337400430570074e-12
258 226 5.4935262393880613e-11
259 226 -2.7166613059317194e-11
260 226 6.5918646216156883e-11
226 227 -5.0896871390944749e-12
227 227 1.4135863255459445e-09
228 227 -5.5034412628420262e-11
229 227 1.5814141778038534e-10
230 227 -2.3143811619825108e-10
235 227 5.5846390231884019e-12
236 227 -2.2566051135299583e-10
237 227 6.0386290941570555e-11
238 227 -1.7352004333134872e-10
239 227 2.5394455491107455e-10
243 227 -3.7287456369039079e-12
244 227 1.5066876187256153e-10
245 227 -4.0318652278556606e-11
246 227 1.1585567156635114e-10
247 227 -1.6955342094780005e-10
250 227 -1.2609162034726819e-13
251 227 5.0950293128610045e-12
252 227 -1.3634194152869465e-12
253 227 3.9177865096617236e-12
254 227 -5.7336347567227501e-12
256 227 -3.0337400430570026e-12
257 227 1.2258542165138028e-10
258 227 -3.2803607918160819e-11
259 227 9.4261187077899307e-11
260 227 -1.3795014534532513e-10
226 228 9.2164554154470926e-11
227 228 -5.5034412628420262e-11
228 228 1.4393505213867268e-09
229 228 -1.5154078439776736e-10
230 228 3.5987267096227091e-10
235 228 -1.0112719144017823e-10
236 228 6.0386290941570555e-11
237 228 -2.5393017303579612e-10
238 228 1.6627752453619803e-10
239 228 -3.9486886064130547e-10
243 228 6.7520491886623022e-11
244 228 -4.0318652278556606e-11
245 228 1.6954381847314192e-10
246 228 -1.1101999458786048e-10
247 228 2.6364560630543259e-10
250 228 2.2832794343403151e-12
251 228 -1.3634194152869465e-12
252 228 5.7333100385180533e-12
253 228 -3.7542627928226873e-12
254 228 8.9154651278634927e-12
256 228 5.4935262393880626e-11
257 228 -3.2803607918160819e-11
258 228 1.3794233268800829e-10
259 228 -9.0326838019668258e-11
260 228 2.1450436980972448e-10
226 229 -4.5577260786468942e-11
227 229 1.5814141778038534e-10
228 229 -1.5154078439776736e-10
229 229 1.4960868328357347e-09
230 229 -4.4686222701172014e-10
235 229 5.000946859838504e-11
236 229 -1.7352004333134874e-10
237 229 1.6627752453619803e-10
238 229 -3.1618386570702652e-10
239 229 4.9031780593935009e-10
243 229 -3.3390266956529196e-11
244 229 1.1585567156635116e-10
245 229 -1.1101999458786048e-10
246 229 2.1110929548341425e-10
247 229 -3.2737485305699239e-10
250 229 -1.1291284722420754e-12
251 229 3.9177865096617244e-12
252 229 -3.7542627928226873e-12
253 229 7.1388921986045149e-12
254 229 -1.1070539452828004e-11
256 229 -2.7166613059317191e-11
257 229 9.426118707789932e-11
258 229 -9.0326838019668258e-11
259 229 1.7176036810635668e-10
260 229 -2.6635504202253914e-10
226 230 1.1059131010276474e-10
227 230 -2.3143811619825108e-10
228 230 3.5987267096227091e-10
229 230 -4.4686222701172014e-10
230 230 2.2242930706265349e-09
235 230 -1.2134587630769622e-10
236 230 2.5394455491107455e-10
237 230 -3.9486886064130536e-10
238 230 4.9031780593934999e-10
239 230 -1.1152052714155231e-09
243 230 8.1020081147568772e-11
244 230 -1.6955342094780005e-10
245 230 2.6364560630543249e-10
246 230 -3.2737485305699234e-10
247 230 7.445990282947221e-10
250 230 2.7397828404961204e-12
251 230 -5.7336347567227501e-12
252 230 8.9154651278634911e-12
253 230 -1.1070539452828003e-11
254 230 2.5179432208371484e-11
256 230 6.5918646216156845e-11
257 230 -1.3795014534532513e-10
258 230 2.1450436980972443e-10
259 230 -2.6635504202253914e-10
260 230 6.0581227794199524e-10
221 231 0.020528202748646768
222 231 0.02259254275548964
223 231 0.010219325120449091
224 231 0.00045516662892378649
225 231 -0.00076940837267545947
231 231 0.013877180048610703
232 231 0.011523854693535956
233 231 0.0047249587109787754
234 231 0.0031413026168375002
240 231 0.0099920745121679921
241 231 0.014209990115140229
242 231 0.012255327334833446
248 231 0.015316849560011036
249 231 0.020656038491216985
255 231 0.017237222085799499
261 231 0.0039719080721804401
262 231 0.00082159335418684469
263 231 -0.0013258146232989028
264 231 -0.00077902375404541053
265 231 -0.0056557213104794953
266 231 0.001517207780724749
267 231 2.1284800070716616e-05
268 231 -0.0034907679668891994
269 231 0.0017450111209244667
270 231 -1.3645409480439394e-05
271 231 0.0025453196750405949
272 231 -0.0030376161898473405
273 231 0.00030678128497259359
274 231 0.0050435359243924758
275 231 -0.001675715345442657
221 232 0.0063467772520011175
222 232 0.013299987149275633
223 232 0.023618684985609956
224 232 0.034872837289290873
225 232 0.037591573503484153
231 232 0.011523854693535956
232 232 0.024086413672026696
233 232 0.030605129288169032
234 232 0.038883347759446171
240 232 0.016464016830196111
241 232 0.028096922431970355
242 232 0.04147098440176121
248 232 0.024147336615696152
249 232 0.05036312633594902
255 232 0.045371312184814085
261 232 -0.0018948818512983764
262 232 -0.0016445207996287226
263 232 -2.5600542932383959e-05
264 232 0.00076026796310755932
265 232 0.0070404803755008162
266 232 -0.00095649208440396079
267 232 -0.00044212641826058197
268 232 0.0035074399162842158
269 232 -0.0083322542410727875
270 232 0.0015417447825145302
271 232 -0.0095346486224409284
272 232 0.0083281651626757065
273 232 0.0049505122944751437
274 232 -0.014628581217785064
275 232 0.011327526146912148
221 233 -0.011200017562806383
222 233 -0.0021218677668682346
223 233 0.029203417383563503
224 233 0.063332126287608898
225 233 0.10201974875594574
231 233 0.0047249587109787754
232 233 0.030605129288169032
233 233 0.065611584761888248
234 233 0.099773610154135092
240 233 0.030469419373508711
241 233 0.067046612352313559
242 233 0.10767848055834156
248 233 0.060215208058497074
249 233 0.12958407337060679
255 233 0.12224943903806999
261 233 -0.0069650529981416642
262 233 -0.0038672766203798263
263 233 -2.3310391125206813e-05
264 233 0.0011104734472219702
265 233 -0.0067565500046738586
266 233 -0.0034907679668892029
267 233 -0.0013784015865789276
268 233 -0.0033899301978995325
269 233 0.0090026894494665607
270 233 -0.005871327661936274
271 233 0.0065138144156656622
272 233 -0.021399839544978559
273 233 -0.018606256689810838
274 233 0.019796268645714408
275 233 -0.027994248908315218
221 234 -0.010977179594538387
222 234 -0.0063887845991794203
223 234 0.02440901988258368
224 234 0.084155479252950874
225 234 0.17513819814454465
231 234 0.0031413026168375002
232 234 0.038883347759446171
233 234 0.099773610154135092
234 234 0.19726778887880442
240 234 0.056432114118327895
241 234 0.15199565315047855
242 234 0.24300935000957338
248 234 0.15771507813175312
249 234 0.32099669251972657
255 234 0.30379237353037636
261 234 -0.0019446450539000279
262 234 -0.006385148229450484
263 234 -0.0061420731133563179
264 234 -0.010279360252695166
265 234 -0.0045354665678612486
266 234 -0.0031438733014489246
267 234 -0.0083322542410728239
268 234 -0.0053387698406087859
269 234 -0.017594119600174908
270 234 -0.002575852109939799
271 234 -0.015647013588552569
272 234 0.016111726793832225
273 234 0.012591939520092651
274 234 -0.046875109854112015
275 234 0.033230648760565612
226 235 -8.3784364150959227e-11
227 235 5.5846390231884019e-12
228 235 -1.0112719144017823e-10
229 235 5.000946859838504e-11
230 235 -1.2134587630769622e-10
235 235 1.4247528382857016e-09
236 235 -1.44526052981968e-11
237 235 2.6170919494195798e-10
238 235 -1.2942056018732259e-10
239 235 3.1403355661073274e-10
243 235 -5.7509165677975861e-11
244 235 3.8332681054613534e-12
245 235 -6.9413195003819906e-11
246 235 3.4326247435741031e-11
247 235 -8.3291198490745795e-11
250 235 8.3023995225838066e-11
251 235 -5.5339567029931964e-12
252 235 1.0020943101273921e-10
253 235 -4.9555617259064487e-11
254 235 1.2024462508414191e-10
256 235 1.8391568916049125e-10
257 235 -1.2258883206557227e-11
258 235 2.2198506004144898e-10
259 235 -1.0977616139987896e-10
260 235 2.6636724756546573e-10
226 236 5.5846390231884108e-12
227 236 -2.2566051135299583e-10
228 236 6.0386290941570555e-11
229 236 -1.7352004333134874e-10
230 236 2.5394455491107455e-10
235 236 -1.44526052981968e-11
236 236 1.7919171166259751e-09
237 236 -1.5627495792956862e-10
238 236 4.4905618557996131e-10
239 236 -6.5718847798700473e-10
243 236 3.8332681054613469e-12
244 236 -1.548922387355447e-10
245 236 4.1448846042206021e-11
246 236 -1.1910328402579202e-10
247 236 1.7430626381657185e-10
250 236 -5.5339567029931875e-12
251 236 2.2361257266898778e-10
252 236 -5.9838266741583011e-11
253 236 1.7194529546315328e-10
254 236 -2.5163992981527265e-10
256 236 -1.2258883206557208e-11
257 236 4.9534908908561483e-10
258 236 -1.3255440232684193e-10
259 236 3.8089515479217183e-10
260 236 -5.5743560625314818e-10
226 237 -1.0112719144017821e-10
227 237 6.0386290941570555e-11
228 237 -2.5393017303579612e-10
229 237 1.6627752453619803e-10
230 237 -3.9486886064130536e-10
235 237 2.6170919494195798e-10
236 237 -1.5627495792956862e-10
237 237 1.8650767712641022e-09
238 237 -4.3031311819879972e-10
239 237 1.0218894656756637e-09
243 237 -6.9413195003819932e-11
244 237 4.1448846042206021e-11
245 237 -1.7429639216979709e-10
246 237 1.1413205559269533e-10
247 237 -2.7103599768065333e-10
250 237 1.0020943101273924e-10
251 237 -5.9838266741583011e-11
252 237 2.5162567845994456e-10
253 237 -1.6476850475804952e-10
254 237 3.9128530404130938e-10
256 237 2.2198506004144903e-10
257 237 -1.3255440232684193e-10
258 237 5.5740403649034035e-10
259 237 -3.6499704720412609e-10
260 237 8.6677961179027744e-10
226 238 5.0009468598385047e-11
227 238 -1.7352004333134872e-10
228 238 1.6627752453619803e-10
229 238 -3.1618386570702652e-10
230 238 4.9031780593934999e-10
235 238 -1.2942056018732259e-10
236 238 4.4905618557996131e-10
237 238 -4.3031311819879972e-10
238 238 2.0261844175769092e-09
239 238 -1.2689038074789469e-09
243 238 3.4326247435741025e-11
244 238 -1.1910328402579205e-10
245 238 1.1413205559269533e-10
246 238 -2.1702701335640656e-10
247 238 3.3655167312390314e-10
250 238 -4.9555617259064481e-11
251 238 1.719452954631533e-10
252 238 -1.6476850475804952e-10
253 238 3.1331439968499968e-10
254 238 -4.8586802074556225e-10
256 238 -1.0977616139987894e-10
257 238 3.8089515479217188e-10
258 238 -3.6499704720412609e-10
259 238 6.9405758642700461e-10
260 238 -1.076300310932934e-09
226 239 -1.2134587630769627e-10
227 239 2.5394455491107455e-10
228 239 -3.9486886064130547e-10
229 239 4.9031780593935009e-10
230 239 -1.1152052714155231e-09
235 239 3.1403355661073274e-10
236 239 -6.5718847798700473e-10
237 239 1.0218894656756637e-09
238 239 -1.2689038074789469e-09
239 239 4.0939887919628235e-09
243 239 -8.3291198490745756e-11
244 239 1.7430626381657185e-10
245 239 -2.7103599768065323e-10
246 239 3.3655167312390309e-10
247 239 -7.6547128296196654e-10
250 239 1.2024462508414186e-10
251 239 -2.5163992981527265e-10
252 239 3.9128530404130927e-10
253 239 -4.8586802074556215e-10
254 239 1.105084439896317e-09
256 239 2.6636724756546563e-10
257 239 -5.5743560625314818e-10
258 239 8.6677961179027723e-10
259 239 -1.0763003109329338e-09
260 239 2.4479954956541908e-09
221 240 0.018520266187558285
222 240 0.014419452984445002
223 240 0.002070243029639257
224 240 0.018508580866513226
225 240 0.058868595981147194
231 240 0.0099920745121679921
232 240 0.016464016830196111
233 240 0.030469419373508711
234 240 0.056432114118327895
240 240 0.030073326157661191
241 240 0.05438755034312915
242 240 0.06595608904410688
248 240 0.055166189207271343
249 240 0.094959393711334161
255 240 0.0924307287053487
261 240 0.0081065091859569508
262 240 0.00030782331064867577
263 240 -0.011502930280585143
264 240 -0.0060895108315233721
265 240 -0.00023972504328739907
266 240 -1.3645409480439472e-05
267 240 -0.0028908437604373491
268 240 -0.0058713276619362731
269 240 0.0026762065838098993
270 240 0.0039684989911140953
271 240 0.0058748736548959232
272 240 -0.017073144011102416
273 240 -0.0039523813109876198
274 240 0.011990750677834026
275 240 -0.0096608096710861513
221 241 0.021188426231068508
222 241 0.021598098103518856
223 241 0.010226961938401715
224 241 0.034595746631235394
225 241 0.12386626308154808
231 241 0.014209990115140229
232 241 0.028096922431970355
233 241 0.067046612352313559
234 241 0.15199565315047855
240 241 0.05438755034312915
241 241 0.14549683029651964
242 241 0.21304138996597097
248 241 0.15762144732017361
249 241 0.29831872569548923
255 241 0.27986594772157902
261 241 0.0038142309852286357
262 241 0.0029727244927059558
263 241 -0.0083353117399583964
264 241 -0.022042021737587885
265 241 -0.0124823765779239
266 241 -0.0010398622346998927
267 241 -0.0095346486224409648
268 241 -0.010408844158941145
269 241 -0.01564701358855259
270 241 -0.0025060710691727434
271 241 -0.0031396404734056766
272 241 0.010860057391126878
273 241 0.01253331344526943
274 241 -0.030304700439811903
275 241 0.026555527166689512
221 242 0.0020712322576412574
222 242 0.011503023733495203
223 242 0.031734136172449905
224 242 0.0714389449528888
225 242 0.18362282608789313
231 242 0.012255327334833446
232 242 0.04147098440176121
233 242 0.10767848055834156
234 242 0.24300935000957338
240 242 0.06595608904410688
241 242 0.21304138996597097
242 242 0.39458509881873799
248 242 0.26882970163557501
249 242 0.56507626588907434
255 242 0.5357700007193108
261 242 -0.0049787885423913814
262 242 -0.001532788676692951
263 242 -0.0015506057450948275
264 242 -0.0148396963326745
265 242 -0.041249073344862594
266 242 -0.0030376161898473756
267 242 -0.0081862425046837235
268 242 -0.021399839544978708
269 242 -0.018137451467927002
270 242 -0.017073144011102489
271 242 -0.011483997639936244
272 242 -0.014665244380528433
273 242 -0.012311066101773561
274 242 0.028552515886641681
275 242 -0.045654737766831953
226 243 5.5941052048569974e-11
227 243 -3.7287456369039079e-12
228 243 6.7520491886623022e-11
229 243 -3.3390266956529196e-11
230 243 8.1020081147568772e-11
235 243 -5.7509165677975861e-11
236 243 3.8332681054613469e-12
237 243 -6.9413195003819932e-11
238 243 3.4326247435741025e-11
239 243 -8.3291198490745756e-11
243 243 1.3544145712133972e-09
244 243 -9.7642146289344162e-12
245 243 1.7681135664154207e-10
246 243 -8.7436839309768491e-11
247 243 2.121618202510097e-10
250 243 -8.2458853241744473e-12
251 243 5.4962872164488488e-13
252 243 -9.9527308253970732e-12
253 243 4.9218293575898073e-12
254 243 -1.1942612332676691e-11
256 243 1.9633971377086848e-10
257 243 -1.3087005414886613e-11
258 243 2.3698077825167923e-10
259 243 -1.171918513667892e-10
260 243 2.8436110798193048e-10
226 244 -3.7287456369039135e-12
227 244 1.5066876187256153e-10
228 244 -4.0318652278556606e-11
229 244 1.1585567156635116e-10
230 244 -1.6955342094780005e-10
235 244 3.8332681054613534e-12
236 244 -1.548922387355447e-10
237 244 4.1448846042206021e-11
238 244 -1.1910328402579205e-10
239 244 1.7430626381657185e-10
243 244 -9.7642146289344162e-12
244 244 1.6024716338552134e-09
245 244 -1.0557973450934729e-10
246 244 3.0338343059852377e-10
247 244 -4.4399810403239002e-10
250 244 5.4962872164488397e-13
251 244 -2.2209044821999358e-11
252 244 5.943094935461467e-12
253 244 -1.7077486870677666e-11
254 244 2.4992702393997556e-11
256 244 -1.3087005414886592e-11
257 244 5.2881132007645335e-10
258 244 -1.4150882684733739e-10
259 244 4.0662569903618062e-10
260 244 -5.9509195695603005e-10
226 245 6.7520491886622996e-11
227 245 -4.0318652278556606e-11
228 245 1.6954381847314192e-10
229 245 -1.1101999458786048e-10
230 245 2.6364560630543249e-10
235 245 -6.9413195003819906e-11
236 245 4.1448846042206021e-11
237 245 -1.7429639216979709e-10
238 245 1.1413205559269533e-10
239 245 -2.7103599768065323e-10
243 245 1.7681135664154207e-10
244 245 -1.0557973450934729e-10
245 245 1.6518984711157947e-09
246 245 -2.9072056954764632e-10
247 245 6.9039096163161672e-10
250 245 -9.9527308253970748e-12
251 245 5.943094935461467e-12
252 245 -2.4991286959321954e-11
253 245 1.636469302127412e-11
254 245 -3.8862183605869715e-11
256 245 2.3698077825167928e-10
257 245 -1.4150882684733739e-10
258 245 5.9505825456651775e-10
259 245 -3.8965362934716402e-10
260 245 9.2533302437738041e-10
226 246 -3.3390266956529203e-11
227 246 1.1585567156635114e-10
228 246 -1.1101999458786048e-10
229 246 2.1110929548341425e-10
230 246 -3.2737485305699234e-10
235 246 3.4326247435741031e-11
236 246 -1.1910328402579202e-10
237 246 1.1413205559269533e-10
238 246 -2.1702701335640656e-10
239 246 3.3655167312390309e-10
243 246 -8.7436839309768491e-11
244 246 3.0338343059852377e-10
245 246 -2.9072056954764632e-10
246 246 1.7607431814295103e-09
247 246 -8.5727444042510105e-10
250 246 4.9218293575898065e-12
251 246 -1.7077486870677669e-11
252 246 1.636469302127412e-11
253 246 -3.1118167744004597e-11
254 246 4.8256073088911936e-11
256 246 -1.1719185136678918e-10
257 246 4.0662569903618067e-10
258 246 -3.8965362934716402e-10
259 246 7.409431380302906e-10
260 246 -1.1490074389230784e-09
226 247 8.1020081147568811e-11
227 247 -1.6955342094780005e-10
228 247 2.6364560630543259e-10
229 247 -3.2737485305699239e-10
230 247 7.445990282947221e-10
235 247 -8.3291198490745795e-11
236 247 1.7430626381657185e-10
237 247 -2.7103599768065333e-10
238 247 3.3655167312390314e-10
239 247 -7.6547128296196654e-10
243 247 2.121618202510097e-10
244 247 -4.4399810403239002e-10
245 247 6.9039096163161672e-10
246 247 -8.5727444042510105e-10
247 247 3.1577567513408543e-09
250 247 -1.1942612332676686e-11
251 247 2.4992702393997556e-11
252 247 -3.8862183605869702e-11
253 247 4.825607308891193e-11
254 247 -1.0975621614121854e-10
256 247 2.8436110798193032e-10
257 247 -5.9509195695603005e-10
258 247 9.253330243773802e-10
259 247 -1.1490074389230782e-09
260 247 2.6133645102441314e-09
221 248 0.027904456870765176
222 248 0.024053706103251325
223 248 0.0038597312042558379
224 248 0.024240967154200696
225 248 0.11657068456966319
231 248 0.015316849560011036
232 248 0.024147336615696152
233 248 0.060215208058497074
234 248 0.15771507813175312
240 248 0.055166189207271343
241 248 0.15762144732017361
242 248 0.26882970163557501
248 248 0.20267891383485168
249 248 0.40289887675946062
255 248 0.3848339205502484
261 248 0.0095110102518477825
262 248 0.0019585555662279043
263 248 -0.012582891182251772
264 248 -0.017367984043964908
265 248 -0.024629622197370117
266 248 0.0003067812849725711
267 248 -0.0077047142388685036
268 248 -0.018606256689810943
269 248 -0.016514771101237575
270 248 -0.0039523813109876718
271 248 -0.00685150129614117
272 248 -0.012311066101773608
273 248 0.00049899064267526114
274 248 0.018182352479639709
275 248 -0.022148661102012801
221 249 0.023985655320242105
222 249 0.027685160407732334
223 249 0.024503259878889651
224 249 0.073041092075848274
225 249 0.23466488605832855
231 249 0.020656038491216985
232 249 0.05036312633594902
233 249 0.12958407337060679
234 249 0.32099669251972657
240 249 0.094959393711334161
241 249 0.29831872569548923
242 249 0.56507626588907434
248 249 0.40289887675946062
249 249 0.92304246594739392
255 249 0.91998030548357823
261 249 0.0030362108006512143
262 249 0.001941828196514984
263 249 -0.011231285087972259
264 249 -0.031198990632085546
265 249 -0.039456695453377558
266 249 -0.0024527535232466589
267 249 -0.014628581217785283
268 249 -0.025343990270674899
269 249 -0.046875109854112522
270 249 -0.012431943058822231
271 249 -0.03030470043981226
272 249 -0.02454085381228132
273 249 -0.011864039822873981
274 249 -0.017929805443905527
275 249 0.028539186159693735
226 250 1.8917079853674216e-12
227 250 -1.2609162034726819e-13
228 250 2.2832794343403151e-12
229 250 -1.1291284722420754e-12
230 250 2.7397828404961204e-12
235 250 8.3023995225838066e-11
236 250 -5.5339567029931875e-12
237 250 1.0020943101273924e-10
238 250 -4.9555617259064481e-11
239 250 1.2024462508414186e-10
243 250 -8.2458853241744473e-12
244 250 5.4962872164488397e-13
245 250 -9.9527308253970748e-12
246 250 4.9218293575898065e-12
247 250 -1.1942612332676686e-11
250 250 1.3531836445203625e-09
251 250 -9.6821673243535703e-12
252 250 1.7532563599907151e-10
253 250 -8.6702120004728194e-11
254 250 2.103790546986244e-10
256 250 2.2444767360733571e-10
257 250 -1.4960538871345391e-11
258 250 2.7090690592693137e-10
259 250 -1.3396901676096476e-10
260 250 3.2507019555622099e-10
226 251 -1.2609162034726839e-13
227 251 5.0950293128610045e-12
228 251 -1.3634194152869465e-12
229 251 3.9177865096617244e-12
230 251 -5.7336347567227501e-12
235 251 -5.5339567029931964e-12
236 251 2.2361257266898778e-10
237 251 -5.9838266741583011e-11
238 251 1.719452954631533e-10
239 251 -2.5163992981527265e-10
243 251 5.4962872164488488e-13
244 251 -2.2209044821999358e-11
245 251 5.943094935461467e-12
246 251 -1.7077486870677669e-11
247 251 2.4992702393997556e-11
250 251 -9.6821673243535703e-12
251 251 1.5991563190013846e-09
252 251 -1.0469256304046302e-10
253 251 3.0083414284922168e-10
254 251 -4.4026725121326894e-10
256 251 -1.4960538871345365e-11
257 251 6.0451585819717439e-10
258 251 -1.6176720629151032e-10
259 251 4.6483816455053235e-10
260 251 -6.8028521971409458e-10
226 252 2.2832794343403143e-12
227 252 -1.3634194152869465e-12
228 252 5.7333100385180533e-12
229 252 -3.7542627928226873e-12
230 252 8.9154651278634911e-12
235 252 1.0020943101273921e-10
236 252 -5.9838266741583011e-11
237 252 2.5162567845994456e-10
238 252 -1.6476850475804952e-10
239 252 3.9128530404130927e-10
243 252 -9.9527308253970732e-12
244 252 5.943094935461467e-12
245 252 -2.4991286959321954e-11
246 252 1.636469302127412e-11
247 252 -3.8862183605869702e-11
250 252 1.7532563599907151e-10
251 252 -1.0469256304046302e-10
252 252 1.6481678295894888e-09
253 252 -2.8827768601588645e-10
254 252 6.8458970472960276e-10
256 252 2.7090690592693147e-10
257 252 -1.6176720629151032e-10
258 252 6.8024669249626497e-10
259 252 -4.4543637626817339e-10
260 252 1.0578035418546002e-09
226 253 -1.1291284722420756e-12
227 253 3.9177865096617236e-12
228 253 -3.7542627928226873e-12
229 253 7.1388921986045149e-12
230 253 -1.1070539452828003e-11
235 253 -4.9555617259064487e-11
236 253 1.7194529546315328e-10
237 253 -1.6476850475804952e-10
238 253 3.1331439968499968e-10
239 253 -4.8586802074556215e-10
243 253 4.9218293575898073e-12
244 253 -1.7077486870677666e-11
245 253 1.636469302127412e-11
246 253 -3.1118167744004597e-11
247 253 4.825607308891193e-11
250 253 -8.6702120004728194e-11
251 253 3.0083414284922168e-10
252 253 -2.8827768601588645e-10
253 253 1.7560979333077433e-09
254 253 -8.5007088542391327e-10
256 253 -1.3396901676096473e-10
257 253 4.648381645505324e-10
258 253 -4.4543637626817339e-10
259 253 8.4701643092082693e-10
260 253 -1.3134991473236629e-09
226 254 2.7397828404961216e-12
227 254 -5.7336347567227501e-12
228 254 8.9154651278634927e-12
229 254 -1.1070539452828004e-11
230 254 2.5179432208371484e-11
235 254 1.2024462508414191e-10
236 254 -2.5163992981527265e-10
237 254 3.9128530404130938e-10
238 254 -4.8586802074556225e-10
239 254 1.105084439896317e-09
243 254 -1.1942612332676691e-11
244 254 2.4992702393997556e-11
245 254 -3.8862183605869715e-11
246 254 4.8256073088911936e-11
247 254 -1.0975621614121854e-10
250 254 2.103790546986244e-10
251 254 -4.4026725121326894e-10
252 254 6.8458970472960276e-10
253 254 -8.5007088542391327e-10
254 254 3.1413725972005295e-09
256 254 3.2507019555622084e-10
257 254 -6.8028521971409458e-10
258 254 1.0578035418546e-09
259 254 -1.3134991473236627e-09
260 254 2.9874933264739215e-09
221 255 0.023224543154133869
222 255 0.02144488801737689
223 255 0.015909761774690643
224 255 0.069297735576219516
225 255 0.22858911589950637
231 255 0.017237222085799499
232 255 0.045371312184814085
233 255 0.12224943903806999
234 255 0.30379237353037636
240 255 0.0924307287053487
241 255 0.27986594772157902
242 255 0.5357700007193108
248 255 0.3848339205502484
249 255 0.91998030548357823
255 255 1.0000000103797584
261 255 0.0084583982207649851
262 255 -0.00056240549749550256
263 255 -0.016701620216162002
264 255 -0.024957454104066967
265 255 -0.039286877600469394
266 255 -0.0016757153454427492
267 255 -0.012759929800781233
268 255 -0.027994248908315696
269 255 -0.035916378013366008
270 255 -0.0096608096710863942
271 255 -0.023718853710080281
272 255 -0.04565473776683257
273 255 -0.022148661102013151
274 255 -0.025006823799727521
275 255 -0.010150212890973937
226 256 4.5514128926047803e-11
227 256 -3.0337400430570026e-12
228 256 5.4935262393880626e-11
229 256 -2.7166613059317191e-11
230 256 6.5918646216156845e-11
235 256 1.8391568916049125e-10
236 256 -1.2258883206557208e-11
237 256 2.2198506004144903e-10
238 256 -1.0977616139987894e-10
239 256 2.6636724756546563e-10
243 256 1.9633971377086848e-10
244 256 -1.3087005414886592e-11
245 256 2.3698077825167928e-10
246 256 -1.1719185136678918e-10
247 256 2.8436110798193032e-10
250 256 2.2444767360733571e-10
251 256 -1.4960538871345365e-11
252 256 2.7090690592693147e-10
253 256 -1.3396901676096473e-10
254 256 3.2507019555622084e-10
256 256 2.2151583227337227e-09
257 256 -6.7137009570065037e-11
258 256 1.21572355730108e-09
259 256 -6.0120021328912505e-10
260 256 1.4587870809788741e-09
226 257 -3.0337400430570074e-12
227 257 1.2258542165138028e-10
228 257 -3.2803607918160819e-11
229 257 9.426118707789932e-11
230 257 -1.3795014534532513e-10
235 257 -1.2258883206557227e-11
236 257 4.9534908908561483e-10
237 257 -1.3255440232684193e-10
238 257 3.8089515479217188e-10
239 257 -5.5743560625314818e-10
243 257 -1.3087005414886613e-11
244 257 5.2881132007645335e-10
245 257 -1.4150882684733739e-10
246 257 4.0662569903618067e-10
247 257 -5.9509195695603005e-10
250 257 -1.4960538871345391e-11
251 257 6.0451585819717439e-10
252 257 -1.6176720629151032e-10
253 257 4.648381645505324e-10
254 257 -6.8028521971409458e-10
256 257 -6.7137009570065037e-11
257 257 3.9207547297560958e-09
258 257 -7.2594754576103923e-10
259 257 2.0860107092622434e-09
260 257 -3.0528522868783324e-09
226 258 5.4935262393880613e-11
227 258 -3.2803607918160819e-11
228 258 1.3794233268800829e-10
229 258 -9.0326838019668258e-11
230 258 2.1450436980972443e-10
235 258 2.2198506004144898e-10
236 258 -1.3255440232684193e-10
237 258 5.5740403649034035e-10
238 258 -3.6499704720412609e-10
239 258 8.6677961179027723e-10
243 258 2.3698077825167923e-10
244 258 -1.4150882684733739e-10
245 258 5.9505825456651775e-10
246 258 -3.8965362934716402e-10
247 258 9.253330243773802e-10
250 258 2.7090690592693137e-10
251 258 -1.6176720629151032e-10
252 258 6.8024669249626497e-10
253 258 -4.4543637626817339e-10
254 258 1.0578035418546e-09
256 258 1.21572355730108e-09
257 258 -7.2594754576103923e-10
258 258 4.2606049043260329e-09
259 258 -1.9989431205349414e-09
260 258 4.7470059149249353e-09
226 259 -2.7166613059317194e-11
227 259 9.4261187077899307e-11
228 259 -9.0326838019668258e-11
229 259 1.7176036810635668e-10
230 259 -2.6635504202253914e-10
235 259 -1.0977616139987896e-10
236 259 3.8089515479217183e-10
237 259 -3.6499704720412609e-10
238 259 6.9405758642700461e-10
239 259 -1.0763003109329338e-09
243 259 -1.171918513667892e-10
244 259 4.0662569903618062e-10
245 259 -3.8965362934716402e-10
246 259 7.409431380302906e-10
247 259 -1.1490074389230782e-09
250 259 -1.3396901676096476e-10
251 259 4.6483816455053235e-10
252 259 -4.4543637626817339e-10
253 259 8.4701643092082693e-10
254 259 -1.3134991473236627e-09
256 259 -6.0120021328912505e-10
257 259 2.0860107092622434e-09
258 259 -1.9989431205349414e-09
259 259 5.0090018451643122e-09
260 259 -5.8944671433623749e-09
226 260 6.5918646216156883e-11
227 260 -1.3795014534532513e-10
228 260 2.1450436980972448e-10
229 260 -2.6635504202253914e-10
230 260 6.0581227794199524e-10
235 260 2.6636724756546573e-10
236 260 -5.5743560625314818e-10
237 260 8.6677961179027744e-10
238 260 -1.076300310932934e-09
239 260 2.4479954956541908e-09
243 260 2.8436110798193048e-10
244 260 -5.9509195695603005e-10
245 260 9.2533302437738041e-10
246 260 -1.1490074389230784e-09
247 260 2.6133645102441314e-09
250 260 3.2507019555622099e-10
251 260 -6.8028521971409458e-10
252 260 1.0578035418546002e-09
253 260 -1.3134991473236629e-09
254 260 2.9874933264739215e-09
256 260 1.4587870809788741e-09
257 260 -3.0528522868783324e-09
258 260 4.7470059149249353e-09
259 260 -5.8944671433623749e-09
260 260 1.4614619601119377e-08
221 261 0.017003453464447052
222 261 0.0038639941878302886
223 261 -0.012812261968247311
224 261 -0.0076537578904270417
225 261 -0.0011178440280360134
231 261 0.0039719080721804401
232 261 -0.0018948818512983764
233 261 -0.0069650529981416642
234 261 -0.0019446450539000279
240 261 0.0081065091859569508
241 261 0.0038142309852286357
242 261 -0.0049787885423913814
248 261 0.0095110102518477825
249 261 0.0030362108006512143
255 261 0.0084583982207649851
261 261 0.031556375494934119
262 261 -0.024444932058226763
263 261 0.00075614775438695176
264 261 0.0010978765575113297
265 261 -0.0043293104519587025
266 261 0.016045525638435729
267 261 -0.011673527715619362
268 261 -0.0017865815268017231
269 261 0.0051561116646721503
270 261 0.014247544777025332
271 261 -0.0076152927660806998
272 261 -0.0037755699996206626
273 261 0.012841117265652962
274 261 -0.0086541141465365668
275 261 0.014264484364984224
221 262 0.0038639941878302882
222 262 0.0077133519225277142
223 262 -0.00314069605686713
224 262 -0.011002393521785159
225 262 -0.0045938571838925199
231 262 0.00082159335418684469
232 262 -0.0016445207996287226
233 262 -0.0038672766203798263
234 262 -0.006385148229450484
240 262 0.00030782331064867577
241 262 0.0029727244927059558
242 262 -0.001532788676692951
248 262 0.0019585555662279043
249 262 0.001941828196514984
255 262 -0.00056240549749550256
261 262 -0.024444932058226763
262 262 0.032321516969443895
263 262 -0.016969789722414683
264 262 -0.0013742865177883217
265 262 0.0054481289838164536
266 262 -0.018222192715650107
267 262 0.015473614709302396
268 262 -0.0057608303479264704
269 262 -0.0036568378429260198
270 262 -0.010296261562060354
271 262 0.013191063153400698
272 262 -0.0047781038595256535
273 262 -0.0096013688443525921
274 262 0.014590788193352954
275 262 -0.012863450639327006
221 263 -0.012812261968247302
222 263 -0.00221883916953446
223 263 0.014369304597248571
224 263 0.0021676380836696939
225 263 -0.014415925379498986
231 263 -0.0013258146232989028
232 263 -2.5600542932383959e-05
233 263 -2.3310391125206813e-05
234 263 -0.0061420731133563179
240 263 -0.011502930280585143
241 263 -0.0083353117399583964
242 263 -0.0015506057450948275
248 263 -0.012582891182251772
249 263 -0.011231285087972259
255 263 -0.016701620216162002
261 263 0.00075614775438695176
262 263 -0.016969789722414683
263 263 0.032182518465142321
264 263 -0.018605433977119265
265 263 0.0094102481879512912
266 263 0.011756311739456246
267 263 -0.017787611783189609
268 263 0.020796382242501632
269 263 -0.01768409995532326
270 263 0.0037050992293229811
271 263 -0.016866278199219414
272 263 0.029640337971636073
273 263 0.009958719298362834
274 263 -0.027324427995385484
275 263 0.019598321891803043
221 264 -0.0076537578904270409
222 264 -0.011002393521785161
223 264 0.0086206362949983635
224 264 0.012522929448000278
225 264 -0.0063996894005544274
231 264 -0.00077902375404541053
232 264 0.00076026796310755932
233 264 0.0011104734472219702
234 264 -0.010279360252695166
240 264 -0.0060895108315233721
241 264 -0.022042021737587885
242 264 -0.0148396963326745
248 264 -0.017367984043964908
249 264 -0.031198990632085546
255 264 -0.024957454104066967
261 264 0.0010978765575113297
262 264 -0.0013742865177883217
263 264 -0.018605433977119265
264 264 0.054305892424938482
265 264 -0.067181436568878428
266 264 -0.0060290758716675672
267 264 0.026465802301873211
268 264 -0.042893434957971655
269 264 0.071061107095834186
270 264 -0.023203286462847608
271 264 0.043221018556795283
272 264 -0.074260113360160168
273 264 -0.045382876860574767
274 264 0.089258077108192474
275 264 -0.082391485761768621
221 265 -0.0011178440280360101
222 265 -0.00090642963456183845
223 265 -0.014415925379498979
224 265 0.014987390385563472
225 265 0.00090282537015126273
231 265 -0.0056557213104794953
232 265 0.0070404803755008162
233 265 -0.0067565500046738586
234 265 -0.0045354665678612486
240 265 -0.00023972504328739907
241 265 -0.0124823765779239
242 265 -0.041249073344862594
248 265 -0.024629622197370117
249 265 -0.039456695453377558
255 265 -0.039286877600469394
261 265 -0.0043293104519587025
262 265 0.0054481289838164536
263 265 0.0094102481879512912
264 265 -0.067181436568878428
265 265 0.16844050776272362
266 265 0.0011623696317544167
267 265 -0.030866653699718277
268 265 0.088925376517582214
269 265 -0.1630022136265723
270 265 0.057388057133465925
271 265 -0.1266874314751934
272 265 0.18883923824918389
273 265 0.1280378245648626
274 265 -0.25318224518618249
275 265 0.23717844419497483
221 266 0.0039719080721804419
222 266 0.0011475189823450726
223 266 -0.0013258146232989064
224 266 -0.0030605031511529942
225 266 -0.0056557213104794996
231 266 0.001517207780724749
232 266 -0.00095649208440396079
233 266 -0.0034907679668892029
234 266 -0.0031438733014489246
240 266 -1.3645409480439472e-05
241 266 -0.0010398622346998927
242 266 -0.0030376161898473756
248 266 0.0003067812849725711
249 266 -0.0024527535232466589
255 266 -0.0016757153454427492
261 266 0.016045525638435729
262 266 -0.018222192715650107
263 266 0.011756311739456246
264 266 -0.0060290758716675672
265 266 0.0011623696317544167
266 266 0.012179248609953452
267 266 -0.012125634540032274
268 266 0.0064593414393445151
269 266 -0.0036742187412414709
270 266 0.0084337225843290169
271 266 -0.0097707762383081806
272 266 0.00859165682127205
273 266 0.0099414979506523039
274 266 -0.01398770184843922
275 266 0.014061295799084151
221 267 -0.0018948818512983759
222 267 -0.0016445207996287233
223 267 0.0027399701190656172
224 267 0.00076026796310755878
225 267 -0.0054967732922234737
231 267 2.1284800070716616e-05
232 267 -0.00044212641826058197
233 267 -0.0013784015865789276
234 267 -0.0083322542410728239
240 267 -0.0028908437604373491
241 267 -0.0095346486224409648
242 267 -0.0081862425046837235
248 267 -0.0077047142388685036
249 267 -0.014628581217785283
255 267 -0.012759929800781233
261 267 -0.011673527715619362
262 267 0.015473614709302396
263 267 -0.017787611783189609
264 267 0.026465802301873211
265 267 -0.030866653699718277
266 267 -0.012125634540032274
267 267 0.020969710272283157
268 267 -0.024327133163266651
269 267 0.033702135714479053
270 267 -0.016749774088715415
271 267 0.028206041184721479
272 267 -0.039519109124229214
273 267 -0.027492123179478585
274 267 0.051924433519888791
275 267 -0.047627469285864948
221 268 -0.0069650529981416581
222 268 -0.0015626344020481496
223 268 -2.3310391125203292e-05
224 268 0.0085775142346165793
225 268 -0.0067565500046738612
231 268 -0.0034907679668891994
232 268 0.0035074399162842158
233 268 -0.0033899301978995325
234 268 -0.0053387698406087859
240 268 -0.0058713276619362731
241 268 -0.010408844158941145
242 268 -0.021399839544978708
248 268 -0.018606256689810943
249 268 -0.025343990270674899
255 268 -0.027994248908315696
261 268 -0.0017865815268017231
262 268 -0.0057608303479264704
263 268 0.020796382242501632
264 268 -0.042893434957971655
265 268 0.088925376517582214
266 268 0.0064593414393445151
267 268 -0.024327133163266651
268 268 0.054860881865669071
269 268 -0.09034315862079198
270 268 0.030546577733140606
271 268 -0.071776854816638494
272 268 0.10923978749937178
273 268 0.068998272688646861
274 268 -0.14025333781293572
275 268 0.12838838369107375
221 269 -0.0019446450539000258
222 269 -0.0063851482294504719
223 269 0.0076857801966336917
224 269 -0.010279360252695106
225 269 0.010319598702299431
231 269 0.0017450111209244667
232 269 -0.0083322542410727875
233 269 0.0090026894494665607
234 269 -0.017594119600174908
240 269 0.0026762065838098993
241 269 -0.01564701358855259
242 269 -0.018137451467927002
248 269 -0.016514771101237575
249 269 -0.046875109854112522
255 269 -0.035916378013366008
261 269 0.0051561116646721503
262 269 -0.0036568378429260198
263 269 -0.01768409995532326
264 269 0.071061107095834186
265 269 -0.1630022136265723
266 269 -0.0036742187412414709
267 269 0.033702135714479053
268 269 -0.09034315862079198
269 269 0.19091593702303872
270 269 -0.055051929750042805
271 269 0.15355696027529472
272 269 -0.24620003848429306
273 269 -0.16525938747478391
274 269 0.32967847183409332
275 269 -0.30969597346776884
221 270 0.0081065091859569543
222 270 0.0016115258232815848
223 270 -0.011502930280585145
224 270 0.0014719637417474761
225 270 -0.00023972504328740051
231 270 -1.3645409480439394e-05
232 270 0.0015417447825145302
233 270 -0.005871327661936274
234 270 -0.002575852109939799
240 270 0.0039684989911140953
241 270 -0.0025060710691727434
242 270 -0.017073144011102489
248 270 -0.0039523813109876718
249 270 -0.012431943058822231
255 270 -0.0096608096710863942
261 270 0.014247544777025332
262 270 -0.010296261562060354
263 270 0.0037050992293229811
264 270 -0.023203286462847608
265 270 0.057388057133465925
266 270 0.0084337225843290169
267 270 -0.016749774088715415
268 270 0.030546577733140606
269 270 -0.055051929750042805
270 270 0.027413516324135648
271 270 -0.048598417766958252
272 270 0.064876969022752973
273 270 0.051688765828762674
274 270 -0.093840498962532493
275 270 0.090987486429616737
221 271 0.0038142309852286383
222 271 0.0029727244927059649
223 271 0.0018051140207009434
224 271 -0.022042021737587823
225 271 0.011222514810630392
231 271 0.0025453196750405949
232 271 -0.0095346486224409284
233 271 0.0065138144156656622
234 271 -0.015647013588552569
240 271 0.0058748736548959232
241 271 -0.0031396404734056766
242 271 -0.011483997639936244
248 271 -0.00685150129614117
249 271 -0.03030470043981226
255 271 -0.023718853710080281
261 271 -0.0076152927660806998
262 271 0.013191063153400698
263 271 -0.016866278199219414
264 271 0.043221018556795283
265 271 -0.1266874314751934
266 271 -0.0097707762383081806
267 271 0.028206041184721479
268 271 -0.071776854816638494
269 271 0.15355696027529472
270 271 -0.048598417766958252
271 271 0.13854198405542598
272 271 -0.21145903430376481
273 271 -0.14736863289685445
274 271 0.29234482602501766
275 271 -0.27493195442486862
221 272 -0.004978788542391378
222 272 0.0030764957599703634
223 272 -0.0015506057450947333
224 272 0.013579834565381052
225 272 -0.041249073344862393
231 272 -0.0030376161898473405
232 272 0.0083281651626757065
233 272 -0.021399839544978559
234 272 0.016111726793832225
240 272 -0.017073144011102416
241 272 0.010860057391126878
242 272 -0.014665244380528433
248 272 -0.012311066101773608
249 272 -0.02454085381228132
255 272 -0.04565473776683257
261 272 -0.0037755699996206626
262 272 -0.0047781038595256535
263 272 0.029640337971636073
264 272 -0.074260113360160168
265 272 0.18883923824918389
266 272 0.00859165682127205
267 272 -0.039519109124229214
268 272 0.10923978749937178
269 272 -0.24620003848429306
270 272 0.064876969022752973
271 272 -0.21145903430376481
272 272 0.39169861492401215
273 272 0.26460551646165092
274 272 -0.55809854607419007
275 272 0.53361641581181896
221 273 0.0095110102518477825
222 273 0.0048918862196519223
223 273 -0.012582891182251707
224 273 0.0050091383692983651
225 273 -0.024629622197369975
231 273 0.00030678128497259359
232 273 0.0049505122944751437
233 273 -0.018606256689810838
234 273 0.012591939520092651
240 273 -0.0039523813109876198
241 273 0.01253331344526943
242 273 -0.012311066101773561
248 273 0.00049899064267526114
249 273 -0.011864039822873981
255 273 -0.022148661102013151
261 273 0.012841117265652962
262 273 -0.0096013688443525921
263 273 0.009958719298362834
264 273 -0.045382876860574767
265 273 0.1280378245648626
266 273 0.0099414979506523039
267 273 -0.027492123179478585
268 273 0.068998272688646861
269 273 -0.16525938747478391
270 273 0.051688765828762674
271 273 -0.14736863289685445
272 273 0.26460551646165092
273 273 0.19000397619352577
274 273 -0.38930167886651035
275 273 0.37752697264780205
221 274 0.0030362108006512134
222 274 0.0019418281965150465
223 274 0.0099714233206789089
224 274 -0.031198990632085182
225 274 0.029621113970749902
231 274 0.0050435359243924758
232 274 -0.014628581217785064
233 274 0.019796268645714408
234 274 -0.046875109854112015
240 274 0.011990750677834026
241 274 -0.030304700439811903
242 274 0.028552515886641681
248 274 0.018182352479639709
249 274 -0.017929805443905527
255 274 -0.025006823799727521
261 274 -0.0086541141465365668
262 274 0.014590788193352954
263 274 -0.027324427995385484
264 274 0.089258077108192474
265 274 -0.25318224518618249
266 274 -0.01398770184843922
267 274 0.051924433519888791
268 274 -0.14025333781293572
269 274 0.32967847183409332
270 274 -0.093840498962532493
271 274 0.29234482602501766
272 274 -0.55809854607419007
273 274 -0.38930167886651035
274 274 0.90842857072318539
275 274 -0.91061616761118991
221 275 0.0084583982207649851
222 275 0.0046524045530360455
223 275 -0.016701620216161745
224 275 0.018002647740788254
225 275 -0.039286877600468686
231 275 -0.001675715345442657
232 275 0.011327526146912148
233 275 -0.027994248908315218
234 275 0.033230648760565612
240 275 -0.0096608096710861513
241 275 0.026555527166689512
242 275 -0.045654737766831953
248 275 -0.022148661102012801
249 275 0.028539186159693735
255 275 -0.010150212890973937
261 275 0.014264484364984224
262 275 -0.012863450639327006
263 275 0.019598321891803043
264 275 -0.082391485761768621
265 275 0.23717844419497483
266 275 0.014061295799084151
267 275 -0.047627469285864948
268 275 0.12838838369107375
269 275 -0.30969597346776884
270 275 0.090987486429616737
271 275 -0.27493195442486862
272 275 0.53361641581181896
273 275 0.37752697264780205
274 275 -0.91061616761118991
275 275 0.99327544929306089
276 276 0.044004102941456839
277 276 0.036656274119689025
278 276 -0.0033406043479465145
279 276 -0.019321111153494122
280 276 -0.019309266793258978
286 276 0.020820968948973458
287 276 0.0086675814903594498
288 276 -0.011324935744868286
289 276 -0.015673046889082838
295 276 0.01517519402816518
296 276 0.012315646028816938
297 276 -0.0019725559419648871
303 276 0.021788325140627372
304 276 0.021808725829684399
310 276 0.023803485573946452
316 276 0.017309883328621666
317 276 0.0010950511649792701
318 276 -0.012248018285719602
319 276 -0.00061538648668572633
320 276 -0.0025135599528104866
321 276 0.0043246132713462516
322 276 0.00023983233914677166
323 276 -0.0073807891192650436
324 276 -0.0011226601430904478
325 276 0.0077662640205352169
326 276 -0.00026744131725794999
327 276 -0.0053053904905198792
328 276 0.0092337924645861814
329 276 0.0016526501971348396
330 276 0.0098477952108838914
276 277 0.036656274119689025
277 277 0.041871960651647028
278 277 0.012717854063920316
279 277 -0.014865770631175484
280 277 -0.020324863971101805
286 277 0.02282457714979726
287 277 0.013503094326121118
288 277 -0.0038035049033627215
289 277 -0.012978328840819632
295 277 0.011142212506638939
296 277 0.015390536068487148
297 277 0.0066387942177956122
303 277 0.018526033119952923
304 277 0.025398956126729374
310 277 0.021516222038991471
316 277 0.0010950511649792764
317 277 0.0084192051475092695
318 277 0.00079921693708348508
319 277 -0.011588119049396529
320 277 0.00025248996117156693
321 277 0.00083009144041507597
322 277 -0.0015844569509436302
323 277 0.00052585344912752581
324 277 -0.0075990254368894792
325 277 0.00063679426435260978
326 277 0.0024046366615634203
327 277 0.0026749735130084298
328 277 0.0021564516351068614
329 277 0.0031060394808128024
330 277 0.0034248947012586661
276 278 -0.0033406043479465145
277 278 0.012717854063920316
278 278 0.034030731751822613
279 278 0.025237680999533534
280 278 0.011931754097543615
286 278 0.010361377995795628
287 278 0.018977767397992382
288 278 0.02298124216464472
289 278 0.019519992082007952
295 278 0.0025482099088165598
296 278 0.013260078934992243
297 278 0.028551483731955683
303 278 0.0064869653249625429
304 278 0.022786671679415699
310 278 0.015718261313429165
316 278 -0.012248018285719605
317 278 -0.00012086864364942102
318 278 0.013692356879604635
319 278 0.0028420803945600178
320 278 -0.014863639831241619
321 278 -0.001283029942862445
322 278 0.0013606058754552979
323 278 -0.00058564147581849119
324 278 0.0072754014166729044
325 278 -0.011379099401752512
326 278 0.0057939268975681852
327 278 -0.0011304158839962153
328 278 -0.011764313079991867
329 278 0.0097817336302459239
330 278 -0.016716124442594474
276 279 -0.019321111153494122
277 279 -0.014865770631175484
278 279 0.025237680999533534
279 279 0.07214530900698396
280 279 0.08567929676659615
286 279 -0.00073768798707777184
287 279 0.028639768525813972
288 279 0.055458488452187892
289 279 0.081760769505843253
295 279 0.020631650097957463
296 279 0.03825523082996387
297 279 0.069632171817432531
303 279 0.030653957689262958
304 279 0.07178448884596407
310 279 0.067295682240694779
316 279 -0.00061538648668572372
317 279 -0.011588119049396529
318 279 -0.0035985186705702671
319 279 0.011980981585005459
320 279 0.013010193059148179
321 279 -0.0015799617204361792
322 279 0.00019643126780446253
323 279 0.0047058371942889565
324 279 -0.009091666503760398
325 279 0.0042921046249920543
326 279 -0.020876216820961392
327 279 0.013383211474828963
328 279 0.010427934821655634
329 279 -0.031955671336424997
330 279 0.020714318644498825
276 280 -0.019309266793258978
277 280 -0.020324863971101805
278 280 0.011931754097543615
279 280 0.08567929676659615
280 280 0.18724967685813571
286 280 -0.0054361218038485168
287 280 0.032677215982290321
288 280 0.099590713756845431
289 280 0.17496083192607059
295 280 0.056548123783531246
296 280 0.12195875331544395
297 280 0.18304241270216437
303 280 0.11555738566471635
304 280 0.23157096373223987
310 280 0.22102212565670401
316 280 -0.0025135599528104866
317 280 -0.0034278523617600394
318 280 -0.014863639831241629
319 280 -0.008335792413855056
320 280 0.0037123894764650839
321 280 -0.0065118702352979568
322 280 -0.0058818223878075483
323 280 -0.0055756251773882749
324 280 0.008576451178050214
325 280 5.5747910201777054e-05
326 280 0.011030421204097718
327 280 -0.041235711288573035
328 280 -0.025159740796713181
329 280 0.033447999555390913
330 280 -0.041106422795766505
281 281 2.043521587797337e-09
282 281 -7.9676102732861709e-10
283 281 7.1328243988293994e-10
284 281 -3.3945509430091637e-10
285 281 4.1133713633892878e-10
290 281 -8.8826349814506999e-10
291 281 8.3858044576557203e-10
292 281 -7.5072033630868236e-10
293 281 3.5727199816821744e-10
294 281 -4.3292689692359367e-10
298 281 2.1134568914794786e-10
299 281 -1.9952453589100777e-10
300 281 1.786198658009307e-10
301 281 -8.5006191095105017e-11
302 281 1.0300685953218836e-10
305 281 3.8519424931036515e-10
306 281 -3.6364926169719325e-10
307 281 3.2554884557377187e-10
308 281 -1.5493051264788651e-10
309 281 1.8773815586815246e-10
311 281 3.7426232894176613e-10
312 281 -3.5332879409392323e-10
313 281 3.1630967842038503e-10
314 281 -1.5053354143150615e-10
315 281 1.8241009457499272e-10
281 282 -7.9676102732861709e-10
282 282 2.3530447968546514e-09
283 282 -7.5210007286539843e-10
284 282 6.2876143308079063e-10
285 282 -7.135801263732419e-10
290 282 8.3858044576557203e-10
291 282 -1.2140325828809624e-09
292 282 7.9157538174072846e-10
293 282 -6.617630942629209e-10
294 282 7.5103364740344404e-10
298 282 -1.9952453589100777e-10
299 282 2.8885635108596541e-10
300 282 -1.8834055988555504e-10
301 282 1.5745415352735064e-10
302 282 -1.7869441231711467e-10
305 282 -3.6364926169719325e-10
306 282 5.2646356669806771e-10
307 282 -3.4326558006595933e-10
308 282 2.8697265940593579e-10
309 282 -3.2568471250087103e-10
311 282 -3.5332879409392323e-10
312 282 5.1152238364973341e-10
313 282 -3.3352360703993305e-10
314 282 2.7882829518916097e-10
315 282 -3.1644168940614959e-10
281 283 7.1328243988293994e-10
282 283 -7.5210007286539843e-10
283 283 2.2947514701758767e-09
284 283 -9.7576058962502299e-10
285 283 1.3588310789451795e-09
290 283 -7.5072033630868215e-10
291 283 7.9157538174072846e-10
292 283 -1.1526796273588506e-09
293 283 1.0269751181877872e-09
294 283 -1.4301517428913972e-09
298 283 1.7861986580093065e-10
299 283 -1.8834055988555504e-10
300 283 2.7425856259959622e-10
301 283 -2.4434952527537643e-10
302 283 3.4027786385313899e-10
305 283 3.2554884557377177e-10
306 283 -3.4326558006595933e-10
307 283 4.9985794157144288e-10
308 283 -4.4534635334768854e-10
309 283 6.2018334441678497e-10
311 283 3.1630967842038497e-10
312 283 -3.3352360703993305e-10
313 283 4.8567183359435321e-10
314 283 -4.3270729946783642e-10
315 283 6.0258236790367763e-10
281 284 -3.3945509430091637e-10
282 284 6.2876143308079063e-10
283 284 -9.7576058962502299e-10
284 284 2.756655433861854e-09
285 284 -2.0286684102470093e-09
290 284 3.5727199816821754e-10
291 284 -6.617630942629211e-10
292 284 1.0269751181877872e-09
293 284 -1.6388274414247049e-09
294 284 2.1351466768891368e-09
298 284 -8.5006191095105043e-11
299 284 1.5745415352735069e-10
300 284 -2.4434952527537643e-10
301 284 3.8992834415211499e-10
302 284 -5.0801822522418592e-10
305 284 -1.5493051264788654e-10
306 284 2.8697265940593584e-10
307 284 -4.4534635334768854e-10
308 284 7.1067527526130316e-10
309 284 -9.2590343190879501e-10
311 284 -1.5053354143150618e-10
312 284 2.7882829518916102e-10
313 284 -4.3270729946783642e-10
314 284 6.9050611247915332e-10
315 284 -8.9962603393423717e-10
281 285 4.1133713633892878e-10
282 285 -7.135801263732419e-10
283 285 1.3588310789451795e-09
284 285 -2.0286684102470093e-09
285 285 4.3678276413084265e-09
290 285 -4.3292689692359347e-10
291 285 7.5103364740344414e-10
292 285 -1.4301517428913972e-09
293 285 2.1351466768891368e-09
294 285 -3.3345648853802796e-09
298 285 1.0300685953218833e-10
299 285 -1.786944123171147e-10
300 285 3.4027786385313899e-10
301 285 -5.0801822522418592e-10
302 285 7.9339735920809481e-10
305 285 1.8773815586815238e-10
306 285 -3.2568471250087108e-10
307 285 6.2018334441678497e-10
308 285 -9.2590343190879501e-10
309 285 1.4460294951701204e-09
311 285 1.8241009457499264e-10
312 285 -3.1644168940614964e-10
313 285 6.0258236790367763e-10
314 285 -8.9962603393423717e-10
315 285 1.4049907742646372e-09
276 286 0.020820968948973458
277 286 0.02282457714979726
278 286 0.010361377995795628
279 286 -0.00073768798707777184
280 286 -0.0054361218038485168
286 286 0.014073786584959587
287 286 0.011043444664001754
288 286 0.0024626283897900814
289 286 -0.00093516309355555689
295 286 0.0084885252658808783
296 286 0.01084596881903375
297 286 0.0091081956908833847
303 286 0.013187651167929609
304 286 0.01896066802131267
310 286 0.017458987809545475
316 286 0.0043246132713462507
317 286 0.0005047920637109714
318 286 -0.0012830299428624444
319 286 0.00069713391649250001
320 286 -0.0065118702352979516
321 286 0.0017086870491414144
322 286 0.00060096299010173543
323 286 -0.0038974500890801983
324 286 0.0020109127672465889
325 286 -0.00013998716511988483
326 286 0.0019147418408558248
327 286 -0.0030523576138272944
328 286 0.0004575834548611673
329 286 0.0042846901894211193
330 286 -0.00098614486881642852
276 287 0.0086675814903594498
277 287 0.013503094326121118
278 287 0.018977767397992382
279 287 0.028639768525813972
280 287 0.032677215982290321
286 287 0.011043444664001754
287 287 0.021071432936079784
288 287 0.025827491702993297
289 287 0.034391220867221621
295 287 0.015886931216558341
296 287 0.026822883518905914
297 287 0.038135483223422528
303 287 0.024589995274492918
304 287 0.048591722217319049
310 287 0.044405952434189717
316 287 0.0002398323391467763
317 287 -0.0015844569509436298
318 287 -0.0013996508667433911
319 287 0.00019643126780446529
320 287 0.0066313415101598751
321 287 -0.00037493514001055178
322 287 -0.00069401284156958337
323 287 0.0026158453217082411
324 287 -0.0083453459703249373
325 287 0.0024644494446723324
326 287 -0.0092357900796989859
327 287 0.0080290924939186957
328 287 0.0062921932283812468
329 287 -0.014424815927806098
330 287 0.012069606672878741
276 288 -0.011324935744868286
277 288 -0.0038035049033627215
278 288 0.02298124216464472
279 288 0.055458488452187892
280 288 0.099590713756845431
286 288 0.0024626283897900814
287 288 0.025827491702993297
288 288 0.061285979869999493
289 288 0.097240413687397165
295 288 0.029548166817890006
296 288 0.067609415871961467
297 288 0.10579694766116801
303 288 0.061022175522933292
304 288 0.12717881785448115
310 288 0.11837019381700405
316 288 -0.0073807891192650453
317 288 -0.0017743605027047305
318 288 -0.00058564147581849715
319 288 -0.0027468560096475174
320 288 -0.005575625177388268
321 288 -0.0038974500890802009
322 288 -0.0022606082561761253
323 288 -0.0030806333266033821
324 288 0.0079259262973615605
325 288 -0.0056616757457753682
326 288 0.0084121740508329539
327 288 -0.021183063586284624
328 288 -0.018462026938352527
329 288 0.021614866592818426
330 288 -0.028911273619180489
276 289 -0.015673046889082838
277 289 -0.012978328840819632
278 289 0.019519992082007952
279 289 0.081760769505843253
280 289 0.17496083192607059
286 289 -0.00093516309355555689
287 289 0.034391220867221621
288 289 0.097240413687397165
289 289 0.19739852119742371
295 289 0.054021472373731137
296 289 0.15002896678656152
297 289 0.24130048321471673
303 289 0.15588732548263645
304 289 0.31522602425185525
310 289 0.29767517690522216
316 289 -0.0011226601430904474
317 289 -0.0075990254368894887
318 289 -0.0065258822943205569
319 289 -0.0090916665037604587
320 289 -0.0062500707514741675
321 289 -0.0028685778833148685
322 289 -0.0083453459703249754
323 289 -0.0063879765228973609
324 289 -0.016187611959956008
325 289 -0.0027710637771767642
326 289 -0.015441291426520528
327 289 0.017161010007367163
328 289 0.013880584288443939
329 289 -0.048157980330914688
330 289 0.033467538437206151
281 290 -8.8826349814506999e-10
282 290 8.3858044576557203e-10
283 290 -7.5072033630868215e-10
284 290 3.5727199816821754e-10
285 290 -4.3292689692359347e-10
290 290 3.0351523736555773e-09
291 290 -1.7329271403979825e-09
292 290 1.5513641561846048e-09
293 290 -7.383028608122364e-10
294 290 8.9464376766174287e-10
298 290 -3.5325153193382734e-10
299 290 3.3349318950406794e-10
300 290 -2.9855229828616591e-10
301 290 1.4208270511344422e-10
302 290 -1.7216973327507034e-10
305 290 2.5359731722862668e-10
306 290 -2.3941291268934175e-10
307 290 2.1432904050928532e-10
308 290 -1.0200038664830238e-10
309 290 1.2359969743798582e-10
311 290 1.5421426299601846e-09
312 290 -1.4558862958645385e-09
313 290 1.3033495536147639e-09
314 290 -6.2027132716454635e-10
315 290 7.516182132851926e-10
281 291 8.3858044576557203e-10
282 291 -1.2140325828809624e-09
283 291 7.9157538174072846e-10
284 291 -6.617630942629211e-10
285 291 7.5103364740344414e-10
290 291 -1.7329271403979825e-09
291 291 3.708354439470567e-09
292 291 -1.6357911391996338e-09
293 291 1.3675339466269313e-09
294 291 -1.5520116138044934e-09
298 291 3.3349318950406794e-10
299 291 -4.8280591357840596e-10
300 291 3.1479985029774184e-10
301 291 -2.6317509085290341e-10
302 291 2.986768982775283e-10
305 291 -2.3941291268934175e-10
306 291 3.4660368988445209e-10
307 291 -2.2599306806243427e-10
308 291 1.8893193933607206e-10
309 291 -2.1441849015261241e-10
311 291 -1.4558862958645385e-09
312 291 2.1077207429226552e-09
313 291 -1.3742793028854344e-09
314 291 1.148908044435412e-09
315 291 -1.3038935030134283e-09
281 292 -7.5072033630868236e-10
282 292 7.9157538174072846e-10
283 292 -1.1526796273588506e-09
284 292 1.0269751181877872e-09
285 292 -1.4301517428913972e-09
290 292 1.5513641561846048e-09
291 292 -1.6357911391996338e-09
292 292 3.5815685093850705e-09
293 292 -2.1222448768123976e-09
294 292 2.9554096838990809e-09
298 292 -2.9855229828616581e-10
299 292 3.1479985029774184e-10
300 292 -4.5840659336304974e-10
301 292 4.0841544712277525e-10
302 292 -5.6875386090863563e-10
305 292 2.1432904050928527e-10
306 292 -2.2599306806243427e-10
307 292 3.2908755311090902e-10
308 292 -2.9319918625142042e-10
309 292 4.0830524499147003e-10
311 292 1.3033495536147637e-09
312 292 -1.3742793028854344e-09
313 292 2.0012039172484252e-09
314 292 -1.7829643039177672e-09
315 292 2.482932119388387e-09
281 293 3.5727199816821744e-10
282 293 -6.617630942629209e-10
283 293 1.0269751181877872e-09
284 293 -1.6388274414247049e-09
285 293 2.1351466768891368e-09
290 293 -7.383028608122364e-10
291 293 1.3675339466269313e-09
292 293 -2.1222448768123976e-09
293 293 4.5861933435245771e-09
294 293 -4.4122822608078193e-09
298 293 1.4208270511344425e-10
299 293 -2.6317509085290351e-10
300 293 4.0841544712277525e-10
301 293 -6.5174163462464323e-10
302 293 8.4912172580497753e-10
305 293 -1.020003866483024e-10
306 293 1.8893193933607211e-10
307 293 -2.9319918625142042e-10
308 293 4.6788170786466769e-10
309 293 -6.0957978153940838e-10
311 293 -6.2027132716454656e-10
312 293 1.1489080444354122e-09
313 293 -1.7829643039177672e-09
314 293 2.84522066464208e-09
315 293 -3.7068963415975053e-09
281 294 -4.3292689692359367e-10
282 294 7.5103364740344404e-10
283 294 -1.4301517428913972e-09
284 294 2.1351466768891368e-09
285 294 -3.3345648853802796e-09
290 294 8.9464376766174287e-10
291 294 -1.5520116138044934e-09
292 294 2.9554096838990809e-09
293 294 -4.4122822608078193e-09
294 294 8.0904360842874727e-09
298 294 -1.7216973327507026e-10
299 294 2.9867689827752835e-10
300 294 -5.6875386090863563e-10
301 294 8.4912172580497753e-10
302 294 -1.3261156813864163e-09
305 294 1.2359969743798577e-10
306 294 -2.1441849015261243e-10
307 294 4.0830524499147003e-10
308 294 -6.0957978153940838e-10
309 294 9.5201109898485732e-10
311 294 7.5161821328519229e-10
312 294 -1.3038935030134285e-09
313 294 2.482932119388387e-09
314 294 -3.7068963415975053e-09
315 294 5.7892446023639043e-09
276 295 0.01517519402816518
277 295 0.011142212506638939
278 295 0.0025482099088165598
279 295 0.020631650097957463
280 295 0.056548123783531246
286 295 0.0084885252658808783
287 295 0.015886931216558341
288 295 0.029548166817890006
289 295 0.054021472373731137
295 295 0.027580379304014625
296 295 0.049276753580157838
297 295 0.063728987809880996
303 295 0.051749868014031516
304 295 0.092777061869249292
310 295 0.090044864589354526
316 295 0.0077662640205352152
317 295 -0.00066440324246378813
318 295 -0.011379099401752515
319 295 -0.0032548409145430062
320 295 5.5747910201774391e-05
321 295 -0.00013998716511988632
322 295 -0.0019596220785033981
323 295 -0.00566167574577537
324 295 0.0024709033217121057
325 295 0.0039028418729379361
326 295 0.0037661221577517156
327 295 -0.01723172078486027
328 295 -0.0042784154328327721
329 295 0.012651978749938196
330 295 -0.0096094175491619402
276 296 0.012315646028816938
277 296 0.015390536068487148
278 296 0.013260078934992243
279 296 0.03825523082996387
280 296 0.12195875331544395
286 296 0.01084596881903375
287 296 0.026822883518905914
288 296 0.067609415871961467
289 296 0.15002896678656152
295 296 0.049276753580157838
296 296 0.13859662108322157
297 296 0.20980379506087538
303 296 0.14982336296373241
304 296 0.29203325708021544
310 296 0.27478544343943467
316 296 -0.0002674413172579476
317 296 0.0024046366615634112
318 296 -0.0043270144904936792
319 296 -0.020876216820961455
320 296 -0.012628922300462477
321 296 -0.0016635513028892409
322 296 -0.0092357900796990206
323 296 -0.0084779683954780746
324 296 -0.015441291426520558
325 296 -0.0045987189574964882
326 296 -0.0038008646852581282
327 296 0.011806891026456897
328 296 0.0097448426951695592
329 296 -0.030627124922295797
330 296 0.024822826465586079
276 297 -0.0019725559419648871
277 297 0.0066387942177956122
278 297 0.028551483731955683
279 297 0.069632171817432531
280 297 0.18304241270216437
286 297 0.0091081956908833847
287 297 0.038135483223422528
288 297 0.10579694766116801
289 297 0.24130048321471673
295 297 0.063728987809880996
296 297 0.20980379506087538
297 297 0.38941039656441295
303 297 0.26427397770250749
304 297 0.55756607174859885
310 297 0.53222738432232242
316 297 -0.00530539049051988
317 297 -0.0019254543906560371
318 297 -0.0011304158839963109
319 297 -0.014981712571193673
320 297 -0.041235711288573208
321 297 -0.0030523576138273278
322 297 -0.0084535834809248561
323 297 -0.021183063586284759
324 297 -0.017022359996813965
325 297 -0.017231720784860328
326 297 -0.010494230906545155
327 297 -0.014571407152007304
328 297 -0.012556573685307064
329 297 0.026119405283133473
330 297 -0.045699486766726881
281 298 2.1134568914794786e-10
282 298 -1.9952453589100777e-10
283 298 1.7861986580093065e-10
284 298 -8.5006191095105043e-11
285 298 1.0300685953218833e-10
290 298 -3.5325153193382734e-10
291 298 3.3349318950406794e-10
292 298 -2.9855229828616581e-10
293 298 1.4208270511344425e-10
294 298 -1.7216973327507026e-10
298 298 2.2327668567208356e-09
299 298 -9.754212810757261e-10
300 298 8.7322402504067335e-10
301 298 -4.1557218738576327e-10
302 298 5.0357256783376279e-10
305 298 -3.5703770758988316e-10
306 298 3.3706759380643131e-10
307 298 -3.0175220357077295e-10
308 298 1.436055578985465e-10
309 298 -1.7401506102005463e-10
311 298 1.0653858766380967e-09
312 298 -1.0057958761214446e-09
313 298 9.0041620001101175e-10
314 298 -4.2851309522630688e-10
315 298 5.1925380538807823e-10
281 299 -1.9952453589100777e-10
282 299 2.8885635108596541e-10
283 299 -1.8834055988555504e-10
284 299 1.5745415352735069e-10
285 299 -1.786944123171147e-10
290 299 3.3349318950406794e-10
291 299 -4.8280591357840596e-10
292 299 3.1479985029774184e-10
293 299 -2.6317509085290351e-10
294 299 2.9867689827752835e-10
298 299 -9.754212810757261e-10
299 299 2.611695437243428e-09
300 299 -9.2074585905786425e-10
301 299 7.6975060464863969e-10
302 299 -8.7358846271742929e-10
305 299 3.3706759380643131e-10
306 299 -4.8798066253585074e-10
307 299 3.1817389802855424e-10
308 299 -2.6599582065076936e-10
309 299 3.018781390339208e-10
311 299 -1.0057958761214446e-09
312 299 1.4561142839718588e-09
313 299 -9.4941786278743384e-10
314 299 7.9372061981645948e-10
315 299 -9.0079198626818679e-10
281 300 1.786198658009307e-10
282 300 -1.8834055988555504e-10
283 300 2.7425856259959622e-10
284 300 -2.4434952527537643e-10
285 300 3.4027786385313899e-10
290 300 -2.9855229828616591e-10
291 300 3.1479985029774184e-10
292 300 -4.5840659336304974e-10
293 300 4.0841544712277525e-10
294 300 -5.6875386090863563e-10
298 300 8.7322402504067335e-10
299 300 -9.2074585905786425e-10
300 300 2.540330812924618e-09
301 300 -1.194558483296264e-09
302 300 1.6635260841436151e-09
305 300 -3.017522035707729e-10
306 300 3.1817389802855424e-10
307 300 -4.6331982862876908e-10
308 300 4.1279287364089455e-10
309 300 -5.7484980622746137e-10
311 300 9.0041620001101154e-10
312 300 -9.4941786278743384e-10
313 300 1.3825273669818415e-09
314 300 -1.2317570055066224e-09
315 300 1.7153282460752546e-09
281 301 -8.5006191095105017e-11
282 301 1.5745415352735064e-10
283 301 -2.4434952527537643e-10
284 301 3.8992834415211499e-10
285 301 -5.0801822522418592e-10
290 301 1.4208270511344422e-10
291 301 -2.6317509085290341e-10
292 301 4.0841544712277525e-10
293 301 -6.5174163462464323e-10
294 301 8.4912172580497753e-10
298 301 -4.1557218738576327e-10
299 301 7.6975060464863969e-10
300 301 -1.194558483296264e-09
301 301 3.1058089682796064e-09
302 301 -2.4835631660292712e-09
305 301 1.4360555789854655e-10
306 301 -2.6599582065076946e-10
307 301 4.1279287364089455e-10
308 301 -6.5872704894838383e-10
309 301 8.5822267432647789e-10
311 301 -4.2851309522630699e-10
312 301 7.9372061981645968e-10
313 301 -1.2317570055066224e-09
314 301 1.9656144983857893e-09
315 301 -2.5609012628108039e-09
281 302 1.0300685953218836e-10
282 302 -1.7869441231711467e-10
283 302 3.4027786385313899e-10
284 302 -5.0801822522418592e-10
285 302 7.9339735920809481e-10
290 302 -1.7216973327507034e-10
291 302 2.986768982775283e-10
292 302 -5.6875386090863563e-10
293 302 8.4912172580497753e-10
294 302 -1.3261156813864163e-09
298 302 5.0357256783376279e-10
299 302 -8.7358846271742929e-10
300 302 1.6635260841436151e-09
301 302 -2.4835631660292712e-09
302 302 5.0782594329946183e-09
305 302 -1.7401506102005455e-10
306 302 3.018781390339208e-10
307 302 -5.7484980622746137e-10
308 302 8.5822267432647789e-10
309 302 -1.3403290858761092e-09
311 302 5.1925380538807802e-10
312 302 -9.0079198626818689e-10
313 302 1.7153282460752546e-09
314 302 -2.5609012628108039e-09
315 302 3.9994870227542304e-09
276 303 0.021788325140627372
277 303 0.018526033119952923
278 303 0.0064869653249625429
279 303 0.030653957689262958
280 303 0.11555738566471635
286 303 0.013187651167929609
287 303 0.024589995274492918
288 303 0.061022175522933292
289 303 0.15588732548263645
295 303 0.051749868014031516
296 303 0.14982336296373241
297 303 0.26427397770250749
303 303 0.1954705975318968
304 303 0.39710680921966596
310 303 0.38268608964056433
316 303 0.0092337924645861848
317 303 -0.0007712427552299979
318 303 -0.011764313079991935
319 303 -0.011906190956057017
320 303 -0.025159740796713317
321 303 0.00045758345486114518
322 303 -0.0063387168556435078
323 303 -0.018462026938352624
324 303 -0.015170199095882799
325 303 -0.0042784154328328146
326 303 -0.0096027249954692955
327 303 -0.012556573685307118
328 303 -0.00010262939162417198
329 303 0.015837168603977148
330 303 -0.02148047690979717
276 304 0.021808725829684399
277 304 0.025398956126729374
278 304 0.022786671679415699
279 304 0.07178448884596407
280 304 0.23157096373223987
286 304 0.01896066802131267
287 304 0.048591722217319049
288 304 0.12717881785448115
289 304 0.31522602425185525
295 304 0.092777061869249292
296 304 0.29203325708021544
297 304 0.55756607174859885
303 304 0.39710680921966596
304 304 0.91845210277587441
310 304 0.9189944269850171
316 304 0.0016526501971348424
317 304 0.0031060394808127409
318 304 -0.011380234726610532
319 304 -0.031955671336425365
320 304 -0.035497079960860406
321 304 -0.0031971954747730493
322 304 -0.01442481592780631
323 304 -0.023438657343735476
324 304 -0.048157980330915215
325 304 -0.011723787877755337
326 304 -0.030627124922296155
327 304 -0.026871947890834264
328 304 -0.01415149090539254
329 304 -0.016644101058516336
330 304 0.028173890867186149
281 305 3.8519424931036515e-10
282 305 -3.6364926169719325e-10
283 305 3.2554884557377177e-10
284 305 -1.5493051264788654e-10
285 305 1.8773815586815238e-10
290 305 2.5359731722862668e-10
291 305 -2.3941291268934175e-10
292 305 2.1432904050928527e-10
293 305 -1.020003866483024e-10
294 305 1.2359969743798577e-10
298 305 -3.5703770758988316e-10
299 305 3.3706759380643131e-10
300 305 -3.017522035707729e-10
301 305 1.4360555789854655e-10
302 305 -1.7401506102005455e-10
305 305 2.7602842221023603e-09
306 305 -1.4734331304137843e-09
307 305 1.3190579637028823e-09
308 305 -6.2774704720141536e-10
309 305 7.6067697046298679e-10
311 305 1.9188402871352761e-09
312 305 -1.8115142034982527e-09
313 305 1.6217174618669071e-09
314 305 -7.7178439166092295e-10
315 305 9.3521525193392649e-10
281 306 -3.6364926169719325e-10
282 306 5.2646356669806771e-10
283 306 -3.4326558006595933e-10
284 306 2.8697265940593584e-10
285 306 -3.2568471250087108e-10
290 306 -2.3941291268934175e-10
291 306 3.4660368988445209e-10
292 306 -2.2599306806243427e-10
293 306 1.8893193933607211e-10
294 306 -2.1441849015261243e-10
298 306 3.3706759380643131e-10
299 306 -4.8798066253585074e-10
300 306 3.1817389802855424e-10
301 306 -2.6599582065076946e-10
302 306 3.018781390339208e-10
305 306 -1.4734331304137843e-09
306 306 3.3326788739669529e-09
307 306 -1.3908425823260613e-09
308 306 1.1627550731664809e-09
309 306 -1.3196084689638613e-09
311 306 -1.8115142034982527e-09
312 306 2.6225716071768949e-09
313 306 -1.7099731509405439e-09
314 306 1.4295506777692751e-09
315 306 -1.6223942812479699e-09
281 307 3.2554884557377187e-10
282 307 -3.4326558006595933e-10
283 307 4.9985794157144288e-10
284 307 -4.4534635334768854e-10
285 307 6.2018334441678497e-10
290 307 2.1432904050928532e-10
291 307 -2.2599306806243427e-10
292 307 3.2908755311090902e-10
293 307 -2.9319918625142042e-10
294 307 4.0830524499147003e-10
298 307 -3.0175220357077295e-10
299 307 3.1817389802855424e-10
300 307 -4.6331982862876908e-10
301 307 4.1279287364089455e-10
302 307 -5.7484980622746137e-10
305 307 1.3190579637028823e-09
306 307 -1.3908425823260613e-09
307 307 3.2248782714468759e-09
308 307 -1.8044531933570886e-09
309 307 2.5128572579240477e-09
311 307 1.6217174618669069e-09
312 307 -1.7099731509405439e-09
313 307 2.4900360216929801e-09
314 307 -2.2184872335510534e-09
315 307 3.0894354960070191e-09
281 308 -1.5493051264788651e-10
282 308 2.8697265940593579e-10
283 308 -4.4534635334768854e-10
284 308 7.1067527526130316e-10
285 308 -9.2590343190879501e-10
290 308 -1.0200038664830238e-10
291 308 1.8893193933607206e-10
292 308 -2.9319918625142042e-10
293 308 4.6788170786466769e-10
294 308 -6.0957978153940838e-10
298 308 1.436055578985465e-10
299 308 -2.6599582065076936e-10
300 308 4.1279287364089455e-10
301 308 -6.5872704894838383e-10
302 308 8.5822267432647789e-10
305 308 -6.2774704720141536e-10
306 308 1.1627550731664809e-09
307 308 -1.8044531933570886e-09
308 308 4.0790673944342677e-09
309 308 -3.7515731113301243e-09
311 308 -7.7178439166092316e-10
312 308 1.4295506777692755e-09
313 308 -2.2184872335510534e-09
314 308 3.5402199064077393e-09
315 308 -4.6123762499680752e-09
281 309 1.8773815586815246e-10
282 309 -3.2568471250087103e-10
283 309 6.2018334441678497e-10
284 309 -9.2590343190879501e-10
285 309 1.4460294951701204e-09
290 309 1.2359969743798582e-10
291 309 -2.1441849015261241e-10
292 309 4.0830524499147003e-10
293 309 -6.0957978153940838e-10
294 309 9.5201109898485732e-10
298 309 -1.7401506102005463e-10
299 309 3.018781390339208e-10
300 309 -5.7484980622746137e-10
301 309 8.5822267432647789e-10
302 309 -1.3403290858761092e-09
305 309 7.6067697046298679e-10
306 309 -1.3196084689638613e-09
307 309 2.5128572579240477e-09
308 309 -3.7515731113301243e-09
309 309 7.0585737053956515e-09
311 309 9.3521525193392629e-10
312 309 -1.6223942812479701e-09
313 309 3.0894354960070191e-09
314 309 -4.6123762499680752e-09
315 309 7.2033776638306837e-09
276 310 0.023803485573946452
277 310 0.021516222038991471
278 310 0.015718261313429165
279 310 0.067295682240694779
280 310 0.22102212565670401
286 310 0.017458987809545475
287 310 0.044405952434189717
288 310 0.11837019381700405
289 310 0.29767517690522216
295 310 0.090044864589354526
296 310 0.27478544343943467
297 310 0.53222738432232242
303 310 0.38268608964056433
304 310 0.9189944269850171
310 310 1.0000000160088642
316 310 0.0098477952108838914
317 310 -0.0017798953260068206
318 310 -0.016716124442594731
319 310 -0.022163237294402637
320 310 -0.041106422795767192
321 310 -0.00098614486881652046
322 310 -0.011971566310204733
323 310 -0.028911273619180961
324 310 -0.035546625430820912
325 310 -0.0096094175491621865
326 310 -0.025354954446622988
327 310 -0.045699486766727533
328 310 -0.021480476909797486
329 310 -0.025269232839351667
330 310 -0.0086367052911276339
281 311 3.7426232894176613e-10
282 311 -3.5332879409392323e-10
283 311 3.1630967842038497e-10
284 311 -1.5053354143150618e-10
285 311 1.8241009457499264e-10
290 311 1.5421426299601846e-09
291 311 -1.4558862958645385e-09
292 311 1.3033495536147637e-09
293 311 -6.2027132716454656e-10
294 311 7.5161821328519229e-10
298 311 1.0653858766380967e-09
299 311 -1.0057958761214446e-09
300 311 9.0041620001101154e-10
301 311 -4.2851309522630699e-10
302 311 5.1925380538807802e-10
305 311 1.9188402871352761e-09
306 311 -1.8115142034982527e-09
307 311 1.6217174618669069e-09
308 311 -7.7178439166092316e-10
309 311 9.3521525193392629e-10
311 311 9.9491802442723937e-09
312 311 -8.2602341679693476e-09
313 311 7.3947893775476407e-09
314 311 -3.5192215385294065e-09
315 311 4.2644418484340813e-09
281 312 -3.5332879409392323e-10
282 312 5.1152238364973341e-10
283 312 -3.3352360703993305e-10
284 312 2.7882829518916102e-10
285 312 -3.1644168940614964e-10
290 312 -1.4558862958645385e-09
291 312 2.1077207429226552e-09
292 312 -1.3742793028854344e-09
293 312 1.1489080444354122e-09
294 312 -1.3038935030134285e-09
298 312 -1.0057958761214446e-09
299 312 1.4561142839718588e-09
300 312 -9.4941786278743384e-10
301 312 7.9372061981645968e-10
302 312 -9.0079198626818689e-10
305 312 -1.8115142034982527e-09
306 312 2.6225716071768949e-09
307 312 -1.7099731509405439e-09
308 312 1.4295506777692755e-09
309 312 -1.6223942812479701e-09
311 312 -8.2602341679693476e-09
312 312 1.3158089941835005e-08
313 312 -7.7972221362839069e-09
314 312 6.5185375475113653e-09
315 312 -7.3978755728235058e-09
281 313 3.1630967842038503e-10
282 313 -3.3352360703993305e-10
283 313 4.8567183359435321e-10
284 313 -4.3270729946783642e-10
285 313 6.0258236790367763e-10
290 313 1.3033495536147639e-09
291 313 -1.3742793028854344e-09
292 313 2.0012039172484252e-09
293 313 -1.7829643039177672e-09
294 313 2.482932119388387e-09
298 313 9.0041620001101175e-10
299 313 -9.4941786278743384e-10
300 313 1.3825273669818415e-09
301 313 -1.2317570055066224e-09
302 313 1.7153282460752546e-09
305 313 1.6217174618669071e-09
306 313 -1.7099731509405439e-09
307 313 2.4900360216929801e-09
308 313 -2.2184872335510534e-09
309 313 3.0894354960070191e-09
311 313 7.3947893775476407e-09
312 313 -7.7972221362839069e-09
313 313 1.25537474699008e-08
314 313 -1.0115970392279556e-08
315 313 1.4087364368754797e-08
281 314 -1.5053354143150615e-10
282 314 2.7882829518916097e-10
283 314 -4.3270729946783642e-10
284 314 6.9050611247915332e-10
285 314 -8.9962603393423717e-10
290 314 -6.2027132716454635e-10
291 314 1.148908044435412e-09
292 314 -1.7829643039177672e-09
293 314 2.84522066464208e-09
294 314 -3.7068963415975053e-09
298 314 -4.2851309522630688e-10
299 314 7.9372061981645948e-10
300 314 -1.2317570055066224e-09
301 314 1.9656144983857893e-09
302 314 -2.5609012628108039e-09
305 314 -7.7178439166092295e-10
306 314 1.4295506777692751e-09
307 314 -2.2184872335510534e-09
308 314 3.5402199064077393e-09
309 314 -4.6123762499680752e-09
311 314 -3.5192215385294065e-09
312 314 6.5185375475113653e-09
313 314 -1.0115970392279556e-08
314 314 1.7342429110055549e-08
315 314 -2.1031746713297782e-08
281 315 1.8241009457499272e-10
282 315 -3.1644168940614959e-10
283 315 6.0258236790367763e-10
284 315 -8.9962603393423717e-10
285 315 1.4049907742646372e-09
290 315 7.516182132851926e-10
291 315 -1.3038935030134283e-09
292 315 2.482932119388387e-09
293 315 -3.7068963415975053e-09
294 315 5.7892446023639043e-09
298 315 5.1925380538807823e-10
299 315 -9.0079198626818679e-10
300 315 1.7153282460752546e-09
301 315 -2.5609012628108039e-09
302 315 3.9994870227542304e-09
305 315 9.3521525193392649e-10
306 315 -1.6223942812479699e-09
307 315 3.0894354960070191e-09
308 315 -4.6123762499680752e-09
309 315 7.2033776638306837e-09
311 315 4.2644418484340813e-09
312 315 -7.3978755728235058e-09
313 315 1.4087364368754797e-08
314 315 -2.1031746713297782e-08
315 315 3.4045881289505251e-08
276 316 0.017309883328621666
277 316 0.0010950511649792764
278 316 -0.012248018285719605
279 316 -0.00061538648668572372
280 316 -0.0025135599528104866
286 316 0.0043246132713462507
287 316 0.0002398323391467763
288 316 -0.0073807891192650453
289 316 -0.0011226601430904474
295 316 0.0077662640205352152
296 316 -0.0002674413172579476
297 316 -0.00530539049051988
303 316 0.0092337924645861848
304 316 0.0016526501971348424
310 316 0.0098477952108838914
316 316 0.033691272098262871
317 316 -0.024261831258816799
318 316 -0.0091647411623251903
319 316 0.017615614660368959
320 316 -0.012535679321677394
321 316 0.01360540998775461
322 316 -0.0033231091428459407
323 316 -0.01085021217993439
324 316 0.011144779696319848
325 316 0.012413603381163147
326 316 -0.009793940618176733
327 316 -0.004180250055479195
328 316 0.017129976033481625
329 316 -0.013925049486477289
330 316 0.018889760937115186
276 317 0.0010950511649792701
277 317 0.0084192051475092695
278 317 -0.00012086864364942102
279 317 -0.011588119049396529
280 317 -0.0034278523617600394
286 317 0.0005047920637109714
287 317 -0.0015844569509436298
288 317 -0.0017743605027047305
289 317 -0.0075990254368894887
295 317 -0.00066440324246378813
296 317 0.0024046366615634112
297 317 -0.0019254543906560371
303 317 -0.0007712427552299979
304 317 0.0031060394808127409
310 317 -0.0017798953260068206
316 317 -0.024261831258816799
317 317 0.027440844844064598
318 317 -0.0051596292554330191
319 317 -0.014194408496717761
320 317 0.013920925591791705
321 317 -0.013955122725052895
322 317 0.0066232190326793849
323 317 0.0043806493363018383
324 317 -0.0097497517576618266
325 317 -0.0072091248799926637
326 317 0.011067869325639683
327 317 -0.0042661639304081671
328 317 -0.013323342461671571
329 317 0.018924156170105805
330 317 -0.016212166442229368
276 318 -0.012248018285719602
277 318 0.00079921693708348508
278 318 0.013692356879604635
279 318 -0.0035985186705702671
280 318 -0.014863639831241629
286 318 -0.0012830299428624444
287 318 -0.0013996508667433911
288 318 -0.00058564147581849715
289 318 -0.0065258822943205569
295 318 -0.011379099401752515
296 318 -0.0043270144904936792
297 318 -0.0011304158839963109
303 318 -0.011764313079991935
304 318 -0.011380234726610532
310 318 -0.016716124442594731
316 318 -0.0091647411623251903
317 318 -0.0051596292554330191
318 318 0.028507553074643449
319 318 -0.021671454990809833
320 318 0.0088096086987642253
321 318 0.0054965704719202252
322 318 -0.013415543967533753
323 318 0.018658577575279507
324 318 -0.017147365912234685
325 318 -0.0014677024152237991
326 318 -0.008891450406155077
327 318 0.028427414761690598
328 318 0.0054399024942627904
329 318 -0.024062174432038307
330 318 0.015349206415242813
276 319 -0.00061538648668572633
277 319 -0.011588119049396529
278 319 0.0028420803945600178
279 319 0.011980981585005459
280 319 -0.008335792413855056
286 319 0.00069713391649250001
287 319 0.00019643126780446529
288 319 -0.0027468560096475174
289 319 -0.0090916665037604587
295 319 -0.0032548409145430062
296 319 -0.020876216820961455
297 319 -0.014981712571193673
303 319 -0.011906190956057017
304 319 -0.031955671336425365
310 319 -0.022163237294402637
316 319 0.017615614660368959
317 319 -0.014194408496717761
318 319 -0.021671454990809833
319 319 0.062828618597513916
320 319 -0.07453010500959821
321 319 0.0011457900720429051
322 319 0.024317105193759556
323 319 -0.048100779969156501
324 319 0.075285979255521107
325 319 -0.017542564849943938
326 319 0.036774465509297145
327 319 -0.07090768118919942
328 319 -0.03366947589888853
329 319 0.077613292513270496
330 319 -0.072057708715225738
276 320 -0.0025135599528104866
277 320 0.00025248996117156693
278 320 -0.014863639831241619
279 320 0.013010193059148179
280 320 0.0037123894764650839
286 320 -0.0065118702352979516
287 320 0.0066313415101598751
288 320 -0.005575625177388268
289 320 -0.0062500707514741675
295 320 5.5747910201774391e-05
296 320 -0.012628922300462477
297 320 -0.041235711288573208
303 320 -0.025159740796713317
304 320 -0.035497079960860406
310 320 -0.041106422795767192
316 320 -0.012535679321677394
317 320 0.013920925591791705
318 320 0.0088096086987642253
319 320 -0.07453010500959821
320 320 0.17742224288574618
321 320 -0.0031531723039998584
322 320 -0.03030459105690583
323 320 0.093115923292015609
324 320 -0.16745978128882391
325 320 0.0564603962598349
326 320 -0.12323426297557809
327 320 0.18252050137630688
328 320 0.11967897246973282
329 320 -0.23830548722045411
330 320 0.22801739737725948
276 321 0.0043246132713462516
277 321 0.00083009144041507597
278 321 -0.001283029942862445
279 321 -0.0015799617204361792
280 321 -0.0065118702352979568
286 321 0.0017086870491414144
287 321 -0.00037493514001055178
288 321 -0.0038974500890802009
289 321 -0.0028685778833148685
295 321 -0.00013998716511988632
296 321 -0.0016635513028892409
297 321 -0.0030523576138273278
303 321 0.00045758345486114518
304 321 -0.0031971954747730493
310 321 -0.00098614486881652046
316 321 0.01360540998775461
317 321 -0.013955122725052895
318 321 0.0054965704719202252
319 321 0.0011457900720429051
320 321 -0.0031531723039998584
321 321 0.0087460421107220659
322 321 -0.0064046678221688896
323 321 0.0011717004262443672
324 321 -0.00049012246491120909
325 321 0.0056878899927352913
326 321 -0.0080405735534575407
327 321 0.0079604841798724176
328 321 0.01048828514361288
329 321 -0.015469789648266799
330 321 0.014871645413946522
276 322 0.00023983233914677166
277 322 -0.0015844569509436302
278 322 0.0013606058754552979
279 322 0.00019643126780446253
280 322 -0.0058818223878075483
286 322 0.00060096299010173543
287 322 -0.00069401284156958337
288 322 -0.0022606082561761253
289 322 -0.0083453459703249754
295 322 -0.0019596220785033981
296 322 -0.0092357900796990206
297 322 -0.0084535834809248561
303 322 -0.0063387168556435078
304 322 -0.01442481592780631
310 322 -0.011971566310204733
316 322 -0.0033231091428459407
317 322 0.0066232190326793849
318 322 -0.013415543967533753
319 322 0.024317105193759556
320 322 -0.03030459105690583
321 322 -0.0064046678221688896
322 322 0.015470166703119161
323 322 -0.02186006817059177
324 322 0.032768118079795738
325 322 -0.012375846834850202
326 322 0.023921169764965885
327 322 -0.037586925716104724
328 322 -0.02349641148294113
329 322 0.048268728609417444
330 322 -0.044134941430178438
276 323 -0.0073807891192650436
277 323 0.00052585344912752581
278 323 -0.00058564147581849119
279 323 0.0047058371942889565
280 323 -0.0055756251773882749
286 323 -0.0038974500890801983
287 323 0.0026158453217082411
288 323 -0.0030806333266033821
289 323 -0.0063879765228973609
295 323 -0.00566167574577537
296 323 -0.0084779683954780746
297 323 -0.021183063586284759
303 323 -0.018462026938352624
304 323 -0.023438657343735476
310 323 -0.028911273619180961
316 323 -0.01085021217993439
317 323 0.0043806493363018383
318 323 0.018658577575279507
319 323 -0.048100779969156501
320 323 0.093115923292015609
321 323 0.0011717004262443672
322 323 -0.02186006817059177
323 323 0.055887256640133512
324 323 -0.092303578191189908
325 323 0.027496345580340895
326 323 -0.066062858682155015
327 323 0.10547395875902234
328 323 0.062559441936077001
329 323 -0.13118383754254795
330 323 0.12168330680061189
276 324 -0.0011226601430904478
277 324 -0.0075990254368894792
278 324 0.0072754014166729044
279 324 -0.009091666503760398
280 324 0.008576451178050214
286 324 0.0020109127672465889
287 324 -0.0083453459703249373
288 324 0.0079259262973615605
289 324 -0.016187611959956008
295 324 0.0024709033217121057
296 324 -0.015441291426520558
297 324 -0.017022359996813965
303 324 -0.015170199095882799
304 324 -0.048157980330915215
310 324 -0.035546625430820912
316 324 0.011144779696319848
317 324 -0.0097497517576618266
318 324 -0.017147365912234685
319 324 0.075285979255521107
320 324 -0.16745978128882391
321 324 -0.00049012246491120909
322 324 0.032768118079795738
323 324 -0.092303578191189908
324 324 0.19222385466240061
325 324 -0.053633585073271615
326 324 0.14970597877421127
327 324 -0.24091722625527834
328 324 -0.1587193031274152
329 324 0.31991147737720077
330 324 -0.30259136770228162
276 325 0.0077662640205352169
277 325 0.00063679426435260978
278 325 -0.011379099401752512
279 325 0.0042921046249920543
280 325 5.5747910201777054e-05
286 325 -0.00013998716511988483
287 325 0.0024644494446723324
288 325 -0.0056616757457753682
289 325 -0.0027710637771767642
295 325 0.0039028418729379361
296 325 -0.0045987189574964882
297 325 -0.017231720784860328
303 325 -0.0042784154328328146
304 325 -0.011723787877755337
310 325 -0.0096094175491621865
316 325 0.012413603381163147
317 325 -0.0072091248799926637
318 325 -0.0014677024152237991
319 325 -0.017542564849943938
320 325 0.0564603962598349
321 325 0.0056878899927352913
322 325 -0.012375846834850202
323 325 0.027496345580340895
324 325 -0.053633585073271615
325 325 0.0261685705134336
326 325 -0.048466866288801251
327 325 0.062440623132738668
328 325 0.050877898209881839
329 325 -0.091216245139524407
330 325 0.090061211879254505
276 326 -0.00026744131725794999
277 326 0.0024046366615634203
278 326 0.0057939268975681852
279 326 -0.020876216820961392
280 326 0.011030421204097718
286 326 0.0019147418408558248
287 326 -0.0092357900796989859
288 326 0.0084121740508329539
289 326 -0.015441291426520528
295 326 0.0037661221577517156
296 326 -0.0038008646852581282
297 326 -0.010494230906545155
303 326 -0.0096027249954692955
304 326 -0.030627124922296155
310 326 -0.025354954446622988
316 326 -0.009793940618176733
317 326 0.011067869325639683
318 326 -0.008891450406155077
319 326 0.036774465509297145
320 326 -0.12323426297557809
321 326 -0.0080405735534575407
322 326 0.023921169764965885
323 326 -0.066062858682155015
324 326 0.14970597877421127
325 326 -0.048466866288801251
326 326 0.13685268622134628
327 326 -0.20759647239405815
328 326 -0.14854624021974139
329 326 0.29056691638778553
330 326 -0.27466860384135255
276 327 -0.0053053904905198792
277 327 0.0026749735130084298
278 327 -0.0011304158839962153
279 327 0.013383211474828963
280 327 -0.041235711288573035
286 327 -0.0030523576138272944
287 327 0.0080290924939186957
288 327 -0.021183063586284624
289 327 0.017161010007367163
295 327 -0.01723172078486027
296 327 0.011806891026456897
297 327 -0.014571407152007304
303 327 -0.012556573685307118
304 327 -0.026871947890834264
310 327 -0.045699486766727533
316 327 -0.004180250055479195
317 327 -0.0042661639304081671
318 327 0.028427414761690598
319 327 -0.07090768118919942
320 327 0.18252050137630688
321 327 0.0079604841798724176
322 327 -0.037586925716104724
323 327 0.10547395875902234
324 327 -0.24091722625527834
325 327 0.062440623132738668
326 327 -0.20759647239405815
327 327 0.38944310039070068
328 327 0.26323711795526622
329 327 -0.55740083893328263
330 327 0.53090633478254767
276 328 0.0092337924645861814
277 328 0.0021564516351068614
278 328 -0.011764313079991867
279 328 0.010427934821655634
280 328 -0.025159740796713181
286 328 0.0004575834548611673
287 328 0.0062921932283812468
288 328 -0.018462026938352527
289 328 0.013880584288443939
295 328 -0.0042784154328327721
296 328 0.0097448426951695592
297 328 -0.012556573685307064
303 328 -0.00010262939162417198
304 328 -0.01415149090539254
310 328 -0.021480476909797486
316 328 0.017129976033481625
317 328 -0.013323342461671571
318 328 0.0054399024942627904
319 328 -0.03366947589888853
320 328 0.11967897246973282
321 328 0.01048828514361288
322 328 -0.02349641148294113
323 328 0.062559441936077001
324 328 -0.1587193031274152
325 328 0.050877898209881839
326 328 -0.14854624021974139
327 328 0.26323711795526622
328 328 0.19277844812428988
329 328 -0.39259717805057409
330 328 0.37942558603220083
276 329 0.0016526501971348396
277 329 0.0031060394808128024
278 329 0.0097817336302459239
279 329 -0.031955671336424997
280 329 0.033447999555390913
286 329 0.0042846901894211193
287 329 -0.014424815927806098
288 329 0.021614866592818426
289 329 -0.048157980330914688
295 329 0.012651978749938196
296 329 -0.030627124922295797
297 329 0.026119405283133473
303 329 0.015837168603977148
304 329 -0.016644101058516336
310 329 -0.025269232839351667
316 329 -0.013925049486477289
317 329 0.018924156170105805
318 329 -0.024062174432038307
319 329 0.077613292513270496
320 329 -0.23830548722045411
321 329 -0.015469789648266799
322 329 0.048268728609417444
323 329 -0.13118383754254795
324 329 0.31991147737720077
325 329 -0.091216245139524407
326 329 0.29056691638778553
327 329 -0.55740083893328263
328 329 -0.39259717805057409
329 329 0.91193109896417324
330 329 -0.9122617054402653
276 330 0.0098477952108838914
277 330 0.0034248947012586661
278 330 -0.016716124442594474
279 330 0.020714318644498825
280 330 -0.041106422795766505
286 330 -0.00098614486881642852
287 330 0.012069606672878741
288 330 -0.028911273619180489
289 330 0.033467538437206151
295 330 -0.0096094175491619402
296 330 0.024822826465586079
297 330 -0.045699486766726881
303 330 -0.02148047690979717
304 330 0.028173890867186149
310 330 -0.0086367052911276339
316 330 0.018889760937115186
317 330 -0.016212166442229368
318 330 0.015349206415242813
319 330 -0.072057708715225738
320 330 0.22801739737725948
321 330 0.014871645413946522
322 330 -0.044134941430178438
323 330 0.12168330680061189
324 330 -0.30259136770228162
325 330 0.090061211879254505
326 330 -0.27466860384135255
327 330 0.53090633478254767
328 330 0.37942558603220083
329 330 -0.9122617054402653
330 330 0.9955204388094413
331 331 0.029403636612928642
332 331 0.017061877135125282
333 331 -0.012441413035491558
334 331 -0.010150030840729145
335 331 -0.0048388966894573485
341 331 0.010303111304244217
342 331 0.0034559239237096982
343 331 -0.0086401527457806004
344 331 -0.0097664406516056058
350 331 0.012991004721749725
351 331 0.0038395101664705747
352 331 -0.010103442564509124
358 331 0.011956301161192529
359 331 0.0085280933020873868
365 331 0.015105568291482265
371 331 0.019179443547374712
372 331 -0.0026027256985312565
373 331 -0.016936243973652006
374 331 0.0046805963360052084
375 331 0.0045553485176182398
376 331 0.0036018552928877923
377 331 0.0010389353187369762
378 331 -0.0061904477280168837
379 331 0.00037218446913380826
380 331 0.011200280687425328
381 331 -0.0032694765481344253
382 331 -0.0098902632655945878
383 331 0.0085841160316647794
384 331 0.00043981962671881745
385 331 0.01047067270049375
331 332 0.017061877135125282
332 332 0.020836820853957466
333 332 0.0053485955790918173
334 332 -0.011066065676644995
335 332 -0.011967102098150165
341 332 0.010421954390592623
342 332 0.0048853705289528121
343 332 -0.0033092558104700336
344 332 -0.0084905071493166073
350 332 0.0042999289595899125
351 332 0.0074609312747570579
352 332 0.0014302696427188988
358 332 0.0076512758757493011
359 332 0.010959043675542625
365 332 0.010467950367009588
371 332 -0.0026027256985312521
372 332 0.0069731192331446935
373 332 0.0019304591234480203
374 332 -0.0099075718972776242
375 332 0.0023710791450007483
376 332 -0.00061884248076885797
377 332 -0.0014672263320664645
378 332 0.0021507691342243841
379 332 -0.0058476765690241572
380 332 -0.00046305977818561115
381 332 0.0025926689961869999
382 332 0.0028800871288374602
383 332 5.2645921446667566e-05
384 332 0.00047951289347017417
385 332 0.0013044654342892021
331 333 -0.012441413035491558
332 333 0.0053485955790918173
333 333 0.029671480020396331
334 333 0.013269996553311457
335 333 0.00046942393606853107
341 333 0.004269744771258078
342 333 0.0093092976948008343
343 333 0.015070445872037683
344 333 0.014343386086871333
350 333 -0.0060547442458184801
351 333 0.010382683355552313
352 333 0.030131257339108788
358 333 0.0045948652033769395
359 333 0.020776217030650454
365 333 0.012391699388473303
371 333 -0.016936243973652006
372 333 0.0010080937129244767
373 333 0.02055583055380358
374 333 -0.001395459139400099
375 333 -0.021365867729832556
376 333 -0.0012005383980679346
377 333 -0.00019368271323781081
378 333 -0.0004050185880144867
379 333 0.0074919141814551319
380 333 -0.016022096965675713
381 333 0.0086936906076174186
382 333 0.0044681364227344231
383 333 -0.012576256011801958
384 333 0.008714708009170135
385 333 -0.019799622867643852
331 334 -0.010150030840729145
332 334 -0.011066065676644995
333 334 0.013269996553311457
334 334 0.05255206747672856
335 334 0.067033546133790589
341 334 -0.00038336221423790605
342 334 0.020742992950682083
343 334 0.040151762108360016
344 334 0.067460519311866265
350 334 0.018624915360222472
351 334 0.035651445248695839
352 334 0.067737778879229424
358 334 0.03813117703041858
359 334 0.083214672219688646
365 334 0.077172279799558208
371 334 0.0046805963360052102
372 334 -0.0099075718972776207
373 334 -0.0078520170130648593
374 334 0.01066555591913864
375 334 0.011321437643176566
376 334 -0.00043580906996254563
377 334 0.00037899201093051065
378 334 0.0017347103150558547
379 334 -0.011748417120327507
380 334 0.0063430308331380025
381 334 -0.022034981028535645
382 334 0.012325109758933681
383 334 0.013831574095378257
384 334 -0.028101424980017817
385 334 0.023639446325065722
331 335 -0.0048388966894573485
332 335 -0.011967102098150165
333 335 0.00046942393606853107
334 335 0.067033546133790589
335 335 0.1701998949854619
341 335 -0.0022534840128352086
342 335 0.02753321197322494
343 335 0.085334643713590411
344 335 0.15969435772055915
350 335 0.057755281868847694
351 335 0.12019401459947825
352 335 0.17873638382306326
358 335 0.12380029114544716
359 335 0.24587652654198155
365 335 0.23639606147412762
371 335 0.0045553485176182355
372 335 -0.001318382497093423
373 335 -0.021365867729832566
374 335 -0.010077439880969517
375 335 0.0049185405553216861
376 335 -0.0052763007200405986
377 335 -0.005697911189031471
378 335 -0.0082236635872554361
379 335 0.0055869609457997529
380 335 0.0040166409489136266
381 335 0.0099664896377377951
382 335 -0.045640035611496828
383 335 -0.022440729436826092
384 335 0.03759504659597647
385 335 -0.035954867778143357
336 336 2.0094521806318057e-08
337 336 8.7837785104956928e-09
338 336 -1.4381026957596006e-08
339 336 -1.4498635977903673e-08
340 336 1.1633459311263493e-08
345 336 5.0350031502497584e-09
346 336 2.3392754976741799e-09
347 336 -3.8299217077364268e-09
348 336 -3.861243068945894e-09
349 336 3.0981958718005604e-09
353 336 -1.3588573526070468e-08
354 336 -6.3132864368324935e-09
355 336 1.0336274113768574e-08
356 336 1.0420804869168469e-08
357 336 -8.3614768741587679e-09
360 336 -1.2819783482544733e-08
361 336 -5.9561045924504482e-09
362 336 9.7514868577278733e-09
363 336 9.8312351830221735e-09
364 336 -7.8884161693179681e-09
366 336 5.2691658504836829e-09
367 336 2.4480680943777733e-09
368 336 -4.008039731103224e-09
369 336 -4.0408177536685934e-09
370 336 3.2422835495130222e-09
336 337 8.7837785104956928e-09
337 337 9.1803634682831724e-09
338 337 -4.7252522792647446e-09
339 337 -4.9168873405281599e-09
340 337 -2.5625666454406003e-09
345 337 2.3392754976741795e-09
346 337 2.1283698434793039e-09
347 337 -1.2584182153506165e-09
348 337 -1.3094540199047892e-09
349 337 -6.8245679893606794e-10
353 337 -6.3132864368324927e-09
354 337 -5.7440897742745172e-09
355 337 3.3962458285631839e-09
356 337 3.5339823427125613e-09
357 337 1.8418289152906362e-09
360 337 -5.9561045924504474e-09
361 337 -5.4191109220713859e-09
362 337 3.2040990978297608e-09
363 337 3.3340430014814415e-09
364 337 1.7376252084602904e-09
366 337 2.4480680943777729e-09
367 337 2.2273538589353515e-09
368 337 -1.3169434234858766e-09
369 337 -1.3703527482636509e-09
370 337 -7.1419579135833545e-10
336 338 -1.4381026957596006e-08
337 338 -4.7252522792647446e-09
338 338 1.803519575668329e-08
339 338 1.2557709443833896e-08
340 338 -5.8050047906603661e-09
345 338 -3.8299217077364268e-09
346 338 -1.2584182153506169e-09
347 338 4.4865682183037207e-09
348 338 3.3443400210707863e-09
349 338 -1.545975397085314e-09
353 338 1.0336274113768574e-08
354 338 3.3962458285631852e-09
355 338 -1.2108445674185309e-08
356 338 -9.0257759362565974e-09
357 338 4.1723112629527757e-09
360 338 9.7514868577278733e-09
361 338 3.2040990978297616e-09
362 338 -1.1423395660729051e-08
363 338 -8.5151317055302825e-09
364 338 3.936257688139029e-09
366 338 -4.008039731103224e-09
367 338 -1.316943423485877e-09
368 338 4.6952248759921264e-09
369 338 3.499875115382588e-09
370 338 -1.6178740161474994e-09
336 339 -1.4498635977903673e-08
337 339 -4.9168873405281599e-09
338 339 1.2557709443833896e-08
339 339 1.7820101537822401e-08
340 339 -1.4975652945279547e-08
345 339 -3.8612430689458932e-09
346 339 -1.309454019904789e-09
347 339 3.3443400210707863e-09
348 339 4.4292848253685037e-09
349 339 -3.9882811201016554e-09
353 339 1.0420804869168466e-08
354 339 3.5339823427125609e-09
355 339 -9.0257759362565974e-09
356 339 -1.1953848035714244e-08
357 339 1.0763657861952223e-08
360 339 9.8312351830221719e-09
361 339 3.3340430014814407e-09
362 339 -8.5151317055302825e-09
363 339 -1.127754457133329e-08
364 339 1.0154690851521708e-08
366 339 -4.0408177536685926e-09
367 339 -1.3703527482636507e-09
368 339 3.499875115382588e-09
369 339 4.6352774064778108e-09
370 339 -4.173763958643407e-09
336 340 1.1633459311263493e-08
337 340 -2.5625666454406003e-09
338 340 -5.8050047906603661e-09
339 340 -1.4975652945279547e-08
340 340 4.9576137462006829e-08
345 340 3.0981958718005591e-09
346 340 -6.8245679893606794e-10
347 340 -1.5459753970853136e-09
348 340 -3.9882811201016554e-09
349 340 1.2886478577686091e-08
353 340 -8.3614768741587662e-09
354 340 1.8418289152906362e-09
355 340 4.1723112629527749e-09
356 340 1.0763657861952223e-08
357 340 -3.4778302300830388e-08
360 340 -7.8884161693179648e-09
361 340 1.7376252084602904e-09
362 340 3.9362576881390281e-09
363 340 1.0154690851521708e-08
364 340 -3.2810677627916073e-08
366 340 3.242283549513021e-09
367 340 -7.1419579135833545e-10
368 340 -1.617874016147499e-09
369 340 -4.173763958643407e-09
370 340 1.3485789547354088e-08
331 341 0.010303111304244217
332 341 0.010421954390592623
333 341 0.004269744771258078
334 341 -0.00038336221423790605
335 341 -0.0022534840128352086
341 341 0.0066611412746863941
342 341 0.0050192932558975481
343 341 0.0010081290035396401
344 341 0.00018793263805983964
350 341 0.0043548291052135949
351 341 0.0055905896603676295
352 341 0.0056012874900379416
358 341 0.0076026811165325458
359 341 0.011609549601625607
365 341 0.011933910860786044
371 341 0.0036018552928877893
372 341 -0.00094494789902541555
373 341 -0.0012005383980679359
374 341 0.0018469288578333279
375 341 -0.0052763007200405925
376 341 0.0013764732252695598
377 341 0.00045099047940395617
378 341 -0.003238419559054264
379 341 0.0028348838954541972
380 341 -6.4526362916188514e-05
381 341 0.0014389455170248258
382 341 -0.0033654068509062383
383 341 -0.00015431993810923513
384 341 0.0033010243780318689
385 341 -0.0017648874470767278
331 342 0.0034559239237096982
332 342 0.0048853705289528121
333 342 0.0093092976948008343
334 342 0.020742992950682083
335 342 0.02753321197322494
341 342 0.0050192932558975481
342 342 0.012814189451762931
343 342 0.018421256308369813
344 342 0.029485001957953193
350 342 0.011462419638770028
351 342 0.021556191518097019
352 342 0.0345840320135615
358 342 0.022891233000055369
359 342 0.047086862814201942
365 342 0.043820111053926206
371 342 0.0010389353187369792
372 342 -0.0014672263320664627
373 342 -0.0029607789448084193
374 342 0.00037899201093050838
375 342 0.0068462583940886567
376 342 -0.00052732577536570159
377 342 -0.00054411716056797742
378 342 0.0019427397246401196
379 342 -0.0087980468446758348
380 342 0.0029399855274761955
381 342 -0.0097211560161743222
382 342 0.0076025984438855701
383 342 0.0069421100084124622
384 342 -0.013810956043273823
385 342 0.012471955879677463
331 343 -0.0086401527457806004
332 343 -0.0033092558104700336
333 343 0.015070445872037683
334 343 0.040151762108360016
335 343 0.085334643713590411
341 343 0.0010081290035396401
342 343 0.018421256308369813
343 343 0.050202548533728436
344 343 0.087018870313454358
350 343 0.025850273127954931
351 343 0.065288357026335356
352 343 0.10443382957524958
358 343 0.064197585223166972
359 343 0.13332637927161642
365 343 0.12439387421611207
371 343 -0.0061904477280168855
372 343 -0.00015514439208447282
373 343 -0.0004050185880144937
374 343 -0.0057364495101848096
375 343 -0.0082236635872554326
376 343 -0.003238419559054267
377 343 -0.0029457969511346408
378 343 -0.0043143410876349594
379 343 0.0065394375636274402
380 343 -0.0060027280083810456
381 343 0.0093300901226776086
382 343 -0.020585949594381207
383 343 -0.017508492724314026
384 343 0.023154877302573297
385 343 -0.027877245322893606
331 344 -0.0097664406516056058
332 344 -0.0084905071493166073
333 344 0.014343386086871333
334 344 0.067460519311866265
335 344 0.15969435772055915
341 344 0.00018793263805983964
342 344 0.029485001957953193
343 344 0.087018870313454358
344 344 0.18675097565392557
350 344 0.051577256453601984
351 344 0.14877544808437973
352 344 0.24091426723318107
358 344 0.16039773854913369
359 344 0.32411107261722494
365 344 0.3063119405657691
371 344 0.00037218446913380961
372 344 -0.0058476765690241642
373 344 -0.0063435669763979245
374 344 -0.011748417120327575
375 344 -0.0092762988123509353
376 344 -0.0020566973783941026
377 344 -0.0087980468446758695
378 344 -0.0078099328943744247
379 344 -0.017780320486742
380 344 -0.0030935746626961276
381 344 -0.014829950211090296
382 344 0.017730245695411043
383 344 0.014966058810856657
384 344 -0.046713660560879798
385 344 0.035224146061686293
336 345 5.0350031502497584e-09
337 345 2.3392754976741795e-09
338 345 -3.8299217077364268e-09
339 345 -3.8612430689458932e-09
340 345 3.0981958718005591e-09
345 345 5.3709343146802972e-09
346 345 1.9431616470600184e-09
347 345 -3.1813939748077487e-09
348 345 -3.2074116319398235e-09
349 345 2.5735726292812427e-09
353 345 -4.4206760255874819e-09
354 345 -2.0538575252528896e-09
355 345 3.3626280993344846e-09
356 345 3.390127901510495e-09
357 345 -2.7201810613293171e-09
360 345 -4.03467899579518e-09
361 345 -1.8745223059842875e-09
362 345 3.0690158890918776e-09
363 345 3.0941145105664804e-09
364 345 -2.4826649429589709e-09
366 345 1.3566544635952041e-09
367 345 6.3030517574574797e-10
368 345 -1.0319517634786488e-09
369 345 -1.0403911354557237e-09
370 345 8.3479218048989075e-10
336 346 2.3392754976741799e-09
337 346 2.1283698434793039e-09
338 346 -1.2584182153506169e-09
339 346 -1.309454019904789e-09
340 346 -6.8245679893606794e-10
345 346 1.9431616470600184e-09
346 346 2.9564866066616591e-09
347 346 -1.0453279292936116e-09
348 346 -1.0877217465823916e-09
349 346 -5.668951257713825e-10
353 346 -2.0538575252528892e-09
354 346 -1.8686847376025219e-09
355 346 1.1048770117427043e-09
356 346 1.1496858730098532e-09
357 346 5.9918937874074605e-10
360 346 -1.8745223059842871e-09
361 346 -1.7055181191582482e-09
362 346 1.0084032501845268e-09
363 346 1.0492995679272504e-09
364 346 5.4687038518901062e-10
366 346 6.3030517574574787e-10
367 346 5.7347778386084887e-10
368 346 -3.3907400610866315e-10
369 346 -3.528253285975391e-10
370 346 -1.8388430649573369e-10
336 347 -3.8299217077364268e-09
337 347 -1.2584182153506165e-09
338 347 4.4865682183037207e-09
339 347 3.3443400210707863e-09
340 347 -1.5459753970853136e-09
345 347 -3.1813939748077487e-09
346 347 -1.0453279292936116e-09
347 347 4.9153668850530134e-09
348 347 2.7780367340802141e-09
349 347 -1.2841925211038057e-09
353 347 3.3626280993344846e-09
354 347 1.1048770117427047e-09
355 347 -3.9391563357481048e-09
356 347 -2.9362928505470734e-09
357 347 1.3573489767735548e-09
360 347 3.0690158890918776e-09
361 347 1.0084032501845272e-09
362 347 -3.5952038188286525e-09
363 347 -2.6799066525196077e-09
364 347 1.2388302999029546e-09
366 347 -1.0319517634786488e-09
367 347 -3.3907400610866325e-10
368 347 1.2088816268733014e-09
369 347 9.0111439496134186e-10
370 347 -4.1655473898961139e-10
336 348 -3.861243068945894e-09
337 348 -1.3094540199047892e-09
338 348 3.3443400210707863e-09
339 348 4.4292848253685037e-09
340 348 -3.9882811201016554e-09
345 348 -3.2074116319398235e-09
346 348 -1.0877217465823916e-09
347 348 2.7780367340802141e-09
348 348 4.867783395089624e-09
349 348 -3.3129380947136861e-09
353 348 3.3901279015104946e-09
354 348 1.149685873009853e-09
355 348 -2.9362928505470734e-09
356 348 -3.8888621622875662e-09
357 348 3.5016658788112188e-09
360 348 3.09411451056648e-09
361 348 1.0492995679272502e-09
362 348 -2.6799066525196077e-09
363 348 -3.5493011460026903e-09
364 348 3.1959134054965616e-09
366 348 -1.0403911354557235e-09
367 348 -3.5282532859753904e-10
368 348 9.0111439496134186e-10
369 348 1.1934469253654016e-09
370 348 -1.074620853691024e-09
336 349 3.0981958718005604e-09
337 349 -6.8245679893606794e-10
338 349 -1.545975397085314e-09
339 349 -3.9882811201016554e-09
340 349 1.2886478577686091e-08
345 349 2.5735726292812427e-09
346 349 -5.668951257713825e-10
347 349 -1.2841925211038057e-09
348 349 -3.3129380947136861e-09
349 349 1.1892904872913981e-08
353 349 -2.7201810613293162e-09
354 349 5.9918937874074605e-10
355 349 1.3573489767735546e-09
356 349 3.5016658788112188e-09
357 349 -1.13141829712257e-08
360 349 -2.4826649429589701e-09
361 349 5.4687038518901062e-10
362 349 1.2388302999029542e-09
363 349 3.1959134054965616e-09
364 349 -1.0326270489935154e-08
366 349 8.3479218048989044e-10
367 349 -1.8388430649573369e-10
368 349 -4.1655473898961134e-10
369 349 -1.074620853691024e-09
370 349 3.4721922034099628e-09
331 350 0.012991004721749725
332 350 0.0042999289595899125
333 350 -0.0060547442458184801
334 350 0.018624915360222472
335 350 0.057755281868847694
341 350 0.0043548291052135949
342 350 0.011462419638770028
343 350 0.025850273127954931
344 350 0.051577256453601984
350 350 0.026915087487316476
351 350 0.044414768271585331
352 350 0.058141145475678217
358 350 0.049748172147737912
359 350 0.091194536595980369
365 350 0.091131406167905563
371 350 0.011200280687425327
372 350 -0.0017674814512118344
373 350 -0.01602209696567572
374 350 -0.0012226148704140463
375 350 0.0040166409489136275
376 350 -6.4526362916188948e-05
377 350 -0.0014950481608129408
378 350 -0.0060027280083810438
379 350 0.0021613812200666086
380 350 0.0070202373699968625
381 350 0.0018889479296677117
382 350 -0.021081320970039754
383 350 -0.0036419379639437604
384 350 0.013511766006879002
385 350 -0.0074766290610485545
331 351 0.0038395101664705747
332 351 0.0074609312747570579
333 351 0.010382683355552313
334 351 0.035651445248695839
335 351 0.12019401459947825
341 351 0.0055905896603676295
342 351 0.021556191518097019
343 351 0.065288357026335356
344 351 0.14877544808437973
350 351 0.044414768271585331
351 351 0.13468020678658565
352 351 0.20776053133184785
358 351 0.14515780037239817
359 351 0.28798327280014424
365 351 0.27295977114942693
371 351 -0.0032694765481344219
372 351 0.0025926689961869934
373 351 -0.0014523289081414842
374 351 -0.022034981028535707
375 351 -0.013751478061438841
376 351 -0.0021482140837972589
377 351 -0.0097211560161743586
378 351 -0.0076019034847901604
379 351 -0.014829950211090326
380 351 -0.006496619968357935
381 351 -0.0025161251987289783
382 351 0.013007734380362937
383 351 0.0080765947238908616
384 351 -0.032423191624135803
385 351 0.024056655616298026
331 352 -0.010103442564509124
332 352 0.0014302696427188988
333 352 0.030131257339108788
334 352 0.067737778879229424
335 352 0.17873638382306326
341 352 0.0056012874900379416
342 352 0.0345840320135615
343 352 0.10443382957524958
344 352 0.24091426723318107
350 352 0.058141145475678217
351 352 0.20776053133184785
352 352 0.39210217351793741
358 352 0.26155337422167502
359 352 0.55540286813911899
365 352 0.52897745387494255
371 352 -0.0098902632655945896
372 352 -0.0017317399237802057
373 352 0.0044681364227343286
374 352 -0.016110098182634695
375 352 -0.045640035611497008
376 352 -0.0033654068509062721
377 352 -0.0089209190532074482
378 352 -0.020585949594381342
379 352 -0.016537825413658541
380 352 -0.021081320970039823
381 352 -0.0093486462842312951
382 352 -0.010294314567989559
383 352 -0.013804036053381194
384 352 0.025013611713232083
385 352 -0.048872717321423599
336 353 -1.3588573526070468e-08
337 353 -6.3132864368324927e-09
338 353 1.0336274113768574e-08
339 353 1.0420804869168466e-08
340 353 -8.3614768741587662e-09
345 353 -4.4206760255874819e-09
346 353 -2.0538575252528892e-09
347 353 3.3626280993344846e-09
348 353 3.3901279015104946e-09
349 353 -2.7201810613293162e-09
353 353 1.4813895620603495e-08
354 353 6.3303859147023852e-09
355 353 -1.0364269816519264e-08
356 353 -1.0449029522687628e-08
357 353 8.3841238568673541e-09
360 353 1.0814922731570114e-08
361 353 5.0246410975823389e-09
362 353 -8.2264709874268662e-09
363 353 -8.2937476288151016e-09
364 353 6.6547622634814998e-09
366 353 -2.3579997321334247e-09
367 353 -1.0955327796822493e-09
368 353 1.7936343019937351e-09
369 353 1.8083027657738054e-09
370 353 -1.450951432957935e-09
336 354 -6.3132864368324935e-09
337 354 -5.7440897742745172e-09
338 354 3.3962458285631852e-09
339 354 3.5339823427125609e-09
340 354 1.8418289152906362e-09
345 354 -2.0538575252528896e-09
346 354 -1.8686847376025219e-09
347 354 1.1048770117427047e-09
348 354 1.149685873009853e-09
349 354 5.9918937874074605e-10
353 354 6.3303859147023852e-09
354 354 6.9481651571848942e-09
355 354 -3.405444528949629e-09
356 354 -3.5435541011725057e-09
357 354 -1.8468174918572556e-09
360 354 5.0246410975823381e-09
361 354 4.5716268122475452e-09
362 354 -2.7030163352215934e-09
363 354 -2.8126385670904079e-09
364 354 -1.4658814161341965e-09
366 354 -1.0955327796822491e-09
367 354 -9.9676114811489419e-10
368 354 5.8934418234899872e-10
369 354 6.1324534186703851e-10
370 354 3.196091245750378e-10
336 355 1.0336274113768574e-08
337 355 3.3962458285631839e-09
338 355 -1.2108445674185309e-08
339 355 -9.0257759362565974e-09
340 355 4.1723112629527749e-09
345 355 3.3626280993344846e-09
346 355 1.1048770117427043e-09
347 355 -3.9391563357481048e-09
348 355 -2.9362928505470734e-09
349 355 1.3573489767735546e-09
353 355 -1.0364269816519264e-08
354 355 -3.405444528949629e-09
355 355 1.3329758856133558e-08
356 355 9.0502221668252297e-09
357 355 -4.18361192938396e-09
360 355 -8.2264709874268662e-09
361 355 -2.7030163352215938e-09
362 355 9.636913257634414e-09
363 355 7.1834669883342558e-09
364 355 -3.3206740821118908e-09
366 355 1.7936343019937351e-09
367 355 5.8934418234899882e-10
368 355 -2.1011559161455003e-09
369 355 -1.5662260059274895e-09
370 355 7.2401336472474837e-10
336 356 1.0420804869168469e-08
337 356 3.5339823427125613e-09
338 356 -9.0257759362565974e-09
339 356 -1.1953848035714244e-08
340 356 1.0763657861952223e-08
345 356 3.390127901510495e-09
346 356 1.1496858730098532e-09
347 356 -2.9362928505470734e-09
348 356 -3.8888621622875662e-09
349 356 3.5016658788112188e-09
353 356 -1.0449029522687628e-08
354 356 -3.5435541011725057e-09
355 356 9.0502221668252297e-09
356 356 1.317474249138986e-08
357 356 -1.079281112962843e-08
360 356 -8.2937476288151e-09
361 356 -2.8126385670904075e-09
362 356 7.1834669883342558e-09
363 356 9.5138715335461563e-09
364 356 -8.5666187008323364e-09
366 356 1.8083027657738052e-09
367 356 6.1324534186703851e-10
368 356 -1.5662260059274895e-09
369 356 -2.0743288772805426e-09
370 356 1.8677974039412469e-09
336 357 -8.3614768741587679e-09
337 357 1.8418289152906362e-09
338 357 4.1723112629527757e-09
339 357 1.0763657861952223e-08
340 357 -3.4778302300830388e-08
345 357 -2.7201810613293171e-09
346 357 5.9918937874074605e-10
347 357 1.3573489767735548e-09
348 357 3.5016658788112188e-09
349 357 -1.13141829712257e-08
353 357 8.3841238568673541e-09
354 357 -1.8468174918572556e-09
355 357 -4.18361192938396e-09
356 357 -1.079281112962843e-08
357 357 3.6061016579589229e-08
360 357 6.6547622634814982e-09
361 357 -1.4658814161341965e-09
362 357 -3.3206740821118904e-09
363 357 -8.5666187008323364e-09
364 357 2.7679480218953874e-08
366 357 -1.4509514329579344e-09
367 357 3.196091245750378e-10
368 357 7.2401336472474817e-10
369 357 1.8677974039412469e-09
370 357 -6.0350137085454707e-09
331 358 0.011956301161192529
332 358 0.0076512758757493011
333 358 0.0045948652033769395
334 358 0.03813117703041858
335 358 0.12380029114544716
341 358 0.0076026811165325458
342 358 0.022891233000055369
343 358 0.064197585223166972
344 358 0.16039773854913369
350 358 0.049748172147737912
351 358 0.14515780037239817
352 358 0.26155337422167502
358 358 0.18929979437689134
359 358 0.3896476910398034
365 358 0.37721521106895917
371 358 0.0085841160316647794
372 358 -0.0028823028428622971
373 358 -0.012576256011802026
374 358 -0.0085578921923501854
375 358 -0.022440729436826228
376 358 -0.00015431993810925782
377 358 -0.0057200975176062395
378 358 -0.017508492724314123
379 358 -0.014156707922397566
380 358 -0.0036419379639438102
381 358 -0.011318913247653615
382 358 -0.013804036053381223
383 358 -0.001022491531315415
384 358 0.014826089713080618
385 358 -0.022322669685421393
331 359 0.0085280933020873868
332 359 0.010959043675542625
333 359 0.020776217030650454
334 359 0.083214672219688646
335 359 0.24587652654198155
341 359 0.011609549601625607
342 359 0.047086862814201942
343 359 0.13332637927161642
344 359 0.32411107261722494
350 359 0.091194536595980369
351 359 0.28798327280014424
352 359 0.55540286813911899
358 359 0.3896476910398034
359 359 0.90788968694596062
365 359 0.91055432556068816
371 359 0.00043981962671881805
372 359 0.00047951289347011102
373 359 -0.012499696432871042
374 359 -0.028101424980018181
375 359 -0.031520868165920139
376 359 -0.0041994002418687957
377 359 -0.013810956043274038
378 359 -0.022010282299395598
379 359 -0.046713660560880298
380 359 -0.010924400001145246
381 359 -0.03242319162413615
382 359 -0.028109045839526267
383 359 -0.01523687705722491
384 359 -0.018263277518157504
385 359 0.026370693193582005
336 360 -1.2819783482544733e-08
337 360 -5.9561045924504474e-09
338 360 9.7514868577278733e-09
339 360 9.8312351830221719e-09
340 360 -7.8884161693179648e-09
345 360 -4.03467899579518e-09
346 360 -1.8745223059842871e-09
347 360 3.0690158890918776e-09
348 360 3.09411451056648e-09
349 360 -2.4826649429589701e-09
353 360 1.0814922731570114e-08
354 360 5.0246410975823381e-09
355 360 -8.2264709874268662e-09
356 360 -8.2937476288151e-09
357 360 6.6547622634814982e-09
360 360 1.8832330848962398e-08
361 360 8.1973613242856819e-09
362 360 -1.3420929733695507e-08
363 360 -1.3530687013356558e-08
364 360 1.0856793498589809e-08
366 360 7.6139364528952744e-09
367 360 3.5374545861451278e-09
368 360 -5.7916111732368624e-09
369 360 -5.8389753648273355e-09
370 360 4.6850946826799495e-09
336 361 -5.9561045924504482e-09
337 361 -5.4191109220713859e-09
338 361 3.2040990978297616e-09
339 361 3.3340430014814407e-09
340 361 1.7376252084602904e-09
345 361 -1.8745223059842875e-09
346 361 -1.7055181191582482e-09
347 361 1.0084032501845272e-09
348 361 1.0492995679272502e-09
349 361 5.4687038518901062e-10
353 361 5.0246410975823389e-09
354 361 4.5716268122475452e-09
355 361 -2.7030163352215938e-09
356 361 -2.8126385670904075e-09
357 361 -1.4658814161341965e-09
360 361 8.1973613242856819e-09
361 361 8.6468167970730867e-09
362 361 -4.4097879102090065e-09
363 361 -4.58862915008098e-09
364 361 -2.3914861565713403e-09
366 361 3.537454586145127e-09
367 361 3.2185228594556553e-09
368 361 -1.9029811972153762e-09
369 361 -1.9801575883917307e-09
370 361 -1.0320118069216689e-09
336 362 9.7514868577278733e-09
337 362 3.2040990978297608e-09
338 362 -1.1423395660729051e-08
339 362 -8.5151317055302825e-09
340 362 3.9362576881390281e-09
345 362 3.0690158890918776e-09
346 362 1.0084032501845268e-09
347 362 -3.5952038188286525e-09
348 362 -2.6799066525196077e-09
349 362 1.2388302999029542e-09
353 362 -8.2264709874268662e-09
354 362 -2.7030163352215934e-09
355 362 9.636913257634414e-09
356 362 7.1834669883342558e-09
357 362 -3.3206740821118904e-09
360 362 -1.3420929733695507e-08
361 362 -4.4097879102090065e-09
362 362 1.6910488250905198e-08
363 362 1.1719339415662458e-08
364 362 -5.417454652504324e-09
366 362 -5.7916111732368624e-09
367 362 -1.9029811972153767e-09
368 362 6.7845926380502056e-09
369 362 5.0573140944399023e-09
370 362 -2.3378254352359694e-09
336 363 9.8312351830221735e-09
337 363 3.3340430014814415e-09
338 363 -8.5151317055302825e-09
339 363 -1.127754457133329e-08
340 363 1.0154690851521708e-08
345 363 3.0941145105664804e-09
346 363 1.0492995679272504e-09
347 363 -2.6799066525196077e-09
348 363 -3.5493011460026903e-09
349 363 3.1959134054965616e-09
353 363 -8.2937476288151016e-09
354 363 -2.8126385670904079e-09
355 363 7.1834669883342558e-09
356 363 9.5138715335461563e-09
357 363 -8.5666187008323364e-09
360 363 -1.3530687013356558e-08
361 363 -4.58862915008098e-09
362 363 1.1719339415662458e-08
363 363 1.6709754019200605e-08
364 363 -1.3975857669096873e-08
366 363 -5.8389753648273339e-09
367 363 -1.9801575883917307e-09
368 363 5.0573140944399023e-09
369 363 6.6979686379056704e-09
370 363 -6.0310824240953413e-09
336 364 -7.8884161693179681e-09
337 364 1.7376252084602904e-09
338 364 3.936257688139029e-09
339 364 1.0154690851521708e-08
340 364 -3.2810677627916073e-08
345 364 -2.4826649429589709e-09
346 364 5.4687038518901062e-10
347 364 1.2388302999029546e-09
348 364 3.1959134054965616e-09
349 364 -1.0326270489935154e-08
353 364 6.6547622634814998e-09
354 364 -1.4658814161341965e-09
355 364 -3.3206740821118908e-09
356 364 -8.5666187008323364e-09
357 364 2.7679480218953874e-08
360 364 1.0856793498589809e-08
361 364 -2.3914861565713403e-09
362 364 -5.417454652504324e-09
363 364 -1.3975857669096873e-08
364 364 4.6345713121139047e-08
366 364 4.6850946826799487e-09
367 364 -1.0320118069216689e-09
368 364 -2.337825435235969e-09
369 364 -6.0310824240953413e-09
370 364 1.9486944906326653e-08
331 365 0.015105568291482265
332 365 0.010467950367009588
333 365 0.012391699388473303
334 365 0.077172279799558208
335 365 0.23639606147412762
341 365 0.011933910860786044
342 365 0.043820111053926206
343 365 0.12439387421611207
344 365 0.3063119405657691
350 365 0.091131406167905563
351 365 0.27295977114942693
352 365 0.52897745387494255
358 365 0.37721521106895917
359 365 0.91055432556068816
365 365 0.99508988270527121
371 365 0.01047067270049375
372 365 -0.0039132212578155854
373 365 -0.019799622867644119
374 365 -0.019344353567035691
375 365 -0.035954867778144071
376 365 -0.0017648874470768193
377 365 -0.01162878741242564
378 365 -0.027877245322894092
379 365 -0.03396102423232681
380 365 -0.0074766290610488069
381 365 -0.026245458077716759
382 365 -0.04887271732142421
383 365 -0.022322669685421716
384 365 -0.027204854309266141
385 365 -0.0083834357220777499
336 366 5.2691658504836829e-09
337 366 2.4480680943777729e-09
338 366 -4.008039731103224e-09
339 366 -4.0408177536685926e-09
340 366 3.242283549513021e-09
345 366 1.3566544635952041e-09
346 366 6.3030517574574787e-10
347 366 -1.0319517634786488e-09
348 366 -1.0403911354557235e-09
349 366 8.3479218048989044e-10
353 366 -2.3579997321334247e-09
354 366 -1.0955327796822491e-09
355 366 1.7936343019937351e-09
356 366 1.8083027657738052e-09
357 366 -1.4509514329579344e-09
360 366 7.6139364528952744e-09
361 366 3.537454586145127e-09
362 366 -5.7916111732368624e-09
363 366 -5.8389753648273339e-09
364 366 4.6850946826799487e-09
366 366 2.3177089124600795e-08
367 366 1.0215947266384617e-08
368 366 -1.6725810294477191e-08
369 366 -1.6862595113001322e-08
370 366 1.3530259979516731e-08
336 367 2.4480680943777733e-09
337 367 2.2273538589353515e-09
338 367 -1.316943423485877e-09
339 367 -1.3703527482636507e-09
340 367 -7.1419579135833545e-10
345 367 6.3030517574574797e-10
346 367 5.7347778386084887e-10
347 367 -3.3907400610866325e-10
348 367 -3.5282532859753904e-10
349 367 -1.8388430649573369e-10
353 367 -1.0955327796822493e-09
354 367 -9.9676114811489419e-10
355 367 5.8934418234899882e-10
356 367 6.1324534186703851e-10
357 367 3.196091245750378e-10
360 367 3.5374545861451278e-09
361 367 3.2185228594556553e-09
362 367 -1.9029811972153767e-09
363 367 -1.9801575883917307e-09
364 367 -1.0320118069216689e-09
366 367 1.0215947266384617e-08
367 367 1.0483409985821577e-08
368 367 -5.4956904989864289e-09
369 367 -5.7185710825437391e-09
370 367 -2.9803854554319748e-09
336 368 -4.008039731103224e-09
337 368 -1.3169434234858766e-09
338 368 4.6952248759921264e-09
339 368 3.499875115382588e-09
340 368 -1.617874016147499e-09
345 368 -1.0319517634786488e-09
346 368 -3.3907400610866315e-10
347 368 1.2088816268733014e-09
348 368 9.0111439496134186e-10
349 368 -4.1655473898961134e-10
353 368 1.7936343019937351e-09
354 368 5.8934418234899872e-10
355 368 -2.1011559161455003e-09
356 368 -1.5662260059274895e-09
357 368 7.2401336472474817e-10
360 368 -5.7916111732368624e-09
361 368 -1.9029811972153762e-09
362 368 6.7845926380502056e-09
363 368 5.0573140944399023e-09
364 368 -2.337825435235969e-09
366 368 -1.6725810294477191e-08
367 368 -5.4956904989864289e-09
368 368 2.0781996135607188e-08
369 368 1.4605206325671284e-08
370 368 -6.7514934206998479e-09
336 369 -4.0408177536685934e-09
337 369 -1.3703527482636509e-09
338 369 3.499875115382588e-09
339 369 4.6352774064778108e-09
340 369 -4.173763958643407e-09
345 369 -1.0403911354557237e-09
346 369 -3.528253285975391e-10
347 369 9.0111439496134186e-10
348 369 1.1934469253654016e-09
349 369 -1.074620853691024e-09
353 369 1.8083027657738054e-09
354 369 6.1324534186703851e-10
355 369 -1.5662260059274895e-09
356 369 -2.0743288772805426e-09
357 369 1.8677974039412469e-09
360 369 -5.8389753648273355e-09
361 369 -1.9801575883917307e-09
362 369 5.0573140944399023e-09
363 369 6.6979686379056704e-09
364 369 -6.0310824240953413e-09
366 369 -1.6862595113001322e-08
367 369 -5.7185710825437391e-09
368 369 1.4605206325671284e-08
369 369 2.053183144912729e-08
370 369 -1.7417388267002153e-08
336 370 3.2422835495130222e-09
337 370 -7.1419579135833545e-10
338 370 -1.6178740161474994e-09
339 370 -4.173763958643407e-09
340 370 1.3485789547354088e-08
345 370 8.3479218048989075e-10
346 370 -1.8388430649573369e-10
347 370 -4.1655473898961139e-10
348 370 -1.074620853691024e-09
349 370 3.4721922034099628e-09
353 370 -1.450951432957935e-09
354 370 3.196091245750378e-10
355 370 7.2401336472474837e-10
356 370 1.8677974039412469e-09
357 370 -6.0350137085454707e-09
360 370 4.6850946826799495e-09
361 370 -1.0320118069216689e-09
362 370 -2.3378254352359694e-09
363 370 -6.0310824240953413e-09
364 370 1.9486944906326653e-08
366 370 1.3530259979516731e-08
367 370 -2.9803854554319748e-09
368 370 -6.7514934206998479e-09
369 370 -1.7417388267002153e-08
370 370 5.746559383888224e-08
331 371 0.019179443547374712
332 371 -0.0026027256985312521
333 371 -0.016936243973652006
334 371 0.0046805963360052102
335 371 0.0045553485176182355
341 371 0.0036018552928877893
342 371 0.0010389353187369792
343 371 -0.0061904477280168855
344 371 0.00037218446913380961
350 371 0.011200280687425327
351 371 -0.0032694765481344219
352 371 -0.0098902632655945896
358 371 0.0085841160316647794
359 371 0.00043981962671881805
365 371 0.01047067270049375
371 371 0.044830959942627785
372 371 -0.033673975495757909
373 371 -0.011445619936185036
374 371 0.020614832495556366
375 371 -0.0080419792900269238
376 371 0.018368842547017369
377 371 -0.0065295741940004188
378 371 -0.0097438033906752583
379 371 0.012225155341472055
380 371 0.019572208174738221
381 371 -0.014919252893391317
382 371 -0.010329038130006487
383 371 0.019158385864012716
384 371 -0.012159624653544567
385 371 0.021644827676386307
331 372 -0.0026027256985312565
332 372 0.0069731192331446935
333 372 0.0010080937129244767
334 372 -0.0099075718972776207
335 372 -0.001318382497093423
341 372 -0.00094494789902541555
342 372 -0.0014672263320664627
343 372 -0.00015514439208447282
344 372 -0.0058476765690241642
350 372 -0.0017674814512118344
351 372 0.0025926689961869934
352 372 -0.0017317399237802057
358 372 -0.0028823028428622971
359 372 0.00047951289347011102
365 372 -0.0039132212578155854
371 372 -0.033673975495757909
372 372 0.036968279583318726
373 372 -0.0096953941124870886
374 372 -0.012626861234824966
375 372 0.015444245696110418
376 372 -0.020264825678808971
377 372 0.012170704353660992
378 372 0.0028744237340210289
379 372 -0.010914948351735404
380 372 -0.011376623379320458
381 372 0.013882617365349776
382 372 -0.0022595750581897254
383 372 -0.015006911241494536
384 372 0.017338782669713663
385 372 -0.017107103017206773
331 373 -0.016936243973652006
332 373 0.0019304591234480203
333 373 0.02055583055380358
334 373 -0.0078520170130648593
335 373 -0.021365867729832566
341 373 -0.0012005383980679359
342 373 -0.0029607789448084193
343 373 -0.0004050185880144937
344 373 -0.0063435669763979245
350 373 -0.01602209696567572
351 373 -0.0014523289081414842
352 373 0.0044681364227343286
358 373 -0.012576256011802026
359 373 -0.012499696432871042
365 373 -0.019799622867644119
371 373 -0.011445619936185036
372 373 -0.0096953941124870886
373 373 0.042833882122863119
374 373 -0.028939115010020215
375 373 0.00015038227501397444
376 373 0.0094212524939004672
377 373 -0.019317251905431859
378 373 0.021492133045391774
379 373 -0.015172693119971587
380 373 -0.0056696431860105371
381 373 -0.0055508323575950754
382 373 0.034405595799220832
383 373 0.0034615542638259554
384 373 -0.025858944222165923
385 373 0.011204583880129314
331 374 0.0046805963360052084
332 374 -0.0099075718972776242
333 374 -0.001395459139400099
334 374 0.01066555591913864
335 374 -0.010077439880969517
341 374 0.0018469288578333279
342 374 0.00037899201093050838
343 374 -0.0057364495101848096
344 374 -0.011748417120327575
350 374 -0.0012226148704140463
351 374 -0.022034981028535707
352 374 -0.016110098182634695
358 374 -0.0085578921923501854
359 374 -0.028101424980018181
365 374 -0.019344353567035691
371 374 0.020614832495556366
372 374 -0.012626861234824966
373 374 -0.028939115010020215
374 374 0.066956221659437737
375 374 -0.072169287581397304
376 374 7.5893358909792159e-05
377 374 0.027164680378081431
378 374 -0.050554195490881346
379 374 0.07384024794385205
380 374 -0.015208277486908978
381 374 0.034048710778983235
382 374 -0.072820516809682892
383 374 -0.030952949223704781
384 374 0.079430456303391475
385 374 -0.069845234872862219
331 375 0.0045553485176182398
332 375 0.0023710791450007483
333 375 -0.021365867729832556
334 375 0.011321437643176566
335 375 0.0049185405553216861
341 375 -0.0052763007200405925
342 375 0.0068462583940886567
343 375 -0.0082236635872554326
344 375 -0.0092762988123509353
350 375 0.0040166409489136275
351 375 -0.013751478061438841
352 375 -0.045640035611497008
358 375 -0.022440729436826228
359 375 -0.031520868165920139
365 375 -0.035954867778144071
371 375 -0.0080419792900269238
372 375 0.015444245696110418
373 375 0.00015038227501397444
374 375 -0.072169287581397304
375 375 0.18327839309890884
376 375 -0.0039678238373739598
377 375 -0.028362516071110993
378 375 0.091714374420953204
379 375 -0.16908351446038428
380 375 0.060777696467793081
381 375 -0.1252767570026169
382 375 0.17705756282340349
383 375 0.12112446115912992
384 375 -0.23551456832048676
385 375 0.23151927463693084
331 376 0.0036018552928877923
332 376 -0.00061884248076885797
333 376 -0.0012005383980679346
334 376 -0.00043580906996254563
335 376 -0.0052763007200405986
341 376 0.0013764732252695598
342 376 -0.00052732577536570159
343 376 -0.003238419559054267
344 376 -0.0020566973783941026
350 376 -6.4526362916188948e-05
351 376 -0.0021482140837972589
352 376 -0.0033654068509062721
358 376 -0.00015431993810925782
359 376 -0.0041994002418687957
365 376 -0.0017648874470768193
371 376 0.018368842547017369
372 376 -0.020264825678808971
373 376 0.0094212524939004672
374 376 7.5893358909792159e-05
375 376 -0.0039678238373739598
376 376 0.012515339438066323
377 376 -0.010094468070284151
378 376 0.0027267140567123946
379 376 0.0007482188939070489
380 376 0.0077815835709244326
381 376 -0.0094221411086269028
382 376 0.0069996969499874365
383 376 0.010803037444959728
384 376 -0.015222328266662593
385 376 0.014783831738960508
331 377 0.0010389353187369762
332 377 -0.0014672263320664645
333 377 -0.00019368271323781081
334 377 0.00037899201093051065
335 377 -0.005697911189031471
341 377 0.00045099047940395617
342 377 -0.00054411716056797742
343 377 -0.0029457969511346408
344 377 -0.0087980468446758695
350 377 -0.0014950481608129408
351 377 -0.0097211560161743586
352 377 -0.0089209190532074482
358 377 -0.0057200975176062395
359 377 -0.013810956043274038
365 377 -0.01162878741242564
371 377 -0.0065295741940004188
372 377 0.012170704353660992
373 377 -0.019317251905431859
374 377 0.027164680378081431
375 377 -0.028362516071110993
376 377 -0.010094468070284151
377 377 0.019667697366270262
378 377 -0.023839883390285012
379 377 0.031462650450954512
380 377 -0.013292451300763491
381 377 0.023965664041684501
382 377 -0.03754005087175049
383 377 -0.022979929368926583
384 377 0.048384614245473384
385 377 -0.043476164589511923
331 378 -0.0061904477280168837
332 378 0.0021507691342243841
333 378 -0.0004050185880144867
334 378 0.0017347103150558547
335 378 -0.0082236635872554361
341 378 -0.003238419559054264
342 378 0.0019427397246401196
343 378 -0.0043143410876349594
344 378 -0.0078099328943744247
350 378 -0.0060027280083810438
351 378 -0.0076019034847901604
352 378 -0.020585949594381342
358 378 -0.017508492724314123
359 378 -0.022010282299395598
365 378 -0.027877245322894092
371 378 -0.0097438033906752583
372 378 0.0028744237340210289
373 378 0.021492133045391774
374 378 -0.050554195490881346
375 378 0.091714374420953204
376 378 0.0027267140567123946
377 378 -0.023839883390285012
378 378 0.056603257948541673
379 378 -0.092128110422194973
380 378 0.027554027388242901
381 378 -0.065413796726672274
382 378 0.10573158670315057
383 378 0.06229300401126265
384 378 -0.13068674695015997
385 378 0.12136192145912908
331 379 0.00037218446913380826
332 379 -0.0058476765690241572
333 379 0.0074919141814551319
334 379 -0.011748417120327507
335 379 0.0055869609457997529
341 379 0.0028348838954541972
342 379 -0.0087980468446758348
343 379 0.0065394375636274402
344 379 -0.017780320486742
350 379 0.0021613812200666086
351 379 -0.014829950211090326
352 379 -0.016537825413658541
358 379 -0.014156707922397566
359 379 -0.046713660560880298
365 379 -0.03396102423232681
371 379 0.012225155341472055
372 379 -0.010914948351735404
373 379 -0.015172693119971587
374 379 0.07384024794385205
375 379 -0.16908351446038428
376 379 0.0007482188939070489
377 379 0.031462650450954512
378 379 -0.092128110422194973
379 379 0.19245081785639065
380 379 -0.053667476723437808
381 379 0.15007320735991639
382 379 -0.24042786987646758
383 379 -0.15853123857266307
384 379 0.31982324714515842
385 379 -0.30269827212199774
331 380 0.011200280687425328
332 380 -0.00046305977818561115
333 380 -0.016022096965675713
334 380 0.0063430308331380025
335 380 0.0040166409489136266
341 380 -6.4526362916188514e-05
342 380 0.0029399855274761955
343 380 -0.0060027280083810456
344 380 -0.0030935746626961276
350 380 0.0070202373699968625
351 380 -0.006496619968357935
352 380 -0.021081320970039823
358 380 -0.0036419379639438102
359 380 -0.010924400001145246
365 380 -0.0074766290610488069
371 380 0.019572208174738221
372 380 -0.011376623379320458
373 380 -0.0056696431860105371
374 380 -0.015208277486908978
375 380 0.060777696467793081
376 380 0.0077815835709244326
377 380 -0.013292451300763491
378 380 0.027554027388242901
379 380 -0.053667476723437808
380 380 0.031274269587984162
381 380 -0.051751647439462388
382 380 0.057434789185661202
383 380 0.05240315538384769
384 380 -0.089346777906280941
385 380 0.092676830062921753
331 381 -0.0032694765481344253
332 381 0.0025926689961869999
333 381 0.0086936906076174186
334 381 -0.022034981028535645
335 381 0.0099664896377377951
341 381 0.0014389455170248258
342 381 -0.0097211560161743222
343 381 0.0093300901226776086
344 381 -0.014829950211090296
350 381 0.0018889479296677117
351 381 -0.0025161251987289783
352 381 -0.0093486462842312951
358 381 -0.011318913247653615
359 381 -0.03242319162413615
365 381 -0.026245458077716759
371 381 -0.014919252893391317
372 381 0.013882617365349776
373 381 -0.0055508323575950754
374 381 0.034048710778983235
375 381 -0.1252767570026169
376 381 -0.0094221411086269028
377 381 0.023965664041684501
378 381 -0.065413796726672274
379 381 0.15007320735991639
380 381 -0.051751647439462388
381 381 0.13999016337881479
382 381 -0.20514739693591458
383 381 -0.15055822036370298
384 381 0.28877741376044369
385 381 -0.27632920102501057
331 382 -0.0098902632655945878
332 382 0.0028800871288374602
333 382 0.0044681364227344231
334 382 0.012325109758933681
335 382 -0.045640035611496828
341 382 -0.0033654068509062383
342 382 0.0076025984438855701
343 382 -0.020585949594381207
344 382 0.017730245695411043
350 382 -0.021081320970039754
351 382 0.013007734380362937
352 382 -0.010294314567989559
358 382 -0.013804036053381223
359 382 -0.028109045839526267
365 382 -0.04887271732142421
371 382 -0.010329038130006487
372 382 -0.0022595750581897254
373 382 0.034405595799220832
374 382 -0.072820516809682892
375 382 0.17705756282340349
376 382 0.0069996969499874365
377 382 -0.03754005087175049
378 382 0.10573158670315057
379 382 -0.24042786987646758
380 382 0.057434789185661202
381 382 -0.20514739693591458
382 382 0.39519301067573215
383 382 0.26211490566857443
384 382 -0.56016792068998578
385 382 0.52915314809808789
331 383 0.0085841160316647794
332 383 5.2645921446667566e-05
333 383 -0.012576256011801958
334 383 0.013831574095378257
335 383 -0.022440729436826092
341 383 -0.00015431993810923513
342 383 0.0069421100084124622
343 383 -0.017508492724314026
344 383 0.014966058810856657
350 383 -0.0036419379639437604
351 383 0.0080765947238908616
352 383 -0.013804036053381194
358 383 -0.001022491531315415
359 383 -0.01523687705722491
365 383 -0.022322669685421716
371 383 0.019158385864012716
372 383 -0.015006911241494536
373 383 0.0034615542638259554
374 383 -0.030952949223704781
375 383 0.12112446115912992
376 383 0.010803037444959728
377 383 -0.022979929368926583
378 383 0.06229300401126265
379 383 -0.15853123857266307
380 383 0.05240315538384769
381 383 -0.15055822036370298
382 383 0.26211490566857443
383 383 0.19369858419731653
384 383 -0.39303584717663009
385 383 0.38102878516085326
331 384 0.00043981962671881745
332 384 0.00047951289347017417
333 384 0.008714708009170135
334 384 -0.028101424980017817
335 384 0.03759504659597647
341 384 0.0033010243780318689
342 384 -0.013810956043273823
343 384 0.023154877302573297
344 384 -0.046713660560879798
350 384 0.013511766006879002
351 384 -0.032423191624135803
352 384 0.025013611713232083
358 384 0.014826089713080618
359 384 -0.018263277518157504
365 384 -0.027204854309266141
371 384 -0.012159624653544567
372 384 0.017338782669713663
373 384 -0.025858944222165923
374 384 0.079430456303391475
375 384 -0.23551456832048676
376 384 -0.015222328266662593
377 384 0.048384614245473384
378 384 -0.13068674695015997
379 384 0.31982324714515842
380 384 -0.089346777906280941
381 384 0.28877741376044369
382 384 -0.56016792068998578
383 384 -0.39303584717663009
384 384 0.91551681538507534
385 384 -0.91494835052636858
331 385 0.01047067270049375
332 385 0.0013044654342892021
333 385 -0.019799622867643852
334 385 0.023639446325065722
335 385 -0.035954867778143357
341 385 -0.0017648874470767278
342 385 0.012471955879677463
343 385 -0.027877245322893606
344 385 0.035224146061686293
350 385 -0.0074766290610485545
351 385 0.024056655616298026
352 385 -0.048872717321423599
358 385 -0.022322669685421393
359 385 0.026370693193582005
365 385 -0.0083834357220777499
371 385 0.021644827676386307
372 385 -0.017107103017206773
373 385 0.011204583880129314
374 385 -0.069845234872862219
375 385 0.23151927463693084
376 385 0.014783831738960508
377 385 -0.043476164589511923
378 385 0.12136192145912908
379 385 -0.30269827212199774
380 385 0.092676830062921753
381 385 -0.27632920102501057
382 385 0.52915314809808789
383 385 0.38102878516085326
384 385 -0.91494835052636858
385 385 1.0000000616898175
386 386 0.035322311480516684
387 386 0.022179054202959365
388 386 -0.017755298654345164
389 386 -0.024302303644108292
390 386 -0.010820176141197378
396 386 0.011383709093443427
397 386 -0.0010616247395377571
398 386 -0.014287737439300863
399 386 -0.01091406707015116
405 386 0.013835645190070103
406 386 0.012326611901123486
407 386 -0.0061011529974699273
413 386 0.01962443449491013
414 386 0.0097695686451191189
420 386 0.014691029880954821
426 386 0.019427891018960346
427 386 0.00029904903217498665
428 386 -0.015913168104694328
429 386 -0.0018600608004177112
430 386 -0.00039584270466478571
431 386 0.0040877909709847553
432 386 -0.00078050588412136132
433 386 -0.0081545054046795566
434 386 0.00048973355847097466
435 386 0.0095739939791043265
436 386 0.0015692884747673238
437 386 -0.0054904292564242896
438 386 0.011457780289132965
439 386 -0.00056668274658854402
440 386 0.0081231235071362977
386 387 0.022179054202959365
387 387 0.022998905823942352
388 387 -0.0010383913343157084
389 387 -0.019048480138793046
390 387 -0.013582930552861408
396 387 0.010722400246966496
397 387 0.0019752122710998319
398 387 -0.0073106610160691005
399 387 -0.0098818092605753426
405 387 0.0062872359352182773
406 387 0.011141883144140838
407 387 0.0015055812861399771
413 387 0.01252126053474174
414 387 0.013386186077730792
420 387 0.012258251427073309
426 387 0.0002990490321749918
427 387 0.0079440955682546516
428 387 -0.0006408292594067258
429 387 -0.01268964400631681
430 387 0.0025444788300577324
431 387 -7.70428413671285e-05
432 387 -0.0023727742190310774
433 387 0.00095182478532550416
434 387 -0.0062456001830280099
435 387 0.0010491336337472136
436 387 0.0040712696042577217
437 387 0.0022604524444237825
438 387 0.0019744731255438843
439 387 0.0012314808900006245
440 387 0.0022681096777479215
386 388 -0.017755298654345164
387 388 -0.0010383913343157084
388 388 0.031375073602586588
389 388 0.025302998465704475
390 388 0.0061867947244870162
396 388 0.0022151138412897014
397 388 0.012132303492836125
398 388 0.018780933387725605
399 388 0.014468817965644301
405 388 -0.0066902870210464342
406 388 0.0012981232550899001
407 388 0.025558920076174361
413 388 -0.0018975270326349581
414 388 0.021692128801040246
420 388 0.014605515838753455
426 388 -0.015913168104694324
427 388 -0.0015667747542661438
428 388 0.017296096968489817
429 388 0.005460118276299694
430 388 -0.015172203476560564
431 388 -0.0018414903251075449
432 388 0.0019466717610167757
433 388 0.0010619467459646256
434 388 0.0068901799187208517
435 388 -0.013320768034256207
436 388 0.0033767334034379344
437 388 -0.0014162345022094636
438 388 -0.015073106799849445
439 388 0.010899181811729913
440 388 -0.016413440101424481
386 389 -0.024302303644108292
387 389 -0.019048480138793046
388 389 0.025302998465704475
389 389 0.067999477870329186
390 389 0.069002608119651712
396 389 -0.0032051909954997418
397 389 0.024475498245391698
398 389 0.047152803143232162
399 389 0.070106961413811786
405 389 0.012244954236529213
406 389 0.026582983156019799
407 389 0.068835982456964775
413 389 0.027577277124452935
414 389 0.079526569870084676
420 389 0.074161301586230285
426 389 -0.0018600608004177112
427 389 -0.012689644006316813
428 389 -0.0010215001877162226
429 389 0.016387644839507051
430 389 0.0099395573145807971
431 389 -0.0012911852550675921
432 389 0.001849000416595119
433 389 0.0044590285634322864
434 389 -0.01104391081327844
435 389 0.0025841337893573592
436 389 -0.025582555236190369
437 389 0.014523597034465333
438 389 0.009700858404941148
439 389 -0.02996485001605307
440 389 0.021738825721579948
386 390 -0.010820176141197378
387 390 -0.013582930552861408
388 390 0.0061867947244870162
389 390 0.069002608119651712
390 390 0.16991413196907548
396 390 -0.0032227260262936929
397 390 0.027709838665545456
398 390 0.088050462260122045
399 390 0.16278859432938877
405 390 0.054663629018981696
406 390 0.1214958254928856
407 390 0.18249295444893793
413 390 0.12144455477457795
414 390 0.24214913331142363
420 390 0.23263537948791549
426 390 -0.00039584270466479048
427 390 -0.0011593031493799535
428 390 -0.01517220347656058
429 390 -0.011542378166157701
430 390 0.0001612509892863698
431 390 -0.005562105334241443
432 390 -0.0063508406577688272
433 390 -0.0075054762436371015
434 390 0.0069642846177931051
435 390 -0.00014091051833367969
436 390 0.012155822126181975
437 390 -0.040919714869753897
438 390 -0.023768345239046328
439 390 0.034923324685174569
440 390 -0.039681227020498713
391 391 1.2178053234039365e-09
392 391 3.1342117032776947e-11
393 391 2.8093179774478457e-11
394 391 4.8471609518629407e-12
395 391 2.2621378723417996e-11
400 391 -2.1364187713528734e-11
401 391 -2.5116666822163446e-11
402 391 -2.251306239565141e-11
403 391 -3.8843747068528964e-12
404 391 -1.8128119165016279e-11
408 391 3.125610124389164e-11
409 391 3.6746029927714378e-11
410 391 3.2936920747187372e-11
411 391 5.6828937628985383e-12
412 391 2.6521688330994973e-11
415 391 1.2240870453828517e-13
416 391 1.4390898868922822e-13
417 391 1.2899132136421844e-13
418 391 2.2255995977139296e-14
419 391 1.0386725732147121e-13
421 391 3.1737270634905458e-11
422 391 3.7311713558712642e-11
423 391 3.3443965371023551e-11
424 391 5.7703785873733928e-12
425 391 2.6929974205272946e-11
391 392 3.1342117032776947e-11
392 392 1.2859945714434131e-09
393 392 1.6766042288358225e-11
394 392 4.7764969293126182e-11
395 392 -1.0638639587228381e-10
400 392 -2.5116666822163443e-11
401 392 -7.600908046503947e-11
402 392 -1.3435821761580786e-11
403 392 -3.8277466013278543e-11
404 392 8.5254983150644831e-11
408 392 3.6746029927714371e-11
409 392 1.1120233290994504e-10
410 392 1.9656792521483043e-11
411 392 5.600046063595669e-11
412 392 -1.2472921604294846e-10
415 392 1.4390898868922822e-13
416 392 4.3550324485212948e-13
417 392 7.6982170269966937e-14
418 392 2.193153837871686e-13
419 392 -4.8847876562586388e-13
421 392 3.7311713558712642e-11
422 392 1.1291422776170782e-10
423 392 1.9959397341356267e-11
424 392 5.6862554962131258e-11
425 392 -1.2664934934609821e-10
391 393 2.8093179774478457e-11
392 393 1.6766042288358225e-11
393 393 1.2654530508905852e-09
394 393 -8.0199292230867754e-12
395 393 1.3487090309780657e-10
400 393 -2.2513062395651407e-11
401 393 -1.343582176158078e-11
402 393 -5.9547699531312351e-11
403 393 6.4269395083601793e-12
404 393 -1.0808164405644051e-10
408 393 3.2936920747187366e-11
409 393 1.9656792521483034e-11
410 393 8.7119105596180758e-11
411 393 -9.4027011302875927e-12
412 393 1.5812493573510089e-10
415 393 1.2899132136421841e-13
416 393 7.6982170269966899e-14
417 393 3.4118576636766699e-13
418 393 -3.6823929367841675e-14
419 393 6.1926688768696015e-13
421 393 3.3443965371023551e-11
422 393 1.9959397341356257e-11
423 393 8.8460253254306399e-11
424 393 -9.5474502127608783e-12
425 393 1.6055917660340585e-10
391 394 4.8471609518629407e-12
392 394 4.7764969293126182e-11
393 394 -8.0199292230867754e-12
394 394 1.2469306380103876e-09
395 394 -1.1915052410802316e-10
400 394 -3.884374706852898e-12
401 394 -3.8277466013278543e-11
402 394 6.426939508360185e-12
403 394 -4.4704373135461193e-11
404 394 9.548378664331142e-11
408 394 5.6828937628985407e-12
409 394 5.600046063595669e-11
410 394 -9.4027011302876008e-12
411 394 6.5403114384819946e-11
412 394 -1.3969409661119977e-10
415 394 2.2255995977139306e-14
416 394 2.193153837871686e-13
417 394 -3.6823929367841707e-14
418 394 2.5613912759447835e-13
419 394 -5.4708593577917263e-13
421 394 5.7703785873733952e-12
422 394 5.6862554962131258e-11
423 394 -9.5474502127608864e-12
424 394 6.6409957064058483e-11
425 394 -1.4184460549489406e-10
391 395 2.2621378723417996e-11
392 395 -1.0638639587228381e-10
393 395 1.3487090309780657e-10
394 395 -1.1915052410802316e-10
395 395 1.7536428813241827e-09
400 395 -1.812811916501627e-11
401 395 8.5254983150644844e-11
402 395 -1.0808164405644051e-10
403 395 9.5483786643311407e-11
404 395 -4.5076892125497897e-10
408 395 2.6521688330994956e-11
409 395 -1.2472921604294849e-10
410 395 1.5812493573510089e-10
411 395 -1.3969409661119975e-10
412 395 6.5948114804399965e-10
415 395 1.0386725732147115e-13
416 395 -4.8847876562586398e-13
417 395 6.1926688768696015e-13
418 395 -5.4708593577917253e-13
419 395 2.5827352032673408e-12
421 395 2.6929974205272933e-11
422 395 -1.2664934934609824e-10
423 395 1.6055917660340585e-10
424 395 -1.4184460549489403e-10
425 395 6.6963347446223589e-10
386 396 0.011383709093443427
387 396 0.010722400246966496
388 396 0.0022151138412897014
389 396 -0.0032051909954997418
390 396 -0.0032227260262936929
396 396 0.006475017052251333
397 396 0.0037586047056164772
398 396 -0.0005038057574047321
399 396 -0.00034153329611229851
405 396 0.0045524488673051693
406 396 0.0066222618150919054
407 396 0.0059858662273021236
413 396 0.0091413402525652252
414 396 0.012554110324696954
420 396 0.012509344921205836
426 396 0.0040877909709847553
427 396 -0.00040441401057924475
428 396 -0.0018414903251075449
429 396 0.0010004129294172023
430 396 -0.0055621053342414361
431 396 0.0013928303373058953
432 396 0.00029799945941897911
433 396 -0.0037017978296744899
434 396 0.0026809132512969312
435 396 7.739428573438419e-05
436 396 0.0019784997812987088
437 396 -0.0032459291383434771
438 396 0.00039974212870518087
439 396 0.0035701013109353794
440 396 -0.0017414656455900816
386 397 -0.0010616247395377571
387 397 0.0019752122710998319
388 397 0.012132303492836125
389 397 0.024475498245391698
390 397 0.027709838665545456
396 397 0.0037586047056164772
397 397 0.013225356683400686
398 397 0.019921071224085835
399 397 0.030112576648994537
405 397 0.0092660950593941912
406 397 0.018862433264344742
407 397 0.035170782066821164
413 397 0.020049268925727049
414 397 0.046456378373627261
420 397 0.043209777230150195
426 397 -0.00078050588412136046
427 397 -0.0023727742190310787
428 397 -0.00083116472356147399
429 397 0.001849000416595121
430 397 0.0062420180723192654
431 397 -0.00068411404821736054
432 397 -0.00026188690121797955
433 397 0.002705426674378896
434 397 -0.008644755498153224
435 397 0.0018166337115522863
436 397 -0.010755642815966323
437 397 0.0083920247394445573
438 397 0.0058376657652425158
439 397 -0.014366684563026224
440 397 0.012003467699663933
386 398 -0.014287737439300863
387 398 -0.0073106610160691005
388 398 0.018780933387725605
389 398 0.047152803143232162
390 398 0.088050462260122045
396 398 -0.0005038057574047321
397 398 0.019921071224085835
398 398 0.053415699471538944
399 398 0.088628707119710409
405 398 0.02398667079764067
406 398 0.061396974335196711
407 398 0.10402593685293013
413 398 0.059773514101875772
414 398 0.13192063159204998
420 398 0.12362044799384699
426 398 -0.0081545054046795566
427 398 -0.0013630389518230496
428 398 0.0010619467459646193
429 398 -0.0030411299449290027
430 398 -0.0075054762436371015
431 398 -0.0037017978296744933
432 398 -0.0022020844483760268
433 398 -0.0032217647488362406
434 398 0.006927232268256981
435 398 -0.0067308392762949441
436 398 0.0077662777648099569
437 398 -0.021167974685981673
438 398 -0.019420726019447884
439 398 0.022911253248452234
440 398 -0.028047333560961594
386 399 -0.01091406707015116
387 399 -0.0098818092605753426
388 399 0.014468817965644301
389 399 0.070106961413811786
390 399 0.16278859432938877
396 399 -0.00034153329611229851
397 399 0.030112576648994537
398 399 0.088628707119710409
399 399 0.188534052922571
405 399 0.052097426057017837
406 399 0.14853966441761979
407 399 0.24074568758515438
413 399 0.15966037502320582
414 399 0.32359248703312882
420 399 0.30670923563304275
426 399 0.00048973355847097509
427 399 -0.0062456001830280151
428 399 -0.0069990025041703962
429 399 -0.011043910813278499
430 399 -0.0079566656422271776
431 399 -0.0022296542868847692
432 399 -0.0086447554981532587
433 399 -0.0074778340731987874
434 399 -0.017788789186758056
435 399 -0.0025682393363909402
436 399 -0.015389633871632818
437 399 0.017068061365858023
438 399 0.014788329778862082
439 399 -0.046982494394039502
440 399 0.035061079860997865
391 400 -2.1364187713528734e-11
392 400 -2.5116666822163443e-11
393 400 -2.2513062395651407e-11
394 400 -3.884374706852898e-12
395 400 -1.812811916501627e-11
400 400 1.2859410071716244e-09
401 400 1.1144538568219109e-10
402 400 9.9892909331290471e-11
403 400 1.7235393549807068e-11
404 400 8.0436438733789732e-11
408 400 -2.3777516572173319e-13
409 400 -2.7953881027901961e-13
410 400 -2.5056169763196524e-13
411 400 -4.3231591672562745e-14
412 400 -2.017589714377734e-13
415 400 5.8988059711704834e-11
416 400 6.9348924570933705e-11
417 400 6.2160185385708496e-11
418 400 1.072503809753452e-11
419 400 5.0053041571513938e-11
421 400 1.1301061384445539e-10
422 400 1.3286018515470763e-10
423 400 1.1908784153024378e-10
424 400 2.0547262358369178e-11
425 400 9.5892710837146347e-11
391 401 -2.5116666822163446e-11
392 401 -7.600908046503947e-11
393 401 -1.343582176158078e-11
394 401 -3.8277466013278543e-11
395 401 8.5254983150644844e-11
400 401 1.1144538568219109e-10
401 401 1.5284063466759974e-09
402 401 5.9616204203307995e-11
403 401 1.6984128479271466e-10
404 401 -3.7828564378487528e-10
408 401 -2.7953881027901961e-13
409 401 -8.4595173691001862e-13
410 401 -1.4953551189519433e-13
411 401 -4.2601342708442378e-13
412 401 9.4885506620087112e-13
415 401 6.9348924570933705e-11
416 401 2.0986654101828065e-10
417 401 3.7097270768037271e-11
418 401 1.0568683823041949e-10
419 401 -2.3539514369769503e-10
421 401 1.3286018515470761e-10
422 401 4.0206690543480186e-10
423 401 7.1071762013185533e-11
424 401 2.0247715422532202e-10
425 401 -4.5097516031709227e-10
391 402 -2.251306239565141e-11
392 402 -1.3435821761580786e-11
393 402 -5.9547699531312351e-11
394 402 6.426939508360185e-12
395 402 -1.0808164405644051e-10
400 402 9.9892909331290471e-11
401 402 5.9616204203307995e-11
402 402 1.4553654069681119e-09
403 402 -2.8517030437863521e-11
404 402 4.7957002385389705e-10
408 402 -2.5056169763196519e-13
409 402 -1.4953551189519425e-13
410 402 -6.6274291886321967e-13
411 402 7.1529356845905004e-14
412 402 -1.2029069942464375e-12
415 402 6.2160185385708496e-11
416 402 3.7097270768037258e-11
417 402 1.6441548364712117e-10
418 402 -1.7745242485516756e-11
419 402 2.9842119713745439e-10
421 402 1.1908784153024378e-10
422 402 7.1071762013185494e-11
423 402 3.1499077649450584e-10
424 402 -3.3996723335333438e-11
425 402 5.7172185078684743e-10
391 403 -3.8843747068528964e-12
392 403 -3.8277466013278543e-11
393 403 6.4269395083601793e-12
394 403 -4.4704373135461193e-11
395 403 9.5483786643311407e-11
400 403 1.7235393549807068e-11
401 403 1.6984128479271466e-10
402 403 -2.8517030437863521e-11
403 403 1.3895039514372148e-09
404 403 -4.2367195871188844e-10
408 403 -4.3231591672562764e-14
409 403 -4.2601342708442378e-13
410 403 7.1529356845905067e-14
411 403 -4.9754242348466934e-13
412 403 1.0626977022147692e-12
415 403 1.0725038097534525e-11
416 403 1.0568683823041949e-10
417 403 -1.7745242485516772e-11
418 403 1.2343199129536947e-10
419 403 -2.6363760623806238e-10
421 403 2.0547262358369188e-11
422 403 2.0247715422532202e-10
423 403 -3.399672333533347e-11
424 403 2.3647370624677953e-10
425 403 -5.0508268722618017e-10
391 404 -1.8128119165016279e-11
392 404 8.5254983150644831e-11
393 404 -1.0808164405644051e-10
394 404 9.548378664331142e-11
395 404 -4.5076892125497897e-10
400 404 8.0436438733789732e-11
401 404 -3.7828564378487528e-10
402 404 4.7957002385389705e-10
403 404 -4.2367195871188844e-10
404 404 3.1912565684330046e-09
408 404 -2.0175897143777328e-13
409 404 9.4885506620087133e-13
410 404 -1.2029069942464375e-12
411 404 1.062697702214769e-12
412 404 -5.0168841610457033e-12
415 404 5.0053041571513905e-11
416 404 -2.3539514369769503e-10
417 404 2.9842119713745439e-10
418 404 -2.6363760623806233e-10
419 404 1.2446054303450787e-09
421 404 9.5892710837146296e-11
422 404 -4.5097516031709232e-10
423 404 5.7172185078684743e-10
424 404 -5.0508268722618006e-10
425 404 2.3844422814526043e-09
386 405 0.013835645190070103
387 405 0.0062872359352182773
388 405 -0.0066902870210464342
389 405 0.012244954236529213
390 405 0.054663629018981696
396 405 0.0045524488673051693
397 405 0.0092660950593941912
398 405 0.02398667079764067
399 405 0.052097426057017837
405 405 0.026244335357175099
406 405 0.049118567085405462
407 405 0.061470426768691584
413 405 0.052749351395173311
414 405 0.090497431645605489
420 405 0.089594542792941198
426 405 0.0095739939791043265
427 405 -0.00026035104310124981
428 405 -0.013320768034256209
429 405 -0.0050108773363636838
430 405 -0.00014091051833367793
431 405 7.7394285734381371e-05
432 405 -0.0026356141897324668
433 405 -0.0067308392762949441
434 405 0.002707113218912822
435 405 0.0047371775980250335
436 405 0.0050823763655440373
437 405 -0.017212518562523631
438 405 -0.002674488903489839
439 405 0.01206391847993897
440 405 -0.0099678706024305987
386 406 0.012326611901123486
387 406 0.011141883144140838
388 406 0.0012981232550899001
389 406 0.026582983156019799
390 406 0.1214958254928856
396 406 0.0066222618150919054
397 406 0.018862433264344742
398 406 0.061396974335196711
399 406 0.14853966441761979
405 406 0.049118567085405462
406 406 0.14081911556422691
407 406 0.20708048709974158
413 406 0.15213236639024222
414 406 0.29052229402334118
420 406 0.27575770882821132
426 406 0.0015692884747673269
427 406 0.0040712696042577165
428 406 -0.0068086670400156471
429 406 -0.025582555236190425
430 406 -0.011654204884488709
431 406 -0.0016225830800345373
432 406 -0.010755642815966356
433 406 -0.0092314359622521786
434 406 -0.01538963387163284
435 406 -0.0033357394141960124
436 406 -0.00056272145140876895
437 406 0.010936489070837248
438 406 0.010925137139163446
439 406 -0.031384328941012667
440 406 0.025325721839081852
386 407 -0.0061011529974699273
387 407 0.0015055812861399771
388 407 0.025558920076174361
389 407 0.068835982456964775
390 407 0.18249295444893793
396 407 0.0059858662273021236
397 407 0.035170782066821164
398 407 0.10402593685293013
399 407 0.24074568758515438
405 407 0.061470426768691584
406 407 0.20708048709974158
407 407 0.38984289018918677
413 407 0.26357352943017631
414 407 0.5600171542116158
420 407 0.53472023592611351
426 407 -0.0054904292564242896
427 407 -0.0023692750298732789
428 407 -0.0014162345022095595
429 407 -0.014021979792772013
430 407 -0.04091971486975407
431 407 -0.0032459291383435123
432 407 -0.0081956274113226448
433 407 -0.021167974685981816
434 407 -0.017333018400299827
435 407 -0.017212518562523697
436 407 -0.01150666601885046
437 407 -0.01525871435030725
438 407 -0.01303404050737152
439 407 0.026773379986335579
440 407 -0.045470664048304472
391 408 3.125610124389164e-11
392 408 3.6746029927714371e-11
393 408 3.2936920747187366e-11
394 408 5.6828937628985407e-12
395 408 2.6521688330994956e-11
400 408 -2.3777516572173319e-13
401 408 -2.7953881027901961e-13
402 408 -2.5056169763196519e-13
403 408 -4.3231591672562764e-14
404 408 -2.0175897143777328e-13
408 408 1.283590386502017e-09
409 408 1.0868189394660628e-10
410 408 9.7415882331107913e-11
411 408 1.6808010510636024e-11
412 408 7.8441870431836033e-11
415 408 3.3196258659007638e-11
416 408 3.9026963236831501e-11
417 408 3.498141153380562e-11
418 408 6.035647562464593e-12
419 408 2.8167966920741716e-11
421 408 1.683311393393016e-10
422 408 1.9789739723654961e-10
423 408 1.7738326838782723e-10
424 408 3.0605480011358463e-11
425 408 1.4283374561408947e-10
391 409 3.6746029927714378e-11
392 409 1.1120233290994504e-10
393 409 1.9656792521483034e-11
394 409 5.600046063595669e-11
395 409 -1.2472921604294849e-10
400 409 -2.7953881027901961e-13
401 409 -8.4595173691001862e-13
402 409 -1.4953551189519425e-13
403 409 -4.2601342708442378e-13
404 409 9.4885506620087133e-13
408 409 1.0868189394660628e-10
409 409 1.520043355392887e-09
410 409 5.8137911615290106e-11
411 409 1.6562976016105126e-10
412 409 -3.6890536084278003e-10
415 409 3.9026963236831494e-11
416 409 1.1810498622201133e-10
417 409 2.0876946995336535e-11
418 409 5.947657264701554e-11
419 409 -1.3247152246495062e-10
421 409 1.9789739723654959e-10
422 409 5.988851664465852e-10
423 409 1.0586254040702375e-10
424 409 3.0159299999767372e-10
425 409 -6.7173480408119064e-10
391 410 3.2936920747187372e-11
392 410 1.9656792521483043e-11
393 410 8.7119105596180758e-11
394 410 -9.4027011302876008e-12
395 410 1.5812493573510089e-10
400 410 -2.5056169763196524e-13
401 410 -1.4953551189519433e-13
402 410 -6.6274291886321967e-13
403 410 7.1529356845905067e-14
404 410 -1.2029069942464375e-12
408 410 9.7415882331107913e-11
409 410 5.8137911615290106e-11
410 410 1.4488135990911744e-09
411 410 -2.7809898622077184e-11
412 410 4.6767820985512115e-10
415 410 3.4981411533805614e-11
416 410 2.0876946995336525e-11
417 410 9.2526842709706285e-11
418 410 -9.9863542282123452e-12
419 410 1.6794021193309289e-10
421 410 1.7738326838782721e-10
422 410 1.058625404070237e-10
423 410 4.6918386233766045e-10
424 410 -5.0638669928085435e-11
425 410 8.5158895482670582e-10
391 411 5.6828937628985383e-12
392 411 5.600046063595669e-11
393 411 -9.4027011302875927e-12
394 411 6.5403114384819946e-11
395 411 -1.3969409661119975e-10
400 411 -4.3231591672562745e-14
401 411 -4.2601342708442378e-13
402 411 7.1529356845905004e-14
403 411 -4.9754242348466934e-13
404 411 1.062697702214769e-12
408 411 1.6808010510636024e-11
409 411 1.6562976016105126e-10
410 411 -2.7809898622077184e-11
411 411 1.3845852985530934e-09
412 411 -4.1316623925717587e-10
415 411 6.0356475624645963e-12
416 411 5.947657264701554e-11
417 411 -9.9863542282123533e-12
418 411 6.946287655270026e-11
419 411 -1.4836531684027799e-10
421 411 3.0605480011358476e-11
422 411 3.0159299999767372e-10
423 411 -5.063866992808548e-11
424 411 3.5223141475096681e-10
425 411 -7.5232884159323054e-10
391 412 2.6521688330994973e-11
392 412 -1.2472921604294846e-10
393 412 1.5812493573510089e-10
394 412 -1.3969409661119977e-10
395 412 6.5948114804399965e-10
400 412 -2.017589714377734e-13
401 412 9.4885506620087112e-13
402 412 -1.2029069942464375e-12
403 412 1.0626977022147692e-12
404 412 -5.0168841610457033e-12
408 412 7.8441870431836033e-11
409 412 -3.6890536084278003e-10
410 412 4.6767820985512115e-10
411 412 -4.1316623925717587e-10
412 412 3.1416601710540579e-09
415 412 2.81679669207417e-11
416 412 -1.3247152246495064e-10
417 412 1.6794021193309289e-10
418 412 -1.4836531684027797e-10
419 412 7.0041706738732555e-10
421 412 1.428337456140894e-10
422 412 -6.7173480408119075e-10
423 412 8.5158895482670582e-10
424 412 -7.5232884159323044e-10
425 412 3.5516653902806239e-09
386 413 0.01962443449491013
387 413 0.01252126053474174
388 413 -0.0018975270326349581
389 413 0.027577277124452935
390 413 0.12144455477457795
396 413 0.0091413402525652252
397 413 0.020049268925727049
398 413 0.059773514101875772
399 413 0.15966037502320582
405 413 0.052749351395173311
406 413 0.15213236639024222
407 413 0.26357352943017631
413 413 0.19685772559061046
414 413 0.39320738548118145
420 413 0.38028598787069162
426 413 0.01145778028913296
427 413 -0.00097186739736512308
428 413 -0.015073106799849519
429 413 -0.012775510726964746
430 413 -0.023768345239046446
431 413 0.00039974212870515523
432 413 -0.0068736890621649343
433 413 -0.019420726019447984
434 413 -0.014447474542109177
435 413 -0.0026744889034898875
436 413 -0.0085456528773093596
437 413 -0.013034040507371565
438 413 0.0018415797314052364
439 413 0.014794854486098168
440 413 -0.022288025740885072
386 414 0.0097695686451191189
387 414 0.013386186077730792
388 414 0.021692128801040246
389 414 0.079526569870084676
390 414 0.24214913331142363
396 414 0.012554110324696954
397 414 0.046456378373627261
398 414 0.13192063159204998
399 414 0.32359248703312882
405 414 0.090497431645605489
406 414 0.29052229402334118
407 414 0.5600171542116158
413 414 0.39320738548118145
414 414 0.91462684533584004
420 414 0.9152077890294017
426 414 -0.00056668274658854261
427 414 0.0012314808900005614
428 414 -0.010397564570036492
429 414 -0.029964850016053431
430 414 -0.034460857729623963
431 414 -0.0039594355809431684
432 414 -0.014366684563026434
433 414 -0.022429211149830233
434 414 -0.046982494394040009
435 414 -0.012467094466355249
436 414 -0.031384328941013014
437 414 -0.026555468726688548
438 414 -0.015384799179874132
439 414 -0.018091589858549934
440 414 0.026640896982941014
391 415 1.2240870453828517e-13
392 415 1.4390898868922822e-13
393 415 1.2899132136421841e-13
394 415 2.2255995977139306e-14
395 415 1.0386725732147115e-13
400 415 5.8988059711704834e-11
401 415 6.9348924570933705e-11
402 415 6.2160185385708496e-11
403 415 1.0725038097534525e-11
404 415 5.0053041571513905e-11
408 415 3.3196258659007638e-11
409 415 3.9026963236831494e-11
410 415 3.4981411533805614e-11
411 415 6.0356475624645963e-12
412 415 2.81679669207417e-11
415 415 1.27073961712896e-09
416 415 9.357397142319844e-11
417 415 8.3874053518933913e-11
418 415 1.4471520858624003e-11
419 415 6.7537628169941033e-11
421 415 1.6106614123056306e-10
422 415 1.8935634997523559e-10
423 415 1.6972758973907858e-10
424 415 2.9284579105725245e-11
425 415 1.3666918868289235e-10
391 416 1.4390898868922822e-13
392 416 4.3550324485212948e-13
393 416 7.6982170269966899e-14
394 416 2.193153837871686e-13
395 416 -4.8847876562586398e-13
400 416 6.9348924570933705e-11
401 416 2.0986654101828065e-10
402 416 3.7097270768037258e-11
403 416 1.0568683823041949e-10
404 416 -2.3539514369769503e-10
408 416 3.9026963236831501e-11
409 416 1.1810498622201133e-10
410 416 2.0876946995336525e-11
411 416 5.947657264701554e-11
412 416 -1.3247152246495064e-10
415 416 9.357397142319844e-11
416 416 1.4743231447107926e-09
417 416 5.0056132466427905e-11
418 416 1.4260548727422492e-10
419 416 -3.1762364861184805e-10
421 416 1.8935634997523556e-10
422 416 5.7303790123669444e-10
423 416 1.012936225059036e-10
424 416 2.8857655762585927e-10
425 416 -6.4274342375561177e-10
391 417 1.2899132136421844e-13
392 417 7.6982170269966937e-14
393 417 3.4118576636766699e-13
394 417 -3.6823929367841707e-14
395 417 6.1926688768696015e-13
400 417 6.2160185385708496e-11
401 417 3.7097270768037271e-11
402 417 1.6441548364712117e-10
403 417 -1.7745242485516772e-11
404 417 2.9842119713745439e-10
408 417 3.498141153380562e-11
409 417 2.0876946995336535e-11
410 417 9.2526842709706285e-11
411 417 -9.9863542282123533e-12
412 417 1.6794021193309289e-10
415 417 8.3874053518933913e-11
416 417 5.0056132466427905e-11
417 417 1.4129950712054449e-09
418 417 -2.3944031194586627e-11
419 417 4.0266603621883469e-10
421 417 1.6972758973907855e-10
422 417 1.0129362250590355e-10
423 417 4.4893437144778382e-10
424 417 -4.8453157237441624e-11
425 417 8.1483525512193491e-10
391 418 2.2255995977139296e-14
392 418 2.193153837871686e-13
393 418 -3.6823929367841675e-14
394 418 2.5613912759447835e-13
395 418 -5.4708593577917253e-13
400 418 1.072503809753452e-11
401 418 1.0568683823041949e-10
402 418 -1.7745242485516756e-11
403 418 1.2343199129536947e-10
404 418 -2.6363760623806233e-10
408 418 6.035647562464593e-12
409 418 5.947657264701554e-11
410 418 -9.9863542282123452e-12
411 418 6.946287655270026e-11
412 418 -1.4836531684027797e-10
415 418 1.4471520858624003e-11
416 418 1.4260548727422492e-10
417 418 -2.3944031194586627e-11
418 418 1.3576951777193814e-09
419 418 -3.5573180095918455e-10
421 418 2.9284579105725258e-11
422 418 2.8857655762585927e-10
423 418 -4.845315723744167e-11
424 418 3.370294707015891e-10
425 418 -7.1985910585225605e-10
391 419 1.0386725732147121e-13
392 419 -4.8847876562586388e-13
393 419 6.1926688768696015e-13
394 419 -5.4708593577917263e-13
395 419 2.5827352032673408e-12
400 419 5.0053041571513938e-11
401 419 -2.3539514369769503e-10
402 419 2.9842119713745439e-10
403 419 -2.6363760623806238e-10
404 419 1.2446054303450787e-09
408 419 2.8167966920741716e-11
409 419 -1.3247152246495062e-10
410 419 1.6794021193309289e-10
411 419 -1.4836531684027799e-10
412 419 7.0041706738732555e-10
415 419 6.7537628169941033e-11
416 419 -3.1762364861184805e-10
417 419 4.0266603621883469e-10
418 419 -3.5573180095918455e-10
419 419 2.8705182242941912e-09
421 419 1.3666918868289227e-10
422 419 -6.4274342375561187e-10
423 419 8.1483525512193491e-10
424 419 -7.1985910585225595e-10
425 419 3.3983791804650377e-09
386 420 0.014691029880954821
387 420 0.012258251427073309
388 420 0.014605515838753455
389 420 0.074161301586230285
390 420 0.23263537948791549
396 420 0.012509344921205836
397 420 0.043209777230150195
398 420 0.12362044799384699
399 420 0.30670923563304275
405 420 0.089594542792941198
406 420 0.27575770882821132
407 420 0.53472023592611351
413 420 0.38028598787069162
414 420 0.9152077890294017
420 420 0.99758797738099292
426 420 0.0081231235071362977
427 420 -0.0029698290296458277
428 420 -0.016413440101424741
429 420 -0.021411812201235281
430 420 -0.0396812270204994
431 420 -0.0017414656455901753
432 420 -0.012190820615440552
433 420 -0.02804733356096208
434 420 -0.034392626895483121
435 420 -0.009967870602430845
436 420 -0.025171635309688394
437 420 -0.045470664048305111
438 420 -0.022288025740885412
439 420 -0.027142599534704059
440 420 -0.010854958336355615
391 421 3.1737270634905458e-11
392 421 3.7311713558712642e-11
393 421 3.3443965371023551e-11
394 421 5.7703785873733952e-12
395 421 2.6929974205272933e-11
400 421 1.1301061384445539e-10
401 421 1.3286018515470761e-10
402 421 1.1908784153024378e-10
403 421 2.0547262358369188e-11
404 421 9.5892710837146296e-11
408 421 1.683311393393016e-10
409 421 1.9789739723654959e-10
410 421 1.7738326838782721e-10
411 421 3.0605480011358476e-11
412 421 1.428337456140894e-10
415 421 1.6106614123056306e-10
416 421 1.8935634997523556e-10
417 421 1.6972758973907855e-10
418 421 2.9284579105725258e-11
419 421 1.3666918868289227e-10
421 421 1.747434869007619e-09
422 421 6.5399761016335702e-10
423 421 5.8620393814446202e-10
424 421 1.0114287031984316e-10
425 421 4.7202706850478465e-10
391 422 3.7311713558712642e-11
392 422 1.1291422776170782e-10
393 422 1.9959397341356257e-11
394 422 5.6862554962131258e-11
395 422 -1.2664934934609824e-10
400 422 1.3286018515470763e-10
401 422 4.0206690543480186e-10
402 422 7.1071762013185494e-11
403 422 2.0247715422532202e-10
404 422 -4.5097516031709232e-10
408 422 1.9789739723654961e-10
409 422 5.988851664465852e-10
410 422 1.058625404070237e-10
411 422 3.0159299999767372e-10
412 422 -6.7173480408119075e-10
415 422 1.8935634997523559e-10
416 422 5.7303790123669444e-10
417 422 1.0129362250590355e-10
418 422 2.8857655762585927e-10
419 422 -6.4274342375561187e-10
421 422 6.5399761016335702e-10
422 422 3.170299993594349e-09
423 422 3.4984719050781215e-10
424 422 9.9668365524136134e-10
425 422 -2.2199026498945429e-09
391 423 3.3443965371023551e-11
392 423 1.9959397341356267e-11
393 423 8.8460253254306399e-11
394 423 -9.5474502127608864e-12
395 423 1.6055917660340585e-10
400 423 1.1908784153024378e-10
401 423 7.1071762013185533e-11
402 423 3.1499077649450584e-10
403 423 -3.399672333533347e-11
404 423 5.7172185078684743e-10
408 423 1.7738326838782723e-10
409 423 1.0586254040702375e-10
410 423 4.6918386233766045e-10
411 423 -5.063866992808548e-11
412 423 8.5158895482670582e-10
415 423 1.6972758973907858e-10
416 423 1.012936225059036e-10
417 423 4.4893437144778382e-10
418 423 -4.845315723744167e-11
419 423 8.1483525512193491e-10
421 423 5.8620393814446202e-10
422 423 3.4984719050781215e-10
423 423 2.7416721081001508e-09
424 423 -1.6734716867060671e-10
425 423 2.8142721888982782e-09
391 424 5.7703785873733928e-12
392 424 5.6862554962131258e-11
393 424 -9.5474502127608783e-12
394 424 6.6409957064058483e-11
395 424 -1.4184460549489403e-10
400 424 2.0547262358369178e-11
401 424 2.0247715422532202e-10
402 424 -3.3996723335333438e-11
403 424 2.3647370624677953e-10
404 424 -5.0508268722618006e-10
408 424 3.0605480011358463e-11
409 424 3.0159299999767372e-10
410 424 -5.0638669928085435e-11
411 424 3.5223141475096681e-10
412 424 -7.5232884159323044e-10
415 424 2.9284579105725245e-11
416 424 2.8857655762585927e-10
417 424 -4.8453157237441624e-11
418 424 3.370294707015891e-10
419 424 -7.1985910585225595e-10
421 424 1.0114287031984316e-10
422 424 9.9668365524136134e-10
423 424 -1.6734716867060671e-10
424 424 2.3551757605356233e-09
425 424 -2.4862442423677732e-09
391 425 2.6929974205272946e-11
392 425 -1.2664934934609821e-10
393 425 1.6055917660340585e-10
394 425 -1.4184460549489406e-10
395 425 6.6963347446223589e-10
400 425 9.5892710837146347e-11
401 425 -4.5097516031709227e-10
402 425 5.7172185078684743e-10
403 425 -5.0508268722618017e-10
404 425 2.3844422814526043e-09
408 425 1.4283374561408947e-10
409 425 -6.7173480408119064e-10
410 425 8.5158895482670582e-10
411 425 -7.5232884159323054e-10
412 425 3.5516653902806239e-09
415 425 1.3666918868289235e-10
416 425 -6.4274342375561177e-10
417 425 8.1483525512193491e-10
418 425 -7.1985910585225605e-10
419 425 3.3983791804650377e-09
421 425 4.7202706850478465e-10
422 425 -2.2199026498945429e-09
423 425 2.8142721888982782e-09
424 425 -2.4862442423677732e-09
425 425 1.2928443540155492e-08
386 426 0.019427891018960346
387 426 0.0002990490321749918
388 426 -0.015913168104694324
389 426 -0.0018600608004177112
390 426 -0.00039584270466479048
396 426 0.0040877909709847553
397 426 -0.00078050588412136046
398 426 -0.0081545054046795566
399 426 0.00048973355847097509
405 426 0.0095739939791043265
406 426 0.0015692884747673269
407 426 -0.0054904292564242896
413 426 0.01145778028913296
414 426 -0.00056668274658854261
420 426 0.0081231235071362977
426 426 0.038852364832772192
427 426 -0.027769401568841508
428 426 -0.010370657074145464
429 426 0.018245391416541128
430 426 -0.013531236458497662
431 426 0.015759600859758603
432 426 -0.0047620050534289251
433 426 -0.011950946796233429
434 426 0.012645660270246833
435 426 0.014642167297332221
436 426 -0.010361736275294684
437 426 -0.0048943448523441546
438 426 0.019631938333571651
439 426 -0.013760879771024954
440 426 0.017879433117994344
386 427 0.00029904903217498665
387 427 0.0079440955682546516
388 427 -0.0015667747542661438
389 427 -0.012689644006316813
390 427 -0.0011593031493799535
396 427 -0.00040441401057924475
397 427 -0.0023727742190310787
398 427 -0.0013630389518230496
399 427 -0.0062456001830280151
405 427 -0.00026035104310124981
406 427 0.0040712696042577165
407 427 -0.0023692750298732789
413 427 -0.00097186739736512308
414 427 0.0012314808900005614
420 427 -0.0029698290296458277
426 427 -0.027769401568841508
427 427 0.031750689346781914
428 427 -0.0071974648955739117
429 427 -0.015743759128598971
430 427 0.016031773126552268
431 427 -0.016429388775046173
432 427 0.0080034645426545637
433 427 0.0044171542105975745
434 427 -0.010945476226727356
435 427 -0.0082166130049162751
436 427 0.012801747478713772
437 427 -0.0031034431470088825
438 427 -0.013534478278415342
439 427 0.017427931518225557
440 427 -0.016065615156281899
386 428 -0.015913168104694328
387 428 -0.0006408292594067258
388 428 0.017296096968489817
389 428 -0.0010215001877162226
390 428 -0.01517220347656058
396 428 -0.0018414903251075449
397 428 -0.00083116472356147399
398 428 0.0010619467459646193
399 428 -0.0069990025041703962
405 428 -0.013320768034256209
406 428 -0.0068086670400156471
407 428 -0.0014162345022095595
413 428 -0.015073106799849519
414 428 -0.010397564570036492
420 428 -0.016413440101424741
426 428 -0.010370657074145464
427 428 -0.0071974648955739117
428 428 0.032988117813344327
429 428 -0.022524244690684245
430 428 0.007893479168095267
431 428 0.0064777319130837922
432 428 -0.014860854705350807
433 428 0.020440797747005766
434 428 -0.016066679783829009
435 428 -0.0023945621762163395
436 428 -0.0084032900950851887
437 428 0.02683031413329864
438 428 0.0021235079067257702
439 428 -0.023029849766520252
440 428 0.016307721462478279
386 429 -0.0018600608004177112
387 429 -0.01268964400631681
388 429 0.005460118276299694
389 429 0.016387644839507051
390 429 -0.011542378166157701
396 429 0.0010004129294172023
397 429 0.001849000416595121
398 429 -0.0030411299449290027
399 429 -0.011043910813278499
405 429 -0.0050108773363636838
406 429 -0.025582555236190425
407 429 -0.014021979792772013
413 429 -0.012775510726964746
414 429 -0.029964850016053431
420 429 -0.021411812201235281
426 429 0.018245391416541128
427 429 -0.015743759128598971
428 429 -0.022524244690684245
429 429 0.068014485532744806
430 429 -0.074647174428609547
431 429 0.0011591727101890011
432 429 0.026135362591265428
433 429 -0.04858570941629111
434 429 0.074148706844856679
435 429 -0.017269065881959447
436 429 0.032269585280262844
437 429 -0.070173703409118979
438 429 -0.032534082641010958
439 429 0.079163500852865235
440 429 -0.07338364331377932
386 430 -0.00039584270466478571
387 430 0.0025444788300577324
388 430 -0.015172203476560564
389 430 0.0099395573145807971
390 430 0.0001612509892863698
396 430 -0.0055621053342414361
397 430 0.0062420180723192654
398 430 -0.0075054762436371015
399 430 -0.0079566656422271776
405 430 -0.00014091051833367793
406 430 -0.011654204884488709
407 430 -0.04091971486975407
413 430 -0.023768345239046446
414 430 -0.034460857729623963
420 430 -0.0396812270204994
426 430 -0.013531236458497662
427 430 0.016031773126552268
428 430 0.007893479168095267
429 430 -0.074647174428609547
430 430 0.17629093854576572
431 430 -0.0039748521736768889
432 430 -0.029307700496241505
433 430 0.092092207691536504
434 430 -0.16817301948289687
435 430 0.055562640381113533
436 430 -0.1228335464473474
437 430 0.18490023682262713
438 430 0.12118782621975832
439 430 -0.24104935839266173
440 430 0.23003188432285684
386 431 0.0040877909709847553
387 431 -7.70428413671285e-05
388 431 -0.0018414903251075449
389 431 -0.0012911852550675921
390 431 -0.005562105334241443
396 431 0.0013928303373058953
397 431 -0.00068411404821736054
398 431 -0.0037017978296744933
399 431 -0.0022296542868847692
405 431 7.7394285734381371e-05
406 431 -0.0016225830800345373
407 431 -0.0032459291383435123
413 431 0.00039974212870515523
414 431 -0.0039594355809431684
420 431 -0.0017414656455901753
426 431 0.015759600859758603
427 431 -0.016429388775046173
428 431 0.0064777319130837922
429 431 0.0011591727101890011
430 431 -0.0039748521736768889
431 431 0.010170026034888981
432 431 -0.0076351080692221808
433 431 0.001251440208429065
434 431 0.00064240036010789663
435 431 0.0064744780255740712
436 431 -0.0081518798030077444
437 431 0.0070387759083556213
438 431 0.010566742679545086
439 431 -0.015022721655209452
440 431 0.014705367159781404
386 432 -0.00078050588412136132
387 432 -0.0023727742190310774
388 432 0.0019466717610167757
389 432 0.001849000416595119
390 432 -0.0063508406577688272
396 432 0.00029799945941897911
397 432 -0.00026188690121797955
398 432 -0.0022020844483760268
399 432 -0.0086447554981532587
405 432 -0.0026356141897324668
406 432 -0.010755642815966356
407 432 -0.0081956274113226448
413 432 -0.0068736890621649343
414 432 -0.014366684563026434
420 432 -0.012190820615440552
426 432 -0.0047620050534289251
427 432 0.0080034645426545637
428 432 -0.014860854705350807
429 432 0.026135362591265428
430 432 -0.029307700496241505
431 432 -0.0076351080692221808
432 432 0.017069414967508977
433 432 -0.022084277680664236
434 432 0.03160161583088221
435 432 -0.012742839379345063
436 432 0.022535666457744893
437 432 -0.036638573381980691
438 432 -0.023034280495899669
439 432 0.048295716454755631
440 432 -0.044724629908353158
386 433 -0.0081545054046795566
387 433 0.00095182478532550416
388 433 0.0010619467459646256
389 433 0.0044590285634322864
390 433 -0.0075054762436371015
396 433 -0.0037017978296744899
397 433 0.002705426674378896
398 433 -0.0032217647488362406
399 433 -0.0074778340731987874
405 433 -0.0067308392762949441
406 433 -0.0092314359622521786
407 433 -0.021167974685981816
413 433 -0.019420726019447984
414 433 -0.022429211149830233
420 433 -0.02804733356096208
426 433 -0.011950946796233429
427 433 0.0044171542105975745
428 433 0.020440797747005766
429 433 -0.04858570941629111
430 433 0.092092207691536504
431 433 0.001251440208429065
432 433 -0.022084277680664236
433 433 0.056266504305219005
434 433 -0.092119850694659999
435 433 0.026584038927078519
436 433 -0.065618418197299411
437 433 0.10586527494096874
438 433 0.061655667232908613
439 433 -0.13203960455894109
440 433 0.12316980316595186
386 434 0.00048973355847097466
387 434 -0.0062456001830280099
388 434 0.0068901799187208517
389 434 -0.01104391081327844
390 434 0.0069642846177931051
396 434 0.0026809132512969312
397 434 -0.008644755498153224
398 434 0.006927232268256981
399 434 -0.017788789186758056
405 434 0.002707113218912822
406 434 -0.01538963387163284
407 434 -0.017333018400299827
413 434 -0.014447474542109177
414 434 -0.046982494394040009
420 434 -0.034392626895483121
426 434 0.012645660270246833
427 434 -0.010945476226727356
428 434 -0.016066679783829009
429 434 0.074148706844856679
430 434 -0.16817301948289687
431 434 0.00064240036010789663
432 434 0.03160161583088221
433 434 -0.092119850694659999
434 434 0.19292609770286309
435 434 -0.053135311217749601
436 434 0.15037900251582126
437 434 -0.2428880124958338
438 434 -0.15974450159544737
439 434 0.32295517906900068
440 434 -0.30477419389352145
386 435 0.0095739939791043265
387 435 0.0010491336337472136
388 435 -0.013320768034256207
389 435 0.0025841337893573592
390 435 -0.00014091051833367969
396 435 7.739428573438419e-05
397 435 0.0018166337115522863
398 435 -0.0067308392762949441
399 435 -0.0025682393363909402
405 435 0.0047371775980250335
406 435 -0.0033357394141960124
407 435 -0.017212518562523697
413 435 -0.0026744889034898875
414 435 -0.012467094466355249
420 435 -0.009967870602430845
426 435 0.014642167297332221
427 435 -0.0082166130049162751
428 435 -0.0023945621762163395
429 435 -0.017269065881959447
430 435 0.055562640381113533
431 435 0.0064744780255740712
432 435 -0.012742839379345063
433 435 0.026584038927078519
434 435 -0.053135311217749601
435 435 0.026965444867322885
436 435 -0.048609084962168675
437 435 0.062924933508810385
438 435 0.052662336039185423
439 435 -0.092104257910878881
440 435 0.090268269672918025
386 436 0.0015692884747673238
387 436 0.0040712696042577217
388 436 0.0033767334034379344
389 436 -0.025582555236190369
390 436 0.012155822126181975
396 436 0.0019784997812987088
397 436 -0.010755642815966323
398 436 0.0077662777648099569
399 436 -0.015389633871632818
405 436 0.0050823763655440373
406 436 -0.00056272145140876895
407 436 -0.01150666601885046
413 436 -0.0085456528773093596
414 436 -0.031384328941013014
420 436 -0.025171635309688394
426 436 -0.010361736275294684
427 436 0.012801747478713772
428 436 -0.0084032900950851887
429 436 0.032269585280262844
430 436 -0.1228335464473474
431 436 -0.0081518798030077444
432 436 0.022535666457744893
433 436 -0.065618418197299411
434 436 0.15037900251582126
435 436 -0.048609084962168675
436 436 0.14064508479883539
437 436 -0.20935288258583337
438 436 -0.15024469911375612
439 436 0.29208739315042742
440 436 -0.27611517732478286
386 437 -0.0054904292564242896
387 437 0.0022604524444237825
388 437 -0.0014162345022094636
389 437 0.014523597034465333
390 437 -0.040919714869753897
396 437 -0.0032459291383434771
397 437 0.0083920247394445573
398 437 -0.021167974685981673
399 437 0.017068061365858023
405 437 -0.017212518562523631
406 437 0.010936489070837248
407 437 -0.01525871435030725
413 437 -0.013034040507371565
414 437 -0.026555468726688548
420 437 -0.045470664048305111
426 437 -0.0048943448523441546
427 437 -0.0031034431470088825
428 437 0.02683031413329864
429 437 -0.070173703409118979
430 437 0.18490023682262713
431 437 0.0070387759083556213
432 437 -0.036638573381980691
433 437 0.10586527494096874
434 437 -0.2428880124958338
435 437 0.062924933508810385
436 437 -0.20935288258583337
437 437 0.39119034409684256
438 437 0.26468022164721772
439 437 -0.56052269084253137
440 437 0.53479055248027541
386 438 0.011457780289132965
387 438 0.0019744731255438843
388 438 -0.015073106799849445
389 438 0.009700858404941148
390 438 -0.023768345239046328
396 438 0.00039974212870518087
397 438 0.0058376657652425158
398 438 -0.019420726019447884
399 438 0.014788329778862082
405 438 -0.002674488903489839
406 438 0.010925137139163446
407 438 -0.01303404050737152
413 438 0.0018415797314052364
414 438 -0.015384799179874132
420 438 -0.022288025740885412
426 438 0.019631938333571651
427 438 -0.013534478278415342
428 438 0.0021235079067257702
429 438 -0.032534082641010958
430 438 0.12118782621975832
431 438 0.010566742679545086
432 438 -0.023034280495899669
433 438 0.061655667232908613
434 438 -0.15974450159544737
435 438 0.052662336039185423
436 438 -0.15024469911375612
437 438 0.26468022164721772
438 438 0.19622237659602959
439 438 -0.39508755390781719
440 438 0.38132809007890101
386 439 -0.00056668274658854402
387 439 0.0012314808900006245
388 439 0.010899181811729913
389 439 -0.02996485001605307
390 439 0.034923324685174569
396 439 0.0035701013109353794
397 439 -0.014366684563026224
398 439 0.022911253248452234
399 439 -0.046982494394039502
405 439 0.01206391847993897
406 439 -0.031384328941012667
407 439 0.026773379986335579
413 439 0.014794854486098168
414 439 -0.018091589858549934
420 439 -0.027142599534704059
426 439 -0.013760879771024954
427 439 0.017427931518225557
428 439 -0.023029849766520252
429 439 0.079163500852865235
430 439 -0.24104935839266173
431 439 -0.015022721655209452
432 439 0.048295716454755631
433 439 -0.13203960455894109
434 439 0.32295517906900068
435 439 -0.092104257910878881
436 439 0.29208739315042742
437 439 -0.56052269084253137
438 439 -0.39508755390781719
439 439 0.91671104980644824
440 439 -0.91745021458843623
386 440 0.0081231235071362977
387 440 0.0022681096777479215
388 440 -0.016413440101424481
389 440 0.021738825721579948
390 440 -0.039681227020498713
396 440 -0.0017414656455900816
397 440 0.012003467699663933
398 440 -0.028047333560961594
399 440 0.035061079860997865
405 440 -0.0099678706024305987
406 440 0.025325721839081852
407 440 -0.045470664048304472
413 440 -0.022288025740885072
414 440 0.026640896982941014
420 440 -0.010854958336355615
426 440 0.017879433117994344
427 440 -0.016065615156281899
428 440 0.016307721462478279
429 440 -0.07338364331377932
430 440 0.23003188432285684
431 440 0.014705367159781404
432 440 -0.044724629908353158
433 440 0.12316980316595186
434 440 -0.30477419389352145
435 440 0.090268269672918025
436 440 -0.27611517732478286
437 440 0.53479055248027541
438 440 0.38132809007890101
439 440 -0.91745021458843623
440 440 1.0000000127691075
