%%MatrixMarket matrix coordinate real general
3168 4128 50736
3157 1 1
3158 1 0
3159 1 0
3160 1 0
3161 1 0
3162 1 0
3157 2 0
3158 2 1
3159 2 0
3160 2 0
3161 2 0
3162 2 0
3157 3 0
3158 3 0
3159 3 1
3160 3 0
3161 3 0
3162 3 0
3157 4 0
3158 4 0
3159 4 0
3160 4 1
3161 4 0
3162 4 0
3157 5 0
3158 5 0
3159 5 0
3160 5 0
3161 5 1
3162 5 0
3157 6 0
3158 6 0
3159 6 0
3160 6 0
3161 6 0
3162 6 1
2059 7 1
2060 7 0
2061 7 0
2062 7 0
2063 7 0
2064 7 0
2059 8 0
2060 8 1
2061 8 0
2062 8 0
2063 8 0
2064 8 0
2059 9 0
2060 9 0
2061 9 1
2062 9 0
2063 9 0
2064 9 0
2059 10 0
2060 10 0
2061 10 0
2062 10 1
2063 10 0
2064 10 0
2059 11 0
2060 11 0
2061 11 0
2062 11 0
2063 11 1
2064 11 0
2059 12 0
2060 12 0
2061 12 0
2062 12 0
2063 12 0
2064 12 1
426 13 1
355 14 0
356 14 0
357 14 0
358 14 0
359 14 0
360 14 0
426 14 0.023574741168151871
355 15 -1
356 15 0.045258900204798641
357 15 -0
358 15 -0.99668365524927938
359 15 0.06775671470238516
360 15 -0
426 15 0
355 16 -0.045206927042819985
356 16 -0.9999988768215905
357 16 -0
358 16 -0.067601049744234989
359 16 -0.99668141436676572
360 16 -0
426 16 0
355 17 -0
356 17 -0
357 17 -1
358 17 -0
359 17 -0
360 17 -0.99668365524927938
426 17 0
3163 18 1
3164 18 0
3165 18 0
3166 18 0
3167 18 0
3168 18 0
3163 19 0
3164 19 1
3165 19 0
3166 19 0
3167 19 0
3168 19 0
3163 20 0
3164 20 0
3165 20 1
3166 20 0
3167 20 0
3168 20 0
3163 21 0
3164 21 0
3165 21 0
3166 21 1
3167 21 0
3168 21 0
3163 22 0
3164 22 0
3165 22 0
3166 22 0
3167 22 1
3168 22 0
3163 23 0
3164 23 0
3165 23 0
3166 23 0
3167 23 0
3168 23 1
2797 24 1
2798 24 0
2799 24 0
2800 24 0
2801 24 0
2802 24 0
2797 25 0
2798 25 1
2799 25 0
2800 25 0
2801 25 0
2802 25 0
2797 26 0
2798 26 0
2799 26 1
2800 26 0
2801 26 0
2802 26 0
2797 27 0
2798 27 0
2799 27 0
2800 27 1
2801 27 0
2802 27 0
2797 28 0
2798 28 0
2799 28 0
2800 28 0
2801 28 1
2802 28 0
2797 29 0
2798 29 0
2799 29 0
2800 29 0
2801 29 0
2802 29 1
1704 30 1
1633 31 0
1634 31 0
1635 31 0
1636 31 0
1637 31 0
1638 31 0
1704 31 0.023574741168151871
1633 32 -1
1634 32 0.045258900204798641
1635 32 -0
1636 32 -0.99668365524927938
1637 32 0.06775671470238516
1638 32 -0
1704 32 0
1633 33 -0.045206927042819985
1634 33 -0.9999988768215905
1635 33 -0
1636 33 -0.067601049744234989
1637 33 -0.99668141436676572
1638 33 -0
1704 33 0
1633 34 -0
1634 34 -0
1635 34 -1
1636 34 -0
1637 34 -0
1638 34 -0.99668365524927938
1704 34 0
1633 35 0.023574741168151871
1634 35 0
1635 35 0
1636 35 0
1637 35 0
1638 35 0
2797 35 1
2798 35 0
2799 35 0
2800 35 0
2801 35 0
2802 35 0
3163 35 -1
3164 35 -0
3165 35 -0
3166 35 -0
3167 35 -0
3168 35 -0
1633 36 0
1634 36 0.023601844400366209
1635 36 0
1636 36 0
1637 36 0
1638 36 0
2797 36 0
2798 36 1
2799 36 0
2800 36 0
2801 36 0
2802 36 0
3163 36 -0
3164 36 -1
3165 36 -0
3166 36 -0
3167 36 -0
3168 36 -0
1633 37 0
1634 37 0
1635 37 0.023574741168151902
1636 37 0
1637 37 0
1638 37 0
2797 37 0
2798 37 0
2799 37 1
2800 37 0
2801 37 0
2802 37 0
3163 37 -0
3164 37 -0
3165 37 -1
3166 37 -0
3167 37 -0
3168 37 -0
1633 38 0
1634 38 0
1635 38 0
1636 38 0.70516692496269873
1637 38 0
1638 38 0
2797 38 0
2798 38 0
2799 38 0
2800 38 1
2801 38 0
2802 38 0
3163 38 -0
3164 38 -0
3165 38 -0
3166 38 -1
3167 38 -0
3168 38 -0
1633 39 0
1634 39 0
1635 39 0
1636 39 0
1637 39 0.70679071305886754
1638 39 0
2797 39 0
2798 39 0
2799 39 0
2800 39 0
2801 39 1
2802 39 0
3163 39 -0
3164 39 -0
3165 39 -0
3166 39 -0
3167 39 -1
3168 39 -0
1633 40 0
1634 40 0
1635 40 0
1636 40 0
1637 40 0
1638 40 0.70516692496269895
2797 40 0
2798 40 0
2799 40 0
2800 40 0
2801 40 0
2802 40 1
3163 40 -0
3164 40 -0
3165 40 -0
3166 40 -0
3167 40 -0
3168 40 -1
2431 41 1
2432 41 0
2433 41 0
2434 41 0
2435 41 0
2436 41 0
2431 42 0
2432 42 1
2433 42 0
2434 42 0
2435 42 0
2436 42 0
2431 43 0
2432 43 0
2433 43 1
2434 43 0
2435 43 0
2436 43 0
2431 44 0
2432 44 0
2433 44 0
2434 44 1
2435 44 0
2436 44 0
2431 45 0
2432 45 0
2433 45 0
2434 45 0
2435 45 1
2436 45 0
2431 46 0
2432 46 0
2433 46 0
2434 46 0
2435 46 0
2436 46 1
2065 47 1
2066 47 0
2067 47 0
2068 47 0
2069 47 0
2070 47 0
2065 48 0
2066 48 1
2067 48 0
2068 48 0
2069 48 0
2070 48 0
2065 49 0
2066 49 0
2067 49 1
2068 49 0
2069 49 0
2070 49 0
2065 50 0
2066 50 0
2067 50 0
2068 50 1
2069 50 0
2070 50 0
2065 51 0
2066 51 0
2067 51 0
2068 51 0
2069 51 1
2070 51 0
2065 52 0
2066 52 0
2067 52 0
2068 52 0
2069 52 0
2070 52 1
852 53 1
781 54 0
782 54 0
783 54 0
784 54 0
785 54 0
786 54 0
852 54 0.023574741168151871
781 55 -1
782 55 0.045258900204798641
783 55 -0
784 55 -0.99668365524927938
785 55 0.06775671470238516
786 55 -0
852 55 0
781 56 -0.045206927042819985
782 56 -0.9999988768215905
783 56 -0
784 56 -0.067601049744234989
785 56 -0.99668141436676572
786 56 -0
852 56 0
781 57 -0
782 57 -0
783 57 -1
784 57 -0
785 57 -0
786 57 -0.99668365524927938
852 57 0
781 58 0.023574741168151871
782 58 0
783 58 0
784 58 0
785 58 0
786 58 0
2065 58 1
2066 58 0
2067 58 0
2068 58 0
2069 58 0
2070 58 0
2431 58 -1
2432 58 -0
2433 58 -0
2434 58 -0
2435 58 -0
2436 58 -0
781 59 0
782 59 0.023601844400366209
783 59 0
784 59 0
785 59 0
786 59 0
2065 59 0
2066 59 1
2067 59 0
2068 59 0
2069 59 0
2070 59 0
2431 59 -0
2432 59 -1
2433 59 -0
2434 59 -0
2435 59 -0
2436 59 -0
781 60 0
782 60 0
783 60 0.023574741168151902
784 60 0
785 60 0
786 60 0
2065 60 0
2066 60 0
2067 60 1
2068 60 0
2069 60 0
2070 60 0
2431 60 -0
2432 60 -0
2433 60 -1
2434 60 -0
2435 60 -0
2436 60 -0
781 61 0
782 61 0
783 61 0
784 61 0.70516692496269873
785 61 0
786 61 0
2065 61 0
2066 61 0
2067 61 0
2068 61 1
2069 61 0
2070 61 0
2431 61 -0
2432 61 -0
2433 61 -0
2434 61 -1
2435 61 -0
2436 61 -0
781 62 0
782 62 0
783 62 0
784 62 0
785 62 0.70679071305886754
786 62 0
2065 62 0
2066 62 0
2067 62 0
2068 62 0
2069 62 1
2070 62 0
2431 62 -0
2432 62 -0
2433 62 -0
2434 62 -0
2435 62 -1
2436 62 -0
781 63 0
782 63 0
783 63 0
784 63 0
785 63 0
786 63 0.70516692496269895
2065 63 0
2066 63 0
2067 63 0
2068 63 0
2069 63 0
2070 63 1
2431 63 -0
2432 63 -0
2433 63 -0
2434 63 -0
2435 63 -0
2436 63 -1
425 64 1
349 65 0
350 65 0
351 65 0
352 65 0
353 65 0
354 65 0
425 65 0.023574741168151871
349 66 -1
350 66 0.045258900204798641
351 66 -0
352 66 -0.99668365524927938
353 66 0.06775671470238516
354 66 -0
425 66 0
349 67 -0.045206927042819985
350 67 -0.9999988768215905
351 67 -0
352 67 -0.067601049744234989
353 67 -0.99668141436676572
354 67 -0
425 67 0
349 68 -0
350 68 -0
351 68 -1
352 68 -0
353 68 -0
354 68 -0.99668365524927938
425 68 0
2791 69 1
2792 69 0
2793 69 0
2794 69 0
2795 69 0
2796 69 0
2791 70 0
2792 70 1
2793 70 0
2794 70 0
2795 70 0
2796 70 0
2791 71 0
2792 71 0
2793 71 1
2794 71 0
2795 71 0
2796 71 0
2791 72 0
2792 72 0
2793 72 0
2794 72 1
2795 72 0
2796 72 0
2791 73 0
2792 73 0
2793 73 0
2794 73 0
2795 73 1
2796 73 0
2791 74 0
2792 74 0
2793 74 0
2794 74 0
2795 74 0
2796 74 1
2425 75 1
2426 75 0
2427 75 0
2428 75 0
2429 75 0
2430 75 0
2425 76 0
2426 76 1
2427 76 0
2428 76 0
2429 76 0
2430 76 0
2425 77 0
2426 77 0
2427 77 1
2428 77 0
2429 77 0
2430 77 0
2425 78 0
2426 78 0
2427 78 0
2428 78 1
2429 78 0
2430 78 0
2425 79 0
2426 79 0
2427 79 0
2428 79 0
2429 79 1
2430 79 0
2425 80 0
2426 80 0
2427 80 0
2428 80 0
2429 80 0
2430 80 1
1278 81 1
1207 82 0
1208 82 0
1209 82 0
1210 82 0
1211 82 0
1212 82 0
1278 82 0.023574741168151871
1207 83 -1
1208 83 0.045258900204798641
1209 83 -0
1210 83 -0.99668365524927938
1211 83 0.06775671470238516
1212 83 -0
1278 83 0
1207 84 -0.045206927042819985
1208 84 -0.9999988768215905
1209 84 -0
1210 84 -0.067601049744234989
1211 84 -0.99668141436676572
1212 84 -0
1278 84 0
1207 85 -0
1208 85 -0
1209 85 -1
1210 85 -0
1211 85 -0
1212 85 -0.99668365524927938
1278 85 0
1277 86 1
1201 87 0
1202 87 0
1203 87 0
1204 87 0
1205 87 0
1206 87 0
1277 87 0.023574741168151871
1201 88 -1
1202 88 0.045258900204798641
1203 88 -0
1204 88 -0.99668365524927938
1205 88 0.06775671470238516
1206 88 -0
1277 88 0
1201 89 -0.045206927042819985
1202 89 -0.9999988768215905
1203 89 -0
1204 89 -0.067601049744234989
1205 89 -0.99668141436676572
1206 89 -0
1277 89 0
1201 90 -0
1202 90 -0
1203 90 -1
1204 90 -0
1205 90 -0
1206 90 -0.99668365524927938
1277 90 0
2419 91 1
2420 91 0
2421 91 0
2422 91 0
2423 91 0
2424 91 0
2419 92 0
2420 92 1
2421 92 0
2422 92 0
2423 92 0
2424 92 0
2419 93 0
2420 93 0
2421 93 1
2422 93 0
2423 93 0
2424 93 0
2419 94 0
2420 94 0
2421 94 0
2422 94 1
2423 94 0
2424 94 0
2419 95 0
2420 95 0
2421 95 0
2422 95 0
2423 95 1
2424 95 0
2419 96 0
2420 96 0
2421 96 0
2422 96 0
2423 96 0
2424 96 1
2053 97 1
2054 97 0
2055 97 0
2056 97 0
2057 97 0
2058 97 0
2053 98 0
2054 98 1
2055 98 0
2056 98 0
2057 98 0
2058 98 0
2053 99 0
2054 99 0
2055 99 1
2056 99 0
2057 99 0
2058 99 0
2053 100 0
2054 100 0
2055 100 0
2056 100 1
2057 100 0
2058 100 0
2053 101 0
2054 101 0
2055 101 0
2056 101 0
2057 101 1
2058 101 0
2053 102 0
2054 102 0
2055 102 0
2056 102 0
2057 102 0
2058 102 1
851 103 1
775 104 0
776 104 0
777 104 0
778 104 0
779 104 0
780 104 0
851 104 0.023574741168151871
775 105 -1
776 105 0.045258900204798641
777 105 -0
778 105 -0.99668365524927938
779 105 0.06775671470238516
780 105 -0
851 105 0
775 106 -0.045206927042819985
776 106 -0.9999988768215905
777 106 -0
778 106 -0.067601049744234989
779 106 -0.99668141436676572
780 106 -0
851 106 0
775 107 -0
776 107 -0
777 107 -1
778 107 -0
779 107 -0
780 107 -0.99668365524927938
851 107 0
850 108 1
769 109 0
770 109 0
771 109 0
772 109 0
773 109 0
774 109 0
850 109 0.023574741168151871
769 110 -1
770 110 0.045258900204798641
771 110 -0
772 110 -0.99668365524927938
773 110 0.06775671470238516
774 110 -0
850 110 0
769 111 -0.045206927042819985
770 111 -0.9999988768215905
771 111 -0
772 111 -0.067601049744234989
773 111 -0.99668141436676572
774 111 -0
850 111 0
769 112 -0
770 112 -0
771 112 -1
772 112 -0
773 112 -0
774 112 -0.99668365524927938
850 112 0
3151 113 1
3152 113 0
3153 113 0
3154 113 0
3155 113 0
3156 113 0
3151 114 0
3152 114 1
3153 114 0
3154 114 0
3155 114 0
3156 114 0
3151 115 0
3152 115 0
3153 115 1
3154 115 0
3155 115 0
3156 115 0
3151 116 0
3152 116 0
3153 116 0
3154 116 1
3155 116 0
3156 116 0
3151 117 0
3152 117 0
3153 117 0
3154 117 0
3155 117 1
3156 117 0
3151 118 0
3152 118 0
3153 118 0
3154 118 0
3155 118 0
3156 118 1
2785 119 1
2786 119 0
2787 119 0
2788 119 0
2789 119 0
2790 119 0
2785 120 0
2786 120 1
2787 120 0
2788 120 0
2789 120 0
2790 120 0
2785 121 0
2786 121 0
2787 121 1
2788 121 0
2789 121 0
2790 121 0
2785 122 0
2786 122 0
2787 122 0
2788 122 1
2789 122 0
2790 122 0
2785 123 0
2786 123 0
2787 123 0
2788 123 0
2789 123 1
2790 123 0
2785 124 0
2786 124 0
2787 124 0
2788 124 0
2789 124 0
2790 124 1
1703 125 1
1627 126 0
1628 126 0
1629 126 0
1630 126 0
1631 126 0
1632 126 0
1703 126 0.023574741168151871
1627 127 -1
1628 127 0.045258900204798641
1629 127 -0
1630 127 -0.99668365524927938
1631 127 0.06775671470238516
1632 127 -0
1703 127 0
1627 128 -0.045206927042819985
1628 128 -0.9999988768215905
1629 128 -0
1630 128 -0.067601049744234989
1631 128 -0.99668141436676572
1632 128 -0
1703 128 0
1627 129 -0
1628 129 -0
1629 129 -1
1630 129 -0
1631 129 -0
1632 129 -0.99668365524927938
1703 129 0
1702 130 1
1621 131 0
1622 131 0
1623 131 0
1624 131 0
1625 131 0
1626 131 0
1702 131 0.023574741168151871
1621 132 -1
1622 132 0.045258900204798641
1623 132 -0
1624 132 -0.99668365524927938
1625 132 0.06775671470238516
1626 132 -0
1702 132 0
1621 133 -0.045206927042819985
1622 133 -0.9999988768215905
1623 133 -0
1624 133 -0.067601049744234989
1625 133 -0.99668141436676572
1626 133 -0
1702 133 0
1621 134 -0
1622 134 -0
1623 134 -1
1624 134 -0
1625 134 -0
1626 134 -0.99668365524927938
1702 134 0
2779 135 1
2780 135 0
2781 135 0
2782 135 0
2783 135 0
2784 135 0
2779 136 0
2780 136 1
2781 136 0
2782 136 0
2783 136 0
2784 136 0
2779 137 0
2780 137 0
2781 137 1
2782 137 0
2783 137 0
2784 137 0
2779 138 0
2780 138 0
2781 138 0
2782 138 1
2783 138 0
2784 138 0
2779 139 0
2780 139 0
2781 139 0
2782 139 0
2783 139 1
2784 139 0
2779 140 0
2780 140 0
2781 140 0
2782 140 0
2783 140 0
2784 140 1
2413 141 1
2414 141 0
2415 141 0
2416 141 0
2417 141 0
2418 141 0
2413 142 0
2414 142 1
2415 142 0
2416 142 0
2417 142 0
2418 142 0
2413 143 0
2414 143 0
2415 143 1
2416 143 0
2417 143 0
2418 143 0
2413 144 0
2414 144 0
2415 144 0
2416 144 1
2417 144 0
2418 144 0
2413 145 0
2414 145 0
2415 145 0
2416 145 0
2417 145 1
2418 145 0
2413 146 0
2414 146 0
2415 146 0
2416 146 0
2417 146 0
2418 146 1
1276 147 1
1195 148 0
1196 148 0
1197 148 0
1198 148 0
1199 148 0
1200 148 0
1276 148 0.023574741168151871
1195 149 -1
1196 149 0.045258900204798641
1197 149 -0
1198 149 -0.99668365524927938
1199 149 0.06775671470238516
1200 149 -0
1276 149 0
1195 150 -0.045206927042819985
1196 150 -0.9999988768215905
1197 150 -0
1198 150 -0.067601049744234989
1199 150 -0.99668141436676572
1200 150 -0
1276 150 0
1195 151 -0
1196 151 -0
1197 151 -1
1198 151 -0
1199 151 -0
1200 151 -0.99668365524927938
1276 151 0
1275 152 1
1189 153 0
1190 153 0
1191 153 0
1192 153 0
1193 153 0
1194 153 0
1275 153 0.023574741168151871
1189 154 -1
1190 154 0.045258900204798641
1191 154 -0
1192 154 -0.99668365524927938
1193 154 0.06775671470238516
1194 154 -0
1275 154 0
1189 155 -0.045206927042819985
1190 155 -0.9999988768215905
1191 155 -0
1192 155 -0.067601049744234989
1193 155 -0.99668141436676572
1194 155 -0
1275 155 0
1189 156 -0
1190 156 -0
1191 156 -1
1192 156 -0
1193 156 -0
1194 156 -0.99668365524927938
1275 156 0
3145 157 1
3146 157 0
3147 157 0
3148 157 0
3149 157 0
3150 157 0
3145 158 0
3146 158 1
3147 158 0
3148 158 0
3149 158 0
3150 158 0
3145 159 0
3146 159 0
3147 159 1
3148 159 0
3149 159 0
3150 159 0
3145 160 0
3146 160 0
3147 160 0
3148 160 1
3149 160 0
3150 160 0
3145 161 0
3146 161 0
3147 161 0
3148 161 0
3149 161 1
3150 161 0
3145 162 0
3146 162 0
3147 162 0
3148 162 0
3149 162 0
3150 162 1
2047 163 1
2048 163 0
2049 163 0
2050 163 0
2051 163 0
2052 163 0
2047 164 0
2048 164 1
2049 164 0
2050 164 0
2051 164 0
2052 164 0
2047 165 0
2048 165 0
2049 165 1
2050 165 0
2051 165 0
2052 165 0
2047 166 0
2048 166 0
2049 166 0
2050 166 1
2051 166 0
2052 166 0
2047 167 0
2048 167 0
2049 167 0
2050 167 0
2051 167 1
2052 167 0
2047 168 0
2048 168 0
2049 168 0
2050 168 0
2051 168 0
2052 168 1
424 169 1
343 170 0
344 170 0
345 170 0
346 170 0
347 170 0
348 170 0
424 170 0.023574741168151871
343 171 -1
344 171 0.045258900204798641
345 171 -0
346 171 -0.99668365524927938
347 171 0.06775671470238516
348 171 -0
424 171 0
343 172 -0.045206927042819985
344 172 -0.9999988768215905
345 172 -0
346 172 -0.067601049744234989
347 172 -0.99668141436676572
348 172 -0
424 172 0
343 173 -0
344 173 -0
345 173 -1
346 173 -0
347 173 -0
348 173 -0.99668365524927938
424 173 0
423 174 1
337 175 0
338 175 0
339 175 0
340 175 0
341 175 0
342 175 0
423 175 0.023574741168151871
337 176 -1
338 176 0.045258900204798641
339 176 -0
340 176 -0.99668365524927938
341 176 0.06775671470238516
342 176 -0
423 176 0
337 177 -0.045206927042819985
338 177 -0.9999988768215905
339 177 -0
340 177 -0.067601049744234989
341 177 -0.99668141436676572
342 177 -0
423 177 0
337 178 -0
338 178 -0
339 178 -1
340 178 -0
341 178 -0
342 178 -0.99668365524927938
423 178 0
3139 179 1
3140 179 0
3141 179 0
3142 179 0
3143 179 0
3144 179 0
3139 180 0
3140 180 1
3141 180 0
3142 180 0
3143 180 0
3144 180 0
3139 181 0
3140 181 0
3141 181 1
3142 181 0
3143 181 0
3144 181 0
3139 182 0
3140 182 0
3141 182 0
3142 182 1
3143 182 0
3144 182 0
3139 183 0
3140 183 0
3141 183 0
3142 183 0
3143 183 1
3144 183 0
3139 184 0
3140 184 0
3141 184 0
3142 184 0
3143 184 0
3144 184 1
2773 185 1
2774 185 0
2775 185 0
2776 185 0
2777 185 0
2778 185 0
2773 186 0
2774 186 1
2775 186 0
2776 186 0
2777 186 0
2778 186 0
2773 187 0
2774 187 0
2775 187 1
2776 187 0
2777 187 0
2778 187 0
2773 188 0
2774 188 0
2775 188 0
2776 188 1
2777 188 0
2778 188 0
2773 189 0
2774 189 0
2775 189 0
2776 189 0
2777 189 1
2778 189 0
2773 190 0
2774 190 0
2775 190 0
2776 190 0
2777 190 0
2778 190 1
1701 191 1
1615 192 0
1616 192 0
1617 192 0
1618 192 0
1619 192 0
1620 192 0
1701 192 0.023574741168151871
1615 193 -1
1616 193 0.045258900204798641
1617 193 -0
1618 193 -0.99668365524927938
1619 193 0.06775671470238516
1620 193 -0
1701 193 0
1615 194 -0.045206927042819985
1616 194 -0.9999988768215905
1617 194 -0
1618 194 -0.067601049744234989
1619 194 -0.99668141436676572
1620 194 -0
1701 194 0
1615 195 -0
1616 195 -0
1617 195 -1
1618 195 -0
1619 195 -0
1620 195 -0.99668365524927938
1701 195 0
1700 196 1
1609 197 0
1610 197 0
1611 197 0
1612 197 0
1613 197 0
1614 197 0
1700 197 0.023574741168151871
1609 198 -1
1610 198 0.045258900204798641
1611 198 -0
1612 198 -0.99668365524927938
1613 198 0.06775671470238516
1614 198 -0
1700 198 0
1609 199 -0.045206927042819985
1610 199 -0.9999988768215905
1611 199 -0
1612 199 -0.067601049744234989
1613 199 -0.99668141436676572
1614 199 -0
1700 199 0
1609 200 -0
1610 200 -0
1611 200 -1
1612 200 -0
1613 200 -0
1614 200 -0.99668365524927938
1700 200 0
2407 201 1
2408 201 0
2409 201 0
2410 201 0
2411 201 0
2412 201 0
2407 202 0
2408 202 1
2409 202 0
2410 202 0
2411 202 0
2412 202 0
2407 203 0
2408 203 0
2409 203 1
2410 203 0
2411 203 0
2412 203 0
2407 204 0
2408 204 0
2409 204 0
2410 204 1
2411 204 0
2412 204 0
2407 205 0
2408 205 0
2409 205 0
2410 205 0
2411 205 1
2412 205 0
2407 206 0
2408 206 0
2409 206 0
2410 206 0
2411 206 0
2412 206 1
2041 207 1
2042 207 0
2043 207 0
2044 207 0
2045 207 0
2046 207 0
2041 208 0
2042 208 1
2043 208 0
2044 208 0
2045 208 0
2046 208 0
2041 209 0
2042 209 0
2043 209 1
2044 209 0
2045 209 0
2046 209 0
2041 210 0
2042 210 0
2043 210 0
2044 210 1
2045 210 0
2046 210 0
2041 211 0
2042 211 0
2043 211 0
2044 211 0
2045 211 1
2046 211 0
2041 212 0
2042 212 0
2043 212 0
2044 212 0
2045 212 0
2046 212 1
849 213 1
763 214 0
764 214 0
765 214 0
766 214 0
767 214 0
768 214 0
849 214 0.023574741168151871
763 215 -1
764 215 0.045258900204798641
765 215 -0
766 215 -0.99668365524927938
767 215 0.06775671470238516
768 215 -0
849 215 0
763 216 -0.045206927042819985
764 216 -0.9999988768215905
765 216 -0
766 216 -0.067601049744234989
767 216 -0.99668141436676572
768 216 -0
849 216 0
763 217 -0
764 217 -0
765 217 -1
766 217 -0
767 217 -0
768 217 -0.99668365524927938
849 217 0
848 218 1
757 219 0
758 219 0
759 219 0
760 219 0
761 219 0
762 219 0
848 219 0.023574741168151871
757 220 -1
758 220 0.045258900204798641
759 220 -0
760 220 -0.99668365524927938
761 220 0.06775671470238516
762 220 -0
848 220 0
757 221 -0.045206927042819985
758 221 -0.9999988768215905
759 221 -0
760 221 -0.067601049744234989
761 221 -0.99668141436676572
762 221 -0
848 221 0
757 222 -0
758 222 -0
759 222 -1
760 222 -0
761 222 -0
762 222 -0.99668365524927938
848 222 0
3133 223 1
3134 223 0
3135 223 0
3136 223 0
3137 223 0
3138 223 0
3133 224 0
3134 224 1
3135 224 0
3136 224 0
3137 224 0
3138 224 0
3133 225 0
3134 225 0
3135 225 1
3136 225 0
3137 225 0
3138 225 0
3133 226 0
3134 226 0
3135 226 0
3136 226 1
3137 226 0
3138 226 0
3133 227 0
3134 227 0
3135 227 0
3136 227 0
3137 227 1
3138 227 0
3133 228 0
3134 228 0
3135 228 0
3136 228 0
3137 228 0
3138 228 1
2035 229 1
2036 229 0
2037 229 0
2038 229 0
2039 229 0
2040 229 0
2035 230 0
2036 230 1
2037 230 0
2038 230 0
2039 230 0
2040 230 0
2035 231 0
2036 231 0
2037 231 1
2038 231 0
2039 231 0
2040 231 0
2035 232 0
2036 232 0
2037 232 0
2038 232 1
2039 232 0
2040 232 0
2035 233 0
2036 233 0
2037 233 0
2038 233 0
2039 233 1
2040 233 0
2035 234 0
2036 234 0
2037 234 0
2038 234 0
2039 234 0
2040 234 1
422 235 1
331 236 0
332 236 0
333 236 0
334 236 0
335 236 0
336 236 0
422 236 0.023574741168151871
331 237 -1
332 237 0.045258900204798641
333 237 -0
334 237 -0.99668365524927938
335 237 0.06775671470238516
336 237 -0
422 237 0
331 238 -0.045206927042819985
332 238 -0.9999988768215905
333 238 -0
334 238 -0.067601049744234989
335 238 -0.99668141436676572
336 238 -0
422 238 0
331 239 -0
332 239 -0
333 239 -1
334 239 -0
335 239 -0
336 239 -0.99668365524927938
422 239 0
421 240 1
325 241 0
326 241 0
327 241 0
328 241 0
329 241 0
330 241 0
421 241 0.023574741168151871
325 242 -1
326 242 0.045258900204798641
327 242 -0
328 242 -0.99668365524927938
329 242 0.06775671470238516
330 242 -0
421 242 0
325 243 -0.045206927042819985
326 243 -0.9999988768215905
327 243 -0
328 243 -0.067601049744234989
329 243 -0.99668141436676572
330 243 -0
421 243 0
325 244 -0
326 244 -0
327 244 -1
328 244 -0
329 244 -0
330 244 -0.99668365524927938
421 244 0
2767 245 1
2768 245 0
2769 245 0
2770 245 0
2771 245 0
2772 245 0
2767 246 0
2768 246 1
2769 246 0
2770 246 0
2771 246 0
2772 246 0
2767 247 0
2768 247 0
2769 247 1
2770 247 0
2771 247 0
2772 247 0
2767 248 0
2768 248 0
2769 248 0
2770 248 1
2771 248 0
2772 248 0
2767 249 0
2768 249 0
2769 249 0
2770 249 0
2771 249 1
2772 249 0
2767 250 0
2768 250 0
2769 250 0
2770 250 0
2771 250 0
2772 250 1
2401 251 1
2402 251 0
2403 251 0
2404 251 0
2405 251 0
2406 251 0
2401 252 0
2402 252 1
2403 252 0
2404 252 0
2405 252 0
2406 252 0
2401 253 0
2402 253 0
2403 253 1
2404 253 0
2405 253 0
2406 253 0
2401 254 0
2402 254 0
2403 254 0
2404 254 1
2405 254 0
2406 254 0
2401 255 0
2402 255 0
2403 255 0
2404 255 0
2405 255 1
2406 255 0
2401 256 0
2402 256 0
2403 256 0
2404 256 0
2405 256 0
2406 256 1
1274 257 1
1183 258 0
1184 258 0
1185 258 0
1186 258 0
1187 258 0
1188 258 0
1274 258 0.023574741168151871
1183 259 -1
1184 259 0.045258900204798641
1185 259 -0
1186 259 -0.99668365524927938
1187 259 0.06775671470238516
1188 259 -0
1274 259 0
1183 260 -0.045206927042819985
1184 260 -0.9999988768215905
1185 260 -0
1186 260 -0.067601049744234989
1187 260 -0.99668141436676572
1188 260 -0
1274 260 0
1183 261 -0
1184 261 -0
1185 261 -1
1186 261 -0
1187 261 -0
1188 261 -0.99668365524927938
1274 261 0
1273 262 1
1177 263 0
1178 263 0
1179 263 0
1180 263 0
1181 263 0
1182 263 0
1273 263 0.023574741168151871
1177 264 -1
1178 264 0.045258900204798641
1179 264 -0
1180 264 -0.99668365524927938
1181 264 0.06775671470238516
1182 264 -0
1273 264 0
1177 265 -0.045206927042819985
1178 265 -0.9999988768215905
1179 265 -0
1180 265 -0.067601049744234989
1181 265 -0.99668141436676572
1182 265 -0
1273 265 0
1177 266 -0
1178 266 -0
1179 266 -1
1180 266 -0
1181 266 -0
1182 266 -0.99668365524927938
1273 266 0
2395 267 1
2396 267 0
2397 267 0
2398 267 0
2399 267 0
2400 267 0
2395 268 0
2396 268 1
2397 268 0
2398 268 0
2399 268 0
2400 268 0
2395 269 0
2396 269 0
2397 269 1
2398 269 0
2399 269 0
2400 269 0
2395 270 0
2396 270 0
2397 270 0
2398 270 1
2399 270 0
2400 270 0
2395 271 0
2396 271 0
2397 271 0
2398 271 0
2399 271 1
2400 271 0
2395 272 0
2396 272 0
2397 272 0
2398 272 0
2399 272 0
2400 272 1
2029 273 1
2030 273 0
2031 273 0
2032 273 0
2033 273 0
2034 273 0
2029 274 0
2030 274 1
2031 274 0
2032 274 0
2033 274 0
2034 274 0
2029 275 0
2030 275 0
2031 275 1
2032 275 0
2033 275 0
2034 275 0
2029 276 0
2030 276 0
2031 276 0
2032 276 1
2033 276 0
2034 276 0
2029 277 0
2030 277 0
2031 277 0
2032 277 0
2033 277 1
2034 277 0
2029 278 0
2030 278 0
2031 278 0
2032 278 0
2033 278 0
2034 278 1
847 279 1
751 280 0
752 280 0
753 280 0
754 280 0
755 280 0
756 280 0
847 280 0.023574741168151871
751 281 -1
752 281 0.045258900204798641
753 281 -0
754 281 -0.99668365524927938
755 281 0.06775671470238516
756 281 -0
847 281 0
751 282 -0.045206927042819985
752 282 -0.9999988768215905
753 282 -0
754 282 -0.067601049744234989
755 282 -0.99668141436676572
756 282 -0
847 282 0
751 283 -0
752 283 -0
753 283 -1
754 283 -0
755 283 -0
756 283 -0.99668365524927938
847 283 0
846 284 1
745 285 0
746 285 0
747 285 0
748 285 0
749 285 0
750 285 0
846 285 0.023574741168151871
745 286 -1
746 286 0.045258900204798641
747 286 -0
748 286 -0.99668365524927938
749 286 0.06775671470238516
750 286 -0
846 286 0
745 287 -0.045206927042819985
746 287 -0.9999988768215905
747 287 -0
748 287 -0.067601049744234989
749 287 -0.99668141436676572
750 287 -0
846 287 0
745 288 -0
746 288 -0
747 288 -1
748 288 -0
749 288 -0
750 288 -0.99668365524927938
846 288 0
3127 289 1
3128 289 0
3129 289 0
3130 289 0
3131 289 0
3132 289 0
3127 290 0
3128 290 1
3129 290 0
3130 290 0
3131 290 0
3132 290 0
3127 291 0
3128 291 0
3129 291 1
3130 291 0
3131 291 0
3132 291 0
3127 292 0
3128 292 0
3129 292 0
3130 292 1
3131 292 0
3132 292 0
3127 293 0
3128 293 0
3129 293 0
3130 293 0
3131 293 1
3132 293 0
3127 294 0
3128 294 0
3129 294 0
3130 294 0
3131 294 0
3132 294 1
2761 295 1
2762 295 0
2763 295 0
2764 295 0
2765 295 0
2766 295 0
2761 296 0
2762 296 1
2763 296 0
2764 296 0
2765 296 0
2766 296 0
2761 297 0
2762 297 0
2763 297 1
2764 297 0
2765 297 0
2766 297 0
2761 298 0
2762 298 0
2763 298 0
2764 298 1
2765 298 0
2766 298 0
2761 299 0
2762 299 0
2763 299 0
2764 299 0
2765 299 1
2766 299 0
2761 300 0
2762 300 0
2763 300 0
2764 300 0
2765 300 0
2766 300 1
1699 301 1
1603 302 0
1604 302 0
1605 302 0
1606 302 0
1607 302 0
1608 302 0
1699 302 0.023574741168151871
1603 303 -1
1604 303 0.045258900204798641
1605 303 -0
1606 303 -0.99668365524927938
1607 303 0.06775671470238516
1608 303 -0
1699 303 0
1603 304 -0.045206927042819985
1604 304 -0.9999988768215905
1605 304 -0
1606 304 -0.067601049744234989
1607 304 -0.99668141436676572
1608 304 -0
1699 304 0
1603 305 -0
1604 305 -0
1605 305 -1
1606 305 -0
1607 305 -0
1608 305 -0.99668365524927938
1699 305 0
1698 306 1
1597 307 0
1598 307 0
1599 307 0
1600 307 0
1601 307 0
1602 307 0
1698 307 0.023574741168151871
1597 308 -1
1598 308 0.045258900204798641
1599 308 -0
1600 308 -0.99668365524927938
1601 308 0.06775671470238516
1602 308 -0
1698 308 0
1597 309 -0.045206927042819985
1598 309 -0.9999988768215905
1599 309 -0
1600 309 -0.067601049744234989
1601 309 -0.99668141436676572
1602 309 -0
1698 309 0
1597 310 -0
1598 310 -0
1599 310 -1
1600 310 -0
1601 310 -0
1602 310 -0.99668365524927938
1698 310 0
2755 311 1
2756 311 0
2757 311 0
2758 311 0
2759 311 0
2760 311 0
2755 312 0
2756 312 1
2757 312 0
2758 312 0
2759 312 0
2760 312 0
2755 313 0
2756 313 0
2757 313 1
2758 313 0
2759 313 0
2760 313 0
2755 314 0
2756 314 0
2757 314 0
2758 314 1
2759 314 0
2760 314 0
2755 315 0
2756 315 0
2757 315 0
2758 315 0
2759 315 1
2760 315 0
2755 316 0
2756 316 0
2757 316 0
2758 316 0
2759 316 0
2760 316 1
2389 317 1
2390 317 0
2391 317 0
2392 317 0
2393 317 0
2394 317 0
2389 318 0
2390 318 1
2391 318 0
2392 318 0
2393 318 0
2394 318 0
2389 319 0
2390 319 0
2391 319 1
2392 319 0
2393 319 0
2394 319 0
2389 320 0
2390 320 0
2391 320 0
2392 320 1
2393 320 0
2394 320 0
2389 321 0
2390 321 0
2391 321 0
2392 321 0
2393 321 1
2394 321 0
2389 322 0
2390 322 0
2391 322 0
2392 322 0
2393 322 0
2394 322 1
1272 323 1
1171 324 0
1172 324 0
1173 324 0
1174 324 0
1175 324 0
1176 324 0
1272 324 0.023574741168151871
1171 325 -1
1172 325 0.045258900204798641
1173 325 -0
1174 325 -0.99668365524927938
1175 325 0.06775671470238516
1176 325 -0
1272 325 0
1171 326 -0.045206927042819985
1172 326 -0.9999988768215905
1173 326 -0
1174 326 -0.067601049744234989
1175 326 -0.99668141436676572
1176 326 -0
1272 326 0
1171 327 -0
1172 327 -0
1173 327 -1
1174 327 -0
1175 327 -0
1176 327 -0.99668365524927938
1272 327 0
1271 328 1
1165 329 0
1166 329 0
1167 329 0
1168 329 0
1169 329 0
1170 329 0
1271 329 0.023574741168151871
1165 330 -1
1166 330 0.045258900204798641
1167 330 -0
1168 330 -0.99668365524927938
1169 330 0.06775671470238516
1170 330 -0
1271 330 0
1165 331 -0.045206927042819985
1166 331 -0.9999988768215905
1167 331 -0
1168 331 -0.067601049744234989
1169 331 -0.99668141436676572
1170 331 -0
1271 331 0
1165 332 -0
1166 332 -0
1167 332 -1
1168 332 -0
1169 332 -0
1170 332 -0.99668365524927938
1271 332 0
3121 333 1
3122 333 0
3123 333 0
3124 333 0
3125 333 0
3126 333 0
3121 334 0
3122 334 1
3123 334 0
3124 334 0
3125 334 0
3126 334 0
3121 335 0
3122 335 0
3123 335 1
3124 335 0
3125 335 0
3126 335 0
3121 336 0
3122 336 0
3123 336 0
3124 336 1
3125 336 0
3126 336 0
3121 337 0
3122 337 0
3123 337 0
3124 337 0
3125 337 1
3126 337 0
3121 338 0
3122 338 0
3123 338 0
3124 338 0
3125 338 0
3126 338 1
2023 339 1
2024 339 0
2025 339 0
2026 339 0
2027 339 0
2028 339 0
2023 340 0
2024 340 1
2025 340 0
2026 340 0
2027 340 0
2028 340 0
2023 341 0
2024 341 0
2025 341 1
2026 341 0
2027 341 0
2028 341 0
2023 342 0
2024 342 0
2025 342 0
2026 342 1
2027 342 0
2028 342 0
2023 343 0
2024 343 0
2025 343 0
2026 343 0
2027 343 1
2028 343 0
2023 344 0
2024 344 0
2025 344 0
2026 344 0
2027 344 0
2028 344 1
420 345 1
319 346 0
320 346 0
321 346 0
322 346 0
323 346 0
324 346 0
420 346 0.023574741168151871
319 347 -1
320 347 0.045258900204798641
321 347 -0
322 347 -0.99668365524927938
323 347 0.06775671470238516
324 347 -0
420 347 0
319 348 -0.045206927042819985
320 348 -0.9999988768215905
321 348 -0
322 348 -0.067601049744234989
323 348 -0.99668141436676572
324 348 -0
420 348 0
319 349 -0
320 349 -0
321 349 -1
322 349 -0
323 349 -0
324 349 -0.99668365524927938
420 349 0
419 350 1
313 351 0
314 351 0
315 351 0
316 351 0
317 351 0
318 351 0
419 351 0.023574741168151871
313 352 -1
314 352 0.045258900204798641
315 352 -0
316 352 -0.99668365524927938
317 352 0.06775671470238516
318 352 -0
419 352 0
313 353 -0.045206927042819985
314 353 -0.9999988768215905
315 353 -0
316 353 -0.067601049744234989
317 353 -0.99668141436676572
318 353 -0
419 353 0
313 354 -0
314 354 -0
315 354 -1
316 354 -0
317 354 -0
318 354 -0.99668365524927938
419 354 0
3115 355 1
3116 355 0
3117 355 0
3118 355 0
3119 355 0
3120 355 0
3115 356 0
3116 356 1
3117 356 0
3118 356 0
3119 356 0
3120 356 0
3115 357 0
3116 357 0
3117 357 1
3118 357 0
3119 357 0
3120 357 0
3115 358 0
3116 358 0
3117 358 0
3118 358 1
3119 358 0
3120 358 0
3115 359 0
3116 359 0
3117 359 0
3118 359 0
3119 359 1
3120 359 0
3115 360 0
3116 360 0
3117 360 0
3118 360 0
3119 360 0
3120 360 1
2749 361 1
2750 361 0
2751 361 0
2752 361 0
2753 361 0
2754 361 0
2749 362 0
2750 362 1
2751 362 0
2752 362 0
2753 362 0
2754 362 0
2749 363 0
2750 363 0
2751 363 1
2752 363 0
2753 363 0
2754 363 0
2749 364 0
2750 364 0
2751 364 0
2752 364 1
2753 364 0
2754 364 0
2749 365 0
2750 365 0
2751 365 0
2752 365 0
2753 365 1
2754 365 0
2749 366 0
2750 366 0
2751 366 0
2752 366 0
2753 366 0
2754 366 1
1697 367 1
1591 368 0
1592 368 0
1593 368 0
1594 368 0
1595 368 0
1596 368 0
1697 368 0.023574741168151871
1591 369 -1
1592 369 0.045258900204798641
1593 369 -0
1594 369 -0.99668365524927938
1595 369 0.06775671470238516
1596 369 -0
1697 369 0
1591 370 -0.045206927042819985
1592 370 -0.9999988768215905
1593 370 -0
1594 370 -0.067601049744234989
1595 370 -0.99668141436676572
1596 370 -0
1697 370 0
1591 371 -0
1592 371 -0
1593 371 -1
1594 371 -0
1595 371 -0
1596 371 -0.99668365524927938
1697 371 0
1696 372 1
1585 373 0
1586 373 0
1587 373 0
1588 373 0
1589 373 0
1590 373 0
1696 373 0.023574741168151871
1585 374 -1
1586 374 0.045258900204798641
1587 374 -0
1588 374 -0.99668365524927938
1589 374 0.06775671470238516
1590 374 -0
1696 374 0
1585 375 -0.045206927042819985
1586 375 -0.9999988768215905
1587 375 -0
1588 375 -0.067601049744234989
1589 375 -0.99668141436676572
1590 375 -0
1696 375 0
1585 376 -0
1586 376 -0
1587 376 -1
1588 376 -0
1589 376 -0
1590 376 -0.99668365524927938
1696 376 0
2383 377 1
2384 377 0
2385 377 0
2386 377 0
2387 377 0
2388 377 0
2383 378 0
2384 378 1
2385 378 0
2386 378 0
2387 378 0
2388 378 0
2383 379 0
2384 379 0
2385 379 1
2386 379 0
2387 379 0
2388 379 0
2383 380 0
2384 380 0
2385 380 0
2386 380 1
2387 380 0
2388 380 0
2383 381 0
2384 381 0
2385 381 0
2386 381 0
2387 381 1
2388 381 0
2383 382 0
2384 382 0
2385 382 0
2386 382 0
2387 382 0
2388 382 1
2017 383 1
2018 383 0
2019 383 0
2020 383 0
2021 383 0
2022 383 0
2017 384 0
2018 384 1
2019 384 0
2020 384 0
2021 384 0
2022 384 0
2017 385 0
2018 385 0
2019 385 1
2020 385 0
2021 385 0
2022 385 0
2017 386 0
2018 386 0
2019 386 0
2020 386 1
2021 386 0
2022 386 0
2017 387 0
2018 387 0
2019 387 0
2020 387 0
2021 387 1
2022 387 0
2017 388 0
2018 388 0
2019 388 0
2020 388 0
2021 388 0
2022 388 1
845 389 1
739 390 0
740 390 0
741 390 0
742 390 0
743 390 0
744 390 0
845 390 0.023574741168151871
739 391 -1
740 391 0.045258900204798641
741 391 -0
742 391 -0.99668365524927938
743 391 0.06775671470238516
744 391 -0
845 391 0
739 392 -0.045206927042819985
740 392 -0.9999988768215905
741 392 -0
742 392 -0.067601049744234989
743 392 -0.99668141436676572
744 392 -0
845 392 0
739 393 -0
740 393 -0
741 393 -1
742 393 -0
743 393 -0
744 393 -0.99668365524927938
845 393 0
844 394 1
733 395 0
734 395 0
735 395 0
736 395 0
737 395 0
738 395 0
844 395 0.023574741168151871
733 396 -1
734 396 0.045258900204798641
735 396 -0
736 396 -0.99668365524927938
737 396 0.06775671470238516
738 396 -0
844 396 0
733 397 -0.045206927042819985
734 397 -0.9999988768215905
735 397 -0
736 397 -0.067601049744234989
737 397 -0.99668141436676572
738 397 -0
844 397 0
733 398 -0
734 398 -0
735 398 -1
736 398 -0
737 398 -0
738 398 -0.99668365524927938
844 398 0
3109 399 1
3110 399 0
3111 399 0
3112 399 0
3113 399 0
3114 399 0
3109 400 0
3110 400 1
3111 400 0
3112 400 0
3113 400 0
3114 400 0
3109 401 0
3110 401 0
3111 401 1
3112 401 0
3113 401 0
3114 401 0
3109 402 0
3110 402 0
3111 402 0
3112 402 1
3113 402 0
3114 402 0
3109 403 0
3110 403 0
3111 403 0
3112 403 0
3113 403 1
3114 403 0
3109 404 0
3110 404 0
3111 404 0
3112 404 0
3113 404 0
3114 404 1
2011 405 1
2012 405 0
2013 405 0
2014 405 0
2015 405 0
2016 405 0
2011 406 0
2012 406 1
2013 406 0
2014 406 0
2015 406 0
2016 406 0
2011 407 0
2012 407 0
2013 407 1
2014 407 0
2015 407 0
2016 407 0
2011 408 0
2012 408 0
2013 408 0
2014 408 1
2015 408 0
2016 408 0
2011 409 0
2012 409 0
2013 409 0
2014 409 0
2015 409 1
2016 409 0
2011 410 0
2012 410 0
2013 410 0
2014 410 0
2015 410 0
2016 410 1
418 411 1
307 412 0
308 412 0
309 412 0
310 412 0
311 412 0
312 412 0
418 412 0.023574741168151871
307 413 -1
308 413 0.045258900204798641
309 413 -0
310 413 -0.99668365524927938
311 413 0.06775671470238516
312 413 -0
418 413 0
307 414 -0.045206927042819985
308 414 -0.9999988768215905
309 414 -0
310 414 -0.067601049744234989
311 414 -0.99668141436676572
312 414 -0
418 414 0
307 415 -0
308 415 -0
309 415 -1
310 415 -0
311 415 -0
312 415 -0.99668365524927938
418 415 0
417 416 1
301 417 0
302 417 0
303 417 0
304 417 0
305 417 0
306 417 0
417 417 0.023574741168151871
301 418 -1
302 418 0.045258900204798641
303 418 -0
304 418 -0.99668365524927938
305 418 0.06775671470238516
306 418 -0
417 418 0
301 419 -0.045206927042819985
302 419 -0.9999988768215905
303 419 -0
304 419 -0.067601049744234989
305 419 -0.99668141436676572
306 419 -0
417 419 0
301 420 -0
302 420 -0
303 420 -1
304 420 -0
305 420 -0
306 420 -0.99668365524927938
417 420 0
2743 421 1
2744 421 0
2745 421 0
2746 421 0
2747 421 0
2748 421 0
2743 422 0
2744 422 1
2745 422 0
2746 422 0
2747 422 0
2748 422 0
2743 423 0
2744 423 0
2745 423 1
2746 423 0
2747 423 0
2748 423 0
2743 424 0
2744 424 0
2745 424 0
2746 424 1
2747 424 0
2748 424 0
2743 425 0
2744 425 0
2745 425 0
2746 425 0
2747 425 1
2748 425 0
2743 426 0
2744 426 0
2745 426 0
2746 426 0
2747 426 0
2748 426 1
2377 427 1
2378 427 0
2379 427 0
2380 427 0
2381 427 0
2382 427 0
2377 428 0
2378 428 1
2379 428 0
2380 428 0
2381 428 0
2382 428 0
2377 429 0
2378 429 0
2379 429 1
2380 429 0
2381 429 0
2382 429 0
2377 430 0
2378 430 0
2379 430 0
2380 430 1
2381 430 0
2382 430 0
2377 431 0
2378 431 0
2379 431 0
2380 431 0
2381 431 1
2382 431 0
2377 432 0
2378 432 0
2379 432 0
2380 432 0
2381 432 0
2382 432 1
1270 433 1
1159 434 0
1160 434 0
1161 434 0
1162 434 0
1163 434 0
1164 434 0
1270 434 0.023574741168151871
1159 435 -1
1160 435 0.045258900204798641
1161 435 -0
1162 435 -0.99668365524927938
1163 435 0.06775671470238516
1164 435 -0
1270 435 0
1159 436 -0.045206927042819985
1160 436 -0.9999988768215905
1161 436 -0
1162 436 -0.067601049744234989
1163 436 -0.99668141436676572
1164 436 -0
1270 436 0
1159 437 -0
1160 437 -0
1161 437 -1
1162 437 -0
1163 437 -0
1164 437 -0.99668365524927938
1270 437 0
1269 438 1
1153 439 0
1154 439 0
1155 439 0
1156 439 0
1157 439 0
1158 439 0
1269 439 0.023574741168151871
1153 440 -1
1154 440 0.045258900204798641
1155 440 -0
1156 440 -0.99668365524927938
1157 440 0.06775671470238516
1158 440 -0
1269 440 0
1153 441 -0.045206927042819985
1154 441 -0.9999988768215905
1155 441 -0
1156 441 -0.067601049744234989
1157 441 -0.99668141436676572
1158 441 -0
1269 441 0
1153 442 -0
1154 442 -0
1155 442 -1
1156 442 -0
1157 442 -0
1158 442 -0.99668365524927938
1269 442 0
2371 443 1
2372 443 0
2373 443 0
2374 443 0
2375 443 0
2376 443 0
2371 444 0
2372 444 1
2373 444 0
2374 444 0
2375 444 0
2376 444 0
2371 445 0
2372 445 0
2373 445 1
2374 445 0
2375 445 0
2376 445 0
2371 446 0
2372 446 0
2373 446 0
2374 446 1
2375 446 0
2376 446 0
2371 447 0
2372 447 0
2373 447 0
2374 447 0
2375 447 1
2376 447 0
2371 448 0
2372 448 0
2373 448 0
2374 448 0
2375 448 0
2376 448 1
2005 449 1
2006 449 0
2007 449 0
2008 449 0
2009 449 0
2010 449 0
2005 450 0
2006 450 1
2007 450 0
2008 450 0
2009 450 0
2010 450 0
2005 451 0
2006 451 0
2007 451 1
2008 451 0
2009 451 0
2010 451 0
2005 452 0
2006 452 0
2007 452 0
2008 452 1
2009 452 0
2010 452 0
2005 453 0
2006 453 0
2007 453 0
2008 453 0
2009 453 1
2010 453 0
2005 454 0
2006 454 0
2007 454 0
2008 454 0
2009 454 0
2010 454 1
843 455 1
727 456 0
728 456 0
729 456 0
730 456 0
731 456 0
732 456 0
843 456 0.023574741168151871
727 457 -1
728 457 0.045258900204798641
729 457 -0
730 457 -0.99668365524927938
731 457 0.06775671470238516
732 457 -0
843 457 0
727 458 -0.045206927042819985
728 458 -0.9999988768215905
729 458 -0
730 458 -0.067601049744234989
731 458 -0.99668141436676572
732 458 -0
843 458 0
727 459 -0
728 459 -0
729 459 -1
730 459 -0
731 459 -0
732 459 -0.99668365524927938
843 459 0
842 460 1
721 461 0
722 461 0
723 461 0
724 461 0
725 461 0
726 461 0
842 461 0.023574741168151871
721 462 -1
722 462 0.045258900204798641
723 462 -0
724 462 -0.99668365524927938
725 462 0.06775671470238516
726 462 -0
842 462 0
721 463 -0.045206927042819985
722 463 -0.9999988768215905
723 463 -0
724 463 -0.067601049744234989
725 463 -0.99668141436676572
726 463 -0
842 463 0
721 464 -0
722 464 -0
723 464 -1
724 464 -0
725 464 -0
726 464 -0.99668365524927938
842 464 0
3103 465 1
3104 465 0
3105 465 0
3106 465 0
3107 465 0
3108 465 0
3103 466 0
3104 466 1
3105 466 0
3106 466 0
3107 466 0
3108 466 0
3103 467 0
3104 467 0
3105 467 1
3106 467 0
3107 467 0
3108 467 0
3103 468 0
3104 468 0
3105 468 0
3106 468 1
3107 468 0
3108 468 0
3103 469 0
3104 469 0
3105 469 0
3106 469 0
3107 469 1
3108 469 0
3103 470 0
3104 470 0
3105 470 0
3106 470 0
3107 470 0
3108 470 1
2737 471 1
2738 471 0
2739 471 0
2740 471 0
2741 471 0
2742 471 0
2737 472 0
2738 472 1
2739 472 0
2740 472 0
2741 472 0
2742 472 0
2737 473 0
2738 473 0
2739 473 1
2740 473 0
2741 473 0
2742 473 0
2737 474 0
2738 474 0
2739 474 0
2740 474 1
2741 474 0
2742 474 0
2737 475 0
2738 475 0
2739 475 0
2740 475 0
2741 475 1
2742 475 0
2737 476 0
2738 476 0
2739 476 0
2740 476 0
2741 476 0
2742 476 1
1695 477 1
1579 478 0
1580 478 0
1581 478 0
1582 478 0
1583 478 0
1584 478 0
1695 478 0.023574741168151871
1579 479 -1
1580 479 0.045258900204798641
1581 479 -0
1582 479 -0.99668365524927938
1583 479 0.06775671470238516
1584 479 -0
1695 479 0
1579 480 -0.045206927042819985
1580 480 -0.9999988768215905
1581 480 -0
1582 480 -0.067601049744234989
1583 480 -0.99668141436676572
1584 480 -0
1695 480 0
1579 481 -0
1580 481 -0
1581 481 -1
1582 481 -0
1583 481 -0
1584 481 -0.99668365524927938
1695 481 0
1694 482 1
1573 483 0
1574 483 0
1575 483 0
1576 483 0
1577 483 0
1578 483 0
1694 483 0.023574741168151871
1573 484 -1
1574 484 0.045258900204798641
1575 484 -0
1576 484 -0.99668365524927938
1577 484 0.06775671470238516
1578 484 -0
1694 484 0
1573 485 -0.045206927042819985
1574 485 -0.9999988768215905
1575 485 -0
1576 485 -0.067601049744234989
1577 485 -0.99668141436676572
1578 485 -0
1694 485 0
1573 486 -0
1574 486 -0
1575 486 -1
1576 486 -0
1577 486 -0
1578 486 -0.99668365524927938
1694 486 0
2731 487 1
2732 487 0
2733 487 0
2734 487 0
2735 487 0
2736 487 0
2731 488 0
2732 488 1
2733 488 0
2734 488 0
2735 488 0
2736 488 0
2731 489 0
2732 489 0
2733 489 1
2734 489 0
2735 489 0
2736 489 0
2731 490 0
2732 490 0
2733 490 0
2734 490 1
2735 490 0
2736 490 0
2731 491 0
2732 491 0
2733 491 0
2734 491 0
2735 491 1
2736 491 0
2731 492 0
2732 492 0
2733 492 0
2734 492 0
2735 492 0
2736 492 1
2365 493 1
2366 493 0
2367 493 0
2368 493 0
2369 493 0
2370 493 0
2365 494 0
2366 494 1
2367 494 0
2368 494 0
2369 494 0
2370 494 0
2365 495 0
2366 495 0
2367 495 1
2368 495 0
2369 495 0
2370 495 0
2365 496 0
2366 496 0
2367 496 0
2368 496 1
2369 496 0
2370 496 0
2365 497 0
2366 497 0
2367 497 0
2368 497 0
2369 497 1
2370 497 0
2365 498 0
2366 498 0
2367 498 0
2368 498 0
2369 498 0
2370 498 1
1268 499 1
1147 500 0
1148 500 0
1149 500 0
1150 500 0
1151 500 0
1152 500 0
1268 500 0.023574741168151871
1147 501 -1
1148 501 0.045258900204798641
1149 501 -0
1150 501 -0.99668365524927938
1151 501 0.06775671470238516
1152 501 -0
1268 501 0
1147 502 -0.045206927042819985
1148 502 -0.9999988768215905
1149 502 -0
1150 502 -0.067601049744234989
1151 502 -0.99668141436676572
1152 502 -0
1268 502 0
1147 503 -0
1148 503 -0
1149 503 -1
1150 503 -0
1151 503 -0
1152 503 -0.99668365524927938
1268 503 0
1267 504 1
1141 505 0
1142 505 0
1143 505 0
1144 505 0
1145 505 0
1146 505 0
1267 505 0.023574741168151871
1141 506 -1
1142 506 0.045258900204798641
1143 506 -0
1144 506 -0.99668365524927938
1145 506 0.06775671470238516
1146 506 -0
1267 506 0
1141 507 -0.045206927042819985
1142 507 -0.9999988768215905
1143 507 -0
1144 507 -0.067601049744234989
1145 507 -0.99668141436676572
1146 507 -0
1267 507 0
1141 508 -0
1142 508 -0
1143 508 -1
1144 508 -0
1145 508 -0
1146 508 -0.99668365524927938
1267 508 0
3097 509 1
3098 509 0
3099 509 0
3100 509 0
3101 509 0
3102 509 0
3097 510 0
3098 510 1
3099 510 0
3100 510 0
3101 510 0
3102 510 0
3097 511 0
3098 511 0
3099 511 1
3100 511 0
3101 511 0
3102 511 0
3097 512 0
3098 512 0
3099 512 0
3100 512 1
3101 512 0
3102 512 0
3097 513 0
3098 513 0
3099 513 0
3100 513 0
3101 513 1
3102 513 0
3097 514 0
3098 514 0
3099 514 0
3100 514 0
3101 514 0
3102 514 1
1999 515 1
2000 515 0
2001 515 0
2002 515 0
2003 515 0
2004 515 0
1999 516 0
2000 516 1
2001 516 0
2002 516 0
2003 516 0
2004 516 0
1999 517 0
2000 517 0
2001 517 1
2002 517 0
2003 517 0
2004 517 0
1999 518 0
2000 518 0
2001 518 0
2002 518 1
2003 518 0
2004 518 0
1999 519 0
2000 519 0
2001 519 0
2002 519 0
2003 519 1
2004 519 0
1999 520 0
2000 520 0
2001 520 0
2002 520 0
2003 520 0
2004 520 1
416 521 1
295 522 0
296 522 0
297 522 0
298 522 0
299 522 0
300 522 0
416 522 0.023574741168151871
295 523 -1
296 523 0.045258900204798641
297 523 -0
298 523 -0.99668365524927938
299 523 0.06775671470238516
300 523 -0
416 523 0
295 524 -0.045206927042819985
296 524 -0.9999988768215905
297 524 -0
298 524 -0.067601049744234989
299 524 -0.99668141436676572
300 524 -0
416 524 0
295 525 -0
296 525 -0
297 525 -1
298 525 -0
299 525 -0
300 525 -0.99668365524927938
416 525 0
415 526 1
289 527 0
290 527 0
291 527 0
292 527 0
293 527 0
294 527 0
415 527 0.023574741168151871
289 528 -1
290 528 0.045258900204798641
291 528 -0
292 528 -0.99668365524927938
293 528 0.06775671470238516
294 528 -0
415 528 0
289 529 -0.045206927042819985
290 529 -0.9999988768215905
291 529 -0
292 529 -0.067601049744234989
293 529 -0.99668141436676572
294 529 -0
415 529 0
289 530 -0
290 530 -0
291 530 -1
292 530 -0
293 530 -0
294 530 -0.99668365524927938
415 530 0
3091 531 1
3092 531 0
3093 531 0
3094 531 0
3095 531 0
3096 531 0
3091 532 0
3092 532 1
3093 532 0
3094 532 0
3095 532 0
3096 532 0
3091 533 0
3092 533 0
3093 533 1
3094 533 0
3095 533 0
3096 533 0
3091 534 0
3092 534 0
3093 534 0
3094 534 1
3095 534 0
3096 534 0
3091 535 0
3092 535 0
3093 535 0
3094 535 0
3095 535 1
3096 535 0
3091 536 0
3092 536 0
3093 536 0
3094 536 0
3095 536 0
3096 536 1
2725 537 1
2726 537 0
2727 537 0
2728 537 0
2729 537 0
2730 537 0
2725 538 0
2726 538 1
2727 538 0
2728 538 0
2729 538 0
2730 538 0
2725 539 0
2726 539 0
2727 539 1
2728 539 0
2729 539 0
2730 539 0
2725 540 0
2726 540 0
2727 540 0
2728 540 1
2729 540 0
2730 540 0
2725 541 0
2726 541 0
2727 541 0
2728 541 0
2729 541 1
2730 541 0
2725 542 0
2726 542 0
2727 542 0
2728 542 0
2729 542 0
2730 542 1
1693 543 1
1567 544 0
1568 544 0
1569 544 0
1570 544 0
1571 544 0
1572 544 0
1693 544 0.023574741168151871
1567 545 -1
1568 545 0.045258900204798641
1569 545 -0
1570 545 -0.99668365524927938
1571 545 0.06775671470238516
1572 545 -0
1693 545 0
1567 546 -0.045206927042819985
1568 546 -0.9999988768215905
1569 546 -0
1570 546 -0.067601049744234989
1571 546 -0.99668141436676572
1572 546 -0
1693 546 0
1567 547 -0
1568 547 -0
1569 547 -1
1570 547 -0
1571 547 -0
1572 547 -0.99668365524927938
1693 547 0
1692 548 1
1561 549 0
1562 549 0
1563 549 0
1564 549 0
1565 549 0
1566 549 0
1692 549 0.023574741168151871
1561 550 -1
1562 550 0.045258900204798641
1563 550 -0
1564 550 -0.99668365524927938
1565 550 0.06775671470238516
1566 550 -0
1692 550 0
1561 551 -0.045206927042819985
1562 551 -0.9999988768215905
1563 551 -0
1564 551 -0.067601049744234989
1565 551 -0.99668141436676572
1566 551 -0
1692 551 0
1561 552 -0
1562 552 -0
1563 552 -1
1564 552 -0
1565 552 -0
1566 552 -0.99668365524927938
1692 552 0
2359 553 1
2360 553 0
2361 553 0
2362 553 0
2363 553 0
2364 553 0
2359 554 0
2360 554 1
2361 554 0
2362 554 0
2363 554 0
2364 554 0
2359 555 0
2360 555 0
2361 555 1
2362 555 0
2363 555 0
2364 555 0
2359 556 0
2360 556 0
2361 556 0
2362 556 1
2363 556 0
2364 556 0
2359 557 0
2360 557 0
2361 557 0
2362 557 0
2363 557 1
2364 557 0
2359 558 0
2360 558 0
2361 558 0
2362 558 0
2363 558 0
2364 558 1
1993 559 1
1994 559 0
1995 559 0
1996 559 0
1997 559 0
1998 559 0
1993 560 0
1994 560 1
1995 560 0
1996 560 0
1997 560 0
1998 560 0
1993 561 0
1994 561 0
1995 561 1
1996 561 0
1997 561 0
1998 561 0
1993 562 0
1994 562 0
1995 562 0
1996 562 1
1997 562 0
1998 562 0
1993 563 0
1994 563 0
1995 563 0
1996 563 0
1997 563 1
1998 563 0
1993 564 0
1994 564 0
1995 564 0
1996 564 0
1997 564 0
1998 564 1
841 565 1
715 566 0
716 566 0
717 566 0
718 566 0
719 566 0
720 566 0
841 566 0.023574741168151871
715 567 -1
716 567 0.045258900204798641
717 567 -0
718 567 -0.99668365524927938
719 567 0.06775671470238516
720 567 -0
841 567 0
715 568 -0.045206927042819985
716 568 -0.9999988768215905
717 568 -0
718 568 -0.067601049744234989
719 568 -0.99668141436676572
720 568 -0
841 568 0
715 569 -0
716 569 -0
717 569 -1
718 569 -0
719 569 -0
720 569 -0.99668365524927938
841 569 0
840 570 1
709 571 0
710 571 0
711 571 0
712 571 0
713 571 0
714 571 0
840 571 0.023574741168151871
709 572 -1
710 572 0.045258900204798641
711 572 -0
712 572 -0.99668365524927938
713 572 0.06775671470238516
714 572 -0
840 572 0
709 573 -0.045206927042819985
710 573 -0.9999988768215905
711 573 -0
712 573 -0.067601049744234989
713 573 -0.99668141436676572
714 573 -0
840 573 0
709 574 -0
710 574 -0
711 574 -1
712 574 -0
713 574 -0
714 574 -0.99668365524927938
840 574 0
3085 575 1
3086 575 0
3087 575 0
3088 575 0
3089 575 0
3090 575 0
3085 576 0
3086 576 1
3087 576 0
3088 576 0
3089 576 0
3090 576 0
3085 577 0
3086 577 0
3087 577 1
3088 577 0
3089 577 0
3090 577 0
3085 578 0
3086 578 0
3087 578 0
3088 578 1
3089 578 0
3090 578 0
3085 579 0
3086 579 0
3087 579 0
3088 579 0
3089 579 1
3090 579 0
3085 580 0
3086 580 0
3087 580 0
3088 580 0
3089 580 0
3090 580 1
1987 581 1
1988 581 0
1989 581 0
1990 581 0
1991 581 0
1992 581 0
1987 582 0
1988 582 1
1989 582 0
1990 582 0
1991 582 0
1992 582 0
1987 583 0
1988 583 0
1989 583 1
1990 583 0
1991 583 0
1992 583 0
1987 584 0
1988 584 0
1989 584 0
1990 584 1
1991 584 0
1992 584 0
1987 585 0
1988 585 0
1989 585 0
1990 585 0
1991 585 1
1992 585 0
1987 586 0
1988 586 0
1989 586 0
1990 586 0
1991 586 0
1992 586 1
414 587 1
283 588 0
284 588 0
285 588 0
286 588 0
287 588 0
288 588 0
414 588 0.023574741168151871
283 589 -1
284 589 0.045258900204798641
285 589 -0
286 589 -0.99668365524927938
287 589 0.06775671470238516
288 589 -0
414 589 0
283 590 -0.045206927042819985
284 590 -0.9999988768215905
285 590 -0
286 590 -0.067601049744234989
287 590 -0.99668141436676572
288 590 -0
414 590 0
283 591 -0
284 591 -0
285 591 -1
286 591 -0
287 591 -0
288 591 -0.99668365524927938
414 591 0
413 592 1
277 593 0
278 593 0
279 593 0
280 593 0
281 593 0
282 593 0
413 593 0.023574741168151871
277 594 -1
278 594 0.045258900204798641
279 594 -0
280 594 -0.99668365524927938
281 594 0.06775671470238516
282 594 -0
413 594 0
277 595 -0.045206927042819985
278 595 -0.9999988768215905
279 595 -0
280 595 -0.067601049744234989
281 595 -0.99668141436676572
282 595 -0
413 595 0
277 596 -0
278 596 -0
279 596 -1
280 596 -0
281 596 -0
282 596 -0.99668365524927938
413 596 0
2719 597 1
2720 597 0
2721 597 0
2722 597 0
2723 597 0
2724 597 0
2719 598 0
2720 598 1
2721 598 0
2722 598 0
2723 598 0
2724 598 0
2719 599 0
2720 599 0
2721 599 1
2722 599 0
2723 599 0
2724 599 0
2719 600 0
2720 600 0
2721 600 0
2722 600 1
2723 600 0
2724 600 0
2719 601 0
2720 601 0
2721 601 0
2722 601 0
2723 601 1
2724 601 0
2719 602 0
2720 602 0
2721 602 0
2722 602 0
2723 602 0
2724 602 1
2353 603 1
2354 603 0
2355 603 0
2356 603 0
2357 603 0
2358 603 0
2353 604 0
2354 604 1
2355 604 0
2356 604 0
2357 604 0
2358 604 0
2353 605 0
2354 605 0
2355 605 1
2356 605 0
2357 605 0
2358 605 0
2353 606 0
2354 606 0
2355 606 0
2356 606 1
2357 606 0
2358 606 0
2353 607 0
2354 607 0
2355 607 0
2356 607 0
2357 607 1
2358 607 0
2353 608 0
2354 608 0
2355 608 0
2356 608 0
2357 608 0
2358 608 1
1266 609 1
1135 610 0
1136 610 0
1137 610 0
1138 610 0
1139 610 0
1140 610 0
1266 610 0.023574741168151871
1135 611 -1
1136 611 0.045258900204798641
1137 611 -0
1138 611 -0.99668365524927938
1139 611 0.06775671470238516
1140 611 -0
1266 611 0
1135 612 -0.045206927042819985
1136 612 -0.9999988768215905
1137 612 -0
1138 612 -0.067601049744234989
1139 612 -0.99668141436676572
1140 612 -0
1266 612 0
1135 613 -0
1136 613 -0
1137 613 -1
1138 613 -0
1139 613 -0
1140 613 -0.99668365524927938
1266 613 0
1265 614 1
1129 615 0
1130 615 0
1131 615 0
1132 615 0
1133 615 0
1134 615 0
1265 615 0.023574741168151871
1129 616 -1
1130 616 0.045258900204798641
1131 616 -0
1132 616 -0.99668365524927938
1133 616 0.06775671470238516
1134 616 -0
1265 616 0
1129 617 -0.045206927042819985
1130 617 -0.9999988768215905
1131 617 -0
1132 617 -0.067601049744234989
1133 617 -0.99668141436676572
1134 617 -0
1265 617 0
1129 618 -0
1130 618 -0
1131 618 -1
1132 618 -0
1133 618 -0
1134 618 -0.99668365524927938
1265 618 0
2347 619 1
2348 619 0
2349 619 0
2350 619 0
2351 619 0
2352 619 0
2347 620 0
2348 620 1
2349 620 0
2350 620 0
2351 620 0
2352 620 0
2347 621 0
2348 621 0
2349 621 1
2350 621 0
2351 621 0
2352 621 0
2347 622 0
2348 622 0
2349 622 0
2350 622 1
2351 622 0
2352 622 0
2347 623 0
2348 623 0
2349 623 0
2350 623 0
2351 623 1
2352 623 0
2347 624 0
2348 624 0
2349 624 0
2350 624 0
2351 624 0
2352 624 1
1981 625 1
1982 625 0
1983 625 0
1984 625 0
1985 625 0
1986 625 0
1981 626 0
1982 626 1
1983 626 0
1984 626 0
1985 626 0
1986 626 0
1981 627 0
1982 627 0
1983 627 1
1984 627 0
1985 627 0
1986 627 0
1981 628 0
1982 628 0
1983 628 0
1984 628 1
1985 628 0
1986 628 0
1981 629 0
1982 629 0
1983 629 0
1984 629 0
1985 629 1
1986 629 0
1981 630 0
1982 630 0
1983 630 0
1984 630 0
1985 630 0
1986 630 1
839 631 1
703 632 0
704 632 0
705 632 0
706 632 0
707 632 0
708 632 0
839 632 0.023574741168151871
703 633 -1
704 633 0.045258900204798641
705 633 -0
706 633 -0.99668365524927938
707 633 0.06775671470238516
708 633 -0
839 633 0
703 634 -0.045206927042819985
704 634 -0.9999988768215905
705 634 -0
706 634 -0.067601049744234989
707 634 -0.99668141436676572
708 634 -0
839 634 0
703 635 -0
704 635 -0
705 635 -1
706 635 -0
707 635 -0
708 635 -0.99668365524927938
839 635 0
838 636 1
697 637 0
698 637 0
699 637 0
700 637 0
701 637 0
702 637 0
838 637 0.023574741168151871
697 638 -1
698 638 0.045258900204798641
699 638 -0
700 638 -0.99668365524927938
701 638 0.06775671470238516
702 638 -0
838 638 0
697 639 -0.045206927042819985
698 639 -0.9999988768215905
699 639 -0
700 639 -0.067601049744234989
701 639 -0.99668141436676572
702 639 -0
838 639 0
697 640 -0
698 640 -0
699 640 -1
700 640 -0
701 640 -0
702 640 -0.99668365524927938
838 640 0
3079 641 1
3080 641 0
3081 641 0
3082 641 0
3083 641 0
3084 641 0
3079 642 0
3080 642 1
3081 642 0
3082 642 0
3083 642 0
3084 642 0
3079 643 0
3080 643 0
3081 643 1
3082 643 0
3083 643 0
3084 643 0
3079 644 0
3080 644 0
3081 644 0
3082 644 1
3083 644 0
3084 644 0
3079 645 0
3080 645 0
3081 645 0
3082 645 0
3083 645 1
3084 645 0
3079 646 0
3080 646 0
3081 646 0
3082 646 0
3083 646 0
3084 646 1
2713 647 1
2714 647 0
2715 647 0
2716 647 0
2717 647 0
2718 647 0
2713 648 0
2714 648 1
2715 648 0
2716 648 0
2717 648 0
2718 648 0
2713 649 0
2714 649 0
2715 649 1
2716 649 0
2717 649 0
2718 649 0
2713 650 0
2714 650 0
2715 650 0
2716 650 1
2717 650 0
2718 650 0
2713 651 0
2714 651 0
2715 651 0
2716 651 0
2717 651 1
2718 651 0
2713 652 0
2714 652 0
2715 652 0
2716 652 0
2717 652 0
2718 652 1
1691 653 1
1555 654 0
1556 654 0
1557 654 0
1558 654 0
1559 654 0
1560 654 0
1691 654 0.023574741168151871
1555 655 -1
1556 655 0.045258900204798641
1557 655 -0
1558 655 -0.99668365524927938
1559 655 0.06775671470238516
1560 655 -0
1691 655 0
1555 656 -0.045206927042819985
1556 656 -0.9999988768215905
1557 656 -0
1558 656 -0.067601049744234989
1559 656 -0.99668141436676572
1560 656 -0
1691 656 0
1555 657 -0
1556 657 -0
1557 657 -1
1558 657 -0
1559 657 -0
1560 657 -0.99668365524927938
1691 657 0
1690 658 1
1549 659 0
1550 659 0
1551 659 0
1552 659 0
1553 659 0
1554 659 0
1690 659 0.023574741168151871
1549 660 -1
1550 660 0.045258900204798641
1551 660 -0
1552 660 -0.99668365524927938
1553 660 0.06775671470238516
1554 660 -0
1690 660 0
1549 661 -0.045206927042819985
1550 661 -0.9999988768215905
1551 661 -0
1552 661 -0.067601049744234989
1553 661 -0.99668141436676572
1554 661 -0
1690 661 0
1549 662 -0
1550 662 -0
1551 662 -1
1552 662 -0
1553 662 -0
1554 662 -0.99668365524927938
1690 662 0
2707 663 1
2708 663 0
2709 663 0
2710 663 0
2711 663 0
2712 663 0
2707 664 0
2708 664 1
2709 664 0
2710 664 0
2711 664 0
2712 664 0
2707 665 0
2708 665 0
2709 665 1
2710 665 0
2711 665 0
2712 665 0
2707 666 0
2708 666 0
2709 666 0
2710 666 1
2711 666 0
2712 666 0
2707 667 0
2708 667 0
2709 667 0
2710 667 0
2711 667 1
2712 667 0
2707 668 0
2708 668 0
2709 668 0
2710 668 0
2711 668 0
2712 668 1
2341 669 1
2342 669 0
2343 669 0
2344 669 0
2345 669 0
2346 669 0
2341 670 0
2342 670 1
2343 670 0
2344 670 0
2345 670 0
2346 670 0
2341 671 0
2342 671 0
2343 671 1
2344 671 0
2345 671 0
2346 671 0
2341 672 0
2342 672 0
2343 672 0
2344 672 1
2345 672 0
2346 672 0
2341 673 0
2342 673 0
2343 673 0
2344 673 0
2345 673 1
2346 673 0
2341 674 0
2342 674 0
2343 674 0
2344 674 0
2345 674 0
2346 674 1
1264 675 1
1123 676 0
1124 676 0
1125 676 0
1126 676 0
1127 676 0
1128 676 0
1264 676 0.023574741168151871
1123 677 -1
1124 677 0.045258900204798641
1125 677 -0
1126 677 -0.99668365524927938
1127 677 0.06775671470238516
1128 677 -0
1264 677 0
1123 678 -0.045206927042819985
1124 678 -0.9999988768215905
1125 678 -0
1126 678 -0.067601049744234989
1127 678 -0.99668141436676572
1128 678 -0
1264 678 0
1123 679 -0
1124 679 -0
1125 679 -1
1126 679 -0
1127 679 -0
1128 679 -0.99668365524927938
1264 679 0
1263 680 1
1117 681 0
1118 681 0
1119 681 0
1120 681 0
1121 681 0
1122 681 0
1263 681 0.023574741168151871
1117 682 -1
1118 682 0.045258900204798641
1119 682 -0
1120 682 -0.99668365524927938
1121 682 0.06775671470238516
1122 682 -0
1263 682 0
1117 683 -0.045206927042819985
1118 683 -0.9999988768215905
1119 683 -0
1120 683 -0.067601049744234989
1121 683 -0.99668141436676572
1122 683 -0
1263 683 0
1117 684 -0
1118 684 -0
1119 684 -1
1120 684 -0
1121 684 -0
1122 684 -0.99668365524927938
1263 684 0
3073 685 1
3074 685 0
3075 685 0
3076 685 0
3077 685 0
3078 685 0
3073 686 0
3074 686 1
3075 686 0
3076 686 0
3077 686 0
3078 686 0
3073 687 0
3074 687 0
3075 687 1
3076 687 0
3077 687 0
3078 687 0
3073 688 0
3074 688 0
3075 688 0
3076 688 1
3077 688 0
3078 688 0
3073 689 0
3074 689 0
3075 689 0
3076 689 0
3077 689 1
3078 689 0
3073 690 0
3074 690 0
3075 690 0
3076 690 0
3077 690 0
3078 690 1
1975 691 1
1976 691 0
1977 691 0
1978 691 0
1979 691 0
1980 691 0
1975 692 0
1976 692 1
1977 692 0
1978 692 0
1979 692 0
1980 692 0
1975 693 0
1976 693 0
1977 693 1
1978 693 0
1979 693 0
1980 693 0
1975 694 0
1976 694 0
1977 694 0
1978 694 1
1979 694 0
1980 694 0
1975 695 0
1976 695 0
1977 695 0
1978 695 0
1979 695 1
1980 695 0
1975 696 0
1976 696 0
1977 696 0
1978 696 0
1979 696 0
1980 696 1
412 697 1
271 698 0
272 698 0
273 698 0
274 698 0
275 698 0
276 698 0
412 698 0.023574741168151871
271 699 -1
272 699 0.045258900204798641
273 699 -0
274 699 -0.99668365524927938
275 699 0.06775671470238516
276 699 -0
412 699 0
271 700 -0.045206927042819985
272 700 -0.9999988768215905
273 700 -0
274 700 -0.067601049744234989
275 700 -0.99668141436676572
276 700 -0
412 700 0
271 701 -0
272 701 -0
273 701 -1
274 701 -0
275 701 -0
276 701 -0.99668365524927938
412 701 0
411 702 1
265 703 0
266 703 0
267 703 0
268 703 0
269 703 0
270 703 0
411 703 0.023574741168151871
265 704 -1
266 704 0.045258900204798641
267 704 -0
268 704 -0.99668365524927938
269 704 0.06775671470238516
270 704 -0
411 704 0
265 705 -0.045206927042819985
266 705 -0.9999988768215905
267 705 -0
268 705 -0.067601049744234989
269 705 -0.99668141436676572
270 705 -0
411 705 0
265 706 -0
266 706 -0
267 706 -1
268 706 -0
269 706 -0
270 706 -0.99668365524927938
411 706 0
3067 707 1
3068 707 0
3069 707 0
3070 707 0
3071 707 0
3072 707 0
3067 708 0
3068 708 1
3069 708 0
3070 708 0
3071 708 0
3072 708 0
3067 709 0
3068 709 0
3069 709 1
3070 709 0
3071 709 0
3072 709 0
3067 710 0
3068 710 0
3069 710 0
3070 710 1
3071 710 0
3072 710 0
3067 711 0
3068 711 0
3069 711 0
3070 711 0
3071 711 1
3072 711 0
3067 712 0
3068 712 0
3069 712 0
3070 712 0
3071 712 0
3072 712 1
2701 713 1
2702 713 0
2703 713 0
2704 713 0
2705 713 0
2706 713 0
2701 714 0
2702 714 1
2703 714 0
2704 714 0
2705 714 0
2706 714 0
2701 715 0
2702 715 0
2703 715 1
2704 715 0
2705 715 0
2706 715 0
2701 716 0
2702 716 0
2703 716 0
2704 716 1
2705 716 0
2706 716 0
2701 717 0
2702 717 0
2703 717 0
2704 717 0
2705 717 1
2706 717 0
2701 718 0
2702 718 0
2703 718 0
2704 718 0
2705 718 0
2706 718 1
1689 719 1
1543 720 0
1544 720 0
1545 720 0
1546 720 0
1547 720 0
1548 720 0
1689 720 0.023574741168151871
1543 721 -1
1544 721 0.045258900204798641
1545 721 -0
1546 721 -0.99668365524927938
1547 721 0.06775671470238516
1548 721 -0
1689 721 0
1543 722 -0.045206927042819985
1544 722 -0.9999988768215905
1545 722 -0
1546 722 -0.067601049744234989
1547 722 -0.99668141436676572
1548 722 -0
1689 722 0
1543 723 -0
1544 723 -0
1545 723 -1
1546 723 -0
1547 723 -0
1548 723 -0.99668365524927938
1689 723 0
1688 724 1
1537 725 0
1538 725 0
1539 725 0
1540 725 0
1541 725 0
1542 725 0
1688 725 0.023574741168151871
1537 726 -1
1538 726 0.045258900204798641
1539 726 -0
1540 726 -0.99668365524927938
1541 726 0.06775671470238516
1542 726 -0
1688 726 0
1537 727 -0.045206927042819985
1538 727 -0.9999988768215905
1539 727 -0
1540 727 -0.067601049744234989
1541 727 -0.99668141436676572
1542 727 -0
1688 727 0
1537 728 -0
1538 728 -0
1539 728 -1
1540 728 -0
1541 728 -0
1542 728 -0.99668365524927938
1688 728 0
2335 729 1
2336 729 0
2337 729 0
2338 729 0
2339 729 0
2340 729 0
2335 730 0
2336 730 1
2337 730 0
2338 730 0
2339 730 0
2340 730 0
2335 731 0
2336 731 0
2337 731 1
2338 731 0
2339 731 0
2340 731 0
2335 732 0
2336 732 0
2337 732 0
2338 732 1
2339 732 0
2340 732 0
2335 733 0
2336 733 0
2337 733 0
2338 733 0
2339 733 1
2340 733 0
2335 734 0
2336 734 0
2337 734 0
2338 734 0
2339 734 0
2340 734 1
1969 735 1
1970 735 0
1971 735 0
1972 735 0
1973 735 0
1974 735 0
1969 736 0
1970 736 1
1971 736 0
1972 736 0
1973 736 0
1974 736 0
1969 737 0
1970 737 0
1971 737 1
1972 737 0
1973 737 0
1974 737 0
1969 738 0
1970 738 0
1971 738 0
1972 738 1
1973 738 0
1974 738 0
1969 739 0
1970 739 0
1971 739 0
1972 739 0
1973 739 1
1974 739 0
1969 740 0
1970 740 0
1971 740 0
1972 740 0
1973 740 0
1974 740 1
837 741 1
691 742 0
692 742 0
693 742 0
694 742 0
695 742 0
696 742 0
837 742 0.023574741168151871
691 743 -1
692 743 0.045258900204798641
693 743 -0
694 743 -0.99668365524927938
695 743 0.06775671470238516
696 743 -0
837 743 0
691 744 -0.045206927042819985
692 744 -0.9999988768215905
693 744 -0
694 744 -0.067601049744234989
695 744 -0.99668141436676572
696 744 -0
837 744 0
691 745 -0
692 745 -0
693 745 -1
694 745 -0
695 745 -0
696 745 -0.99668365524927938
837 745 0
836 746 1
685 747 0
686 747 0
687 747 0
688 747 0
689 747 0
690 747 0
836 747 0.023574741168151871
685 748 -1
686 748 0.045258900204798641
687 748 -0
688 748 -0.99668365524927938
689 748 0.06775671470238516
690 748 -0
836 748 0
685 749 -0.045206927042819985
686 749 -0.9999988768215905
687 749 -0
688 749 -0.067601049744234989
689 749 -0.99668141436676572
690 749 -0
836 749 0
685 750 -0
686 750 -0
687 750 -1
688 750 -0
689 750 -0
690 750 -0.99668365524927938
836 750 0
3061 751 1
3062 751 0
3063 751 0
3064 751 0
3065 751 0
3066 751 0
3061 752 0
3062 752 1
3063 752 0
3064 752 0
3065 752 0
3066 752 0
3061 753 0
3062 753 0
3063 753 1
3064 753 0
3065 753 0
3066 753 0
3061 754 0
3062 754 0
3063 754 0
3064 754 1
3065 754 0
3066 754 0
3061 755 0
3062 755 0
3063 755 0
3064 755 0
3065 755 1
3066 755 0
3061 756 0
3062 756 0
3063 756 0
3064 756 0
3065 756 0
3066 756 1
1963 757 1
1964 757 0
1965 757 0
1966 757 0
1967 757 0
1968 757 0
1963 758 0
1964 758 1
1965 758 0
1966 758 0
1967 758 0
1968 758 0
1963 759 0
1964 759 0
1965 759 1
1966 759 0
1967 759 0
1968 759 0
1963 760 0
1964 760 0
1965 760 0
1966 760 1
1967 760 0
1968 760 0
1963 761 0
1964 761 0
1965 761 0
1966 761 0
1967 761 1
1968 761 0
1963 762 0
1964 762 0
1965 762 0
1966 762 0
1967 762 0
1968 762 1
410 763 1
259 764 0
260 764 0
261 764 0
262 764 0
263 764 0
264 764 0
410 764 0.023574741168151871
259 765 -1
260 765 0.045258900204798641
261 765 -0
262 765 -0.99668365524927938
263 765 0.06775671470238516
264 765 -0
410 765 0
259 766 -0.045206927042819985
260 766 -0.9999988768215905
261 766 -0
262 766 -0.067601049744234989
263 766 -0.99668141436676572
264 766 -0
410 766 0
259 767 -0
260 767 -0
261 767 -1
262 767 -0
263 767 -0
264 767 -0.99668365524927938
410 767 0
409 768 1
253 769 0
254 769 0
255 769 0
256 769 0
257 769 0
258 769 0
409 769 0.023574741168151871
253 770 -1
254 770 0.045258900204798641
255 770 -0
256 770 -0.99668365524927938
257 770 0.06775671470238516
258 770 -0
409 770 0
253 771 -0.045206927042819985
254 771 -0.9999988768215905
255 771 -0
256 771 -0.067601049744234989
257 771 -0.99668141436676572
258 771 -0
409 771 0
253 772 -0
254 772 -0
255 772 -1
256 772 -0
257 772 -0
258 772 -0.99668365524927938
409 772 0
2695 773 1
2696 773 0
2697 773 0
2698 773 0
2699 773 0
2700 773 0
2695 774 0
2696 774 1
2697 774 0
2698 774 0
2699 774 0
2700 774 0
2695 775 0
2696 775 0
2697 775 1
2698 775 0
2699 775 0
2700 775 0
2695 776 0
2696 776 0
2697 776 0
2698 776 1
2699 776 0
2700 776 0
2695 777 0
2696 777 0
2697 777 0
2698 777 0
2699 777 1
2700 777 0
2695 778 0
2696 778 0
2697 778 0
2698 778 0
2699 778 0
2700 778 1
2329 779 1
2330 779 0
2331 779 0
2332 779 0
2333 779 0
2334 779 0
2329 780 0
2330 780 1
2331 780 0
2332 780 0
2333 780 0
2334 780 0
2329 781 0
2330 781 0
2331 781 1
2332 781 0
2333 781 0
2334 781 0
2329 782 0
2330 782 0
2331 782 0
2332 782 1
2333 782 0
2334 782 0
2329 783 0
2330 783 0
2331 783 0
2332 783 0
2333 783 1
2334 783 0
2329 784 0
2330 784 0
2331 784 0
2332 784 0
2333 784 0
2334 784 1
1262 785 1
1111 786 0
1112 786 0
1113 786 0
1114 786 0
1115 786 0
1116 786 0
1262 786 0.023574741168151871
1111 787 -1
1112 787 0.045258900204798641
1113 787 -0
1114 787 -0.99668365524927938
1115 787 0.06775671470238516
1116 787 -0
1262 787 0
1111 788 -0.045206927042819985
1112 788 -0.9999988768215905
1113 788 -0
1114 788 -0.067601049744234989
1115 788 -0.99668141436676572
1116 788 -0
1262 788 0
1111 789 -0
1112 789 -0
1113 789 -1
1114 789 -0
1115 789 -0
1116 789 -0.99668365524927938
1262 789 0
1261 790 1
1105 791 0
1106 791 0
1107 791 0
1108 791 0
1109 791 0
1110 791 0
1261 791 0.023574741168151871
1105 792 -1
1106 792 0.045258900204798641
1107 792 -0
1108 792 -0.99668365524927938
1109 792 0.06775671470238516
1110 792 -0
1261 792 0
1105 793 -0.045206927042819985
1106 793 -0.9999988768215905
1107 793 -0
1108 793 -0.067601049744234989
1109 793 -0.99668141436676572
1110 793 -0
1261 793 0
1105 794 -0
1106 794 -0
1107 794 -1
1108 794 -0
1109 794 -0
1110 794 -0.99668365524927938
1261 794 0
2323 795 1
2324 795 0
2325 795 0
2326 795 0
2327 795 0
2328 795 0
2323 796 0
2324 796 1
2325 796 0
2326 796 0
2327 796 0
2328 796 0
2323 797 0
2324 797 0
2325 797 1
2326 797 0
2327 797 0
2328 797 0
2323 798 0
2324 798 0
2325 798 0
2326 798 1
2327 798 0
2328 798 0
2323 799 0
2324 799 0
2325 799 0
2326 799 0
2327 799 1
2328 799 0
2323 800 0
2324 800 0
2325 800 0
2326 800 0
2327 800 0
2328 800 1
1957 801 1
1958 801 0
1959 801 0
1960 801 0
1961 801 0
1962 801 0
1957 802 0
1958 802 1
1959 802 0
1960 802 0
1961 802 0
1962 802 0
1957 803 0
1958 803 0
1959 803 1
1960 803 0
1961 803 0
1962 803 0
1957 804 0
1958 804 0
1959 804 0
1960 804 1
1961 804 0
1962 804 0
1957 805 0
1958 805 0
1959 805 0
1960 805 0
1961 805 1
1962 805 0
1957 806 0
1958 806 0
1959 806 0
1960 806 0
1961 806 0
1962 806 1
835 807 1
679 808 0
680 808 0
681 808 0
682 808 0
683 808 0
684 808 0
835 808 0.023574741168151871
679 809 -1
680 809 0.045258900204798641
681 809 -0
682 809 -0.99668365524927938
683 809 0.06775671470238516
684 809 -0
835 809 0
679 810 -0.045206927042819985
680 810 -0.9999988768215905
681 810 -0
682 810 -0.067601049744234989
683 810 -0.99668141436676572
684 810 -0
835 810 0
679 811 -0
680 811 -0
681 811 -1
682 811 -0
683 811 -0
684 811 -0.99668365524927938
835 811 0
834 812 1
673 813 0
674 813 0
675 813 0
676 813 0
677 813 0
678 813 0
834 813 0.023574741168151871
673 814 -1
674 814 0.045258900204798641
675 814 -0
676 814 -0.99668365524927938
677 814 0.06775671470238516
678 814 -0
834 814 0
673 815 -0.045206927042819985
674 815 -0.9999988768215905
675 815 -0
676 815 -0.067601049744234989
677 815 -0.99668141436676572
678 815 -0
834 815 0
673 816 -0
674 816 -0
675 816 -1
676 816 -0
677 816 -0
678 816 -0.99668365524927938
834 816 0
3055 817 1
3056 817 0
3057 817 0
3058 817 0
3059 817 0
3060 817 0
3055 818 0
3056 818 1
3057 818 0
3058 818 0
3059 818 0
3060 818 0
3055 819 0
3056 819 0
3057 819 1
3058 819 0
3059 819 0
3060 819 0
3055 820 0
3056 820 0
3057 820 0
3058 820 1
3059 820 0
3060 820 0
3055 821 0
3056 821 0
3057 821 0
3058 821 0
3059 821 1
3060 821 0
3055 822 0
3056 822 0
3057 822 0
3058 822 0
3059 822 0
3060 822 1
2689 823 1
2690 823 0
2691 823 0
2692 823 0
2693 823 0
2694 823 0
2689 824 0
2690 824 1
2691 824 0
2692 824 0
2693 824 0
2694 824 0
2689 825 0
2690 825 0
2691 825 1
2692 825 0
2693 825 0
2694 825 0
2689 826 0
2690 826 0
2691 826 0
2692 826 1
2693 826 0
2694 826 0
2689 827 0
2690 827 0
2691 827 0
2692 827 0
2693 827 1
2694 827 0
2689 828 0
2690 828 0
2691 828 0
2692 828 0
2693 828 0
2694 828 1
1687 829 1
1531 830 0
1532 830 0
1533 830 0
1534 830 0
1535 830 0
1536 830 0
1687 830 0.023574741168151871
1531 831 -1
1532 831 0.045258900204798641
1533 831 -0
1534 831 -0.99668365524927938
1535 831 0.06775671470238516
1536 831 -0
1687 831 0
1531 832 -0.045206927042819985
1532 832 -0.9999988768215905
1533 832 -0
1534 832 -0.067601049744234989
1535 832 -0.99668141436676572
1536 832 -0
1687 832 0
1531 833 -0
1532 833 -0
1533 833 -1
1534 833 -0
1535 833 -0
1536 833 -0.99668365524927938
1687 833 0
1686 834 1
1525 835 0
1526 835 0
1527 835 0
1528 835 0
1529 835 0
1530 835 0
1686 835 0.023574741168151871
1525 836 -1
1526 836 0.045258900204798641
1527 836 -0
1528 836 -0.99668365524927938
1529 836 0.06775671470238516
1530 836 -0
1686 836 0
1525 837 -0.045206927042819985
1526 837 -0.9999988768215905
1527 837 -0
1528 837 -0.067601049744234989
1529 837 -0.99668141436676572
1530 837 -0
1686 837 0
1525 838 -0
1526 838 -0
1527 838 -1
1528 838 -0
1529 838 -0
1530 838 -0.99668365524927938
1686 838 0
2683 839 1
2684 839 0
2685 839 0
2686 839 0
2687 839 0
2688 839 0
2683 840 0
2684 840 1
2685 840 0
2686 840 0
2687 840 0
2688 840 0
2683 841 0
2684 841 0
2685 841 1
2686 841 0
2687 841 0
2688 841 0
2683 842 0
2684 842 0
2685 842 0
2686 842 1
2687 842 0
2688 842 0
2683 843 0
2684 843 0
2685 843 0
2686 843 0
2687 843 1
2688 843 0
2683 844 0
2684 844 0
2685 844 0
2686 844 0
2687 844 0
2688 844 1
2317 845 1
2318 845 0
2319 845 0
2320 845 0
2321 845 0
2322 845 0
2317 846 0
2318 846 1
2319 846 0
2320 846 0
2321 846 0
2322 846 0
2317 847 0
2318 847 0
2319 847 1
2320 847 0
2321 847 0
2322 847 0
2317 848 0
2318 848 0
2319 848 0
2320 848 1
2321 848 0
2322 848 0
2317 849 0
2318 849 0
2319 849 0
2320 849 0
2321 849 1
2322 849 0
2317 850 0
2318 850 0
2319 850 0
2320 850 0
2321 850 0
2322 850 1
1260 851 1
1099 852 0
1100 852 0
1101 852 0
1102 852 0
1103 852 0
1104 852 0
1260 852 0.023574741168151871
1099 853 -1
1100 853 0.045258900204798641
1101 853 -0
1102 853 -0.99668365524927938
1103 853 0.06775671470238516
1104 853 -0
1260 853 0
1099 854 -0.045206927042819985
1100 854 -0.9999988768215905
1101 854 -0
1102 854 -0.067601049744234989
1103 854 -0.99668141436676572
1104 854 -0
1260 854 0
1099 855 -0
1100 855 -0
1101 855 -1
1102 855 -0
1103 855 -0
1104 855 -0.99668365524927938
1260 855 0
1259 856 1
1093 857 0
1094 857 0
1095 857 0
1096 857 0
1097 857 0
1098 857 0
1259 857 0.023574741168151871
1093 858 -1
1094 858 0.045258900204798641
1095 858 -0
1096 858 -0.99668365524927938
1097 858 0.06775671470238516
1098 858 -0
1259 858 0
1093 859 -0.045206927042819985
1094 859 -0.9999988768215905
1095 859 -0
1096 859 -0.067601049744234989
1097 859 -0.99668141436676572
1098 859 -0
1259 859 0
1093 860 -0
1094 860 -0
1095 860 -1
1096 860 -0
1097 860 -0
1098 860 -0.99668365524927938
1259 860 0
3049 861 1
3050 861 0
3051 861 0
3052 861 0
3053 861 0
3054 861 0
3049 862 0
3050 862 1
3051 862 0
3052 862 0
3053 862 0
3054 862 0
3049 863 0
3050 863 0
3051 863 1
3052 863 0
3053 863 0
3054 863 0
3049 864 0
3050 864 0
3051 864 0
3052 864 1
3053 864 0
3054 864 0
3049 865 0
3050 865 0
3051 865 0
3052 865 0
3053 865 1
3054 865 0
3049 866 0
3050 866 0
3051 866 0
3052 866 0
3053 866 0
3054 866 1
1951 867 1
1952 867 0
1953 867 0
1954 867 0
1955 867 0
1956 867 0
1951 868 0
1952 868 1
1953 868 0
1954 868 0
1955 868 0
1956 868 0
1951 869 0
1952 869 0
1953 869 1
1954 869 0
1955 869 0
1956 869 0
1951 870 0
1952 870 0
1953 870 0
1954 870 1
1955 870 0
1956 870 0
1951 871 0
1952 871 0
1953 871 0
1954 871 0
1955 871 1
1956 871 0
1951 872 0
1952 872 0
1953 872 0
1954 872 0
1955 872 0
1956 872 1
408 873 1
247 874 0
248 874 0
249 874 0
250 874 0
251 874 0
252 874 0
408 874 0.023574741168151871
247 875 -1
248 875 0.045258900204798641
249 875 -0
250 875 -0.99668365524927938
251 875 0.06775671470238516
252 875 -0
408 875 0
247 876 -0.045206927042819985
248 876 -0.9999988768215905
249 876 -0
250 876 -0.067601049744234989
251 876 -0.99668141436676572
252 876 -0
408 876 0
247 877 -0
248 877 -0
249 877 -1
250 877 -0
251 877 -0
252 877 -0.99668365524927938
408 877 0
407 878 1
241 879 0
242 879 0
243 879 0
244 879 0
245 879 0
246 879 0
407 879 0.023574741168151871
241 880 -1
242 880 0.045258900204798641
243 880 -0
244 880 -0.99668365524927938
245 880 0.06775671470238516
246 880 -0
407 880 0
241 881 -0.045206927042819985
242 881 -0.9999988768215905
243 881 -0
244 881 -0.067601049744234989
245 881 -0.99668141436676572
246 881 -0
407 881 0
241 882 -0
242 882 -0
243 882 -1
244 882 -0
245 882 -0
246 882 -0.99668365524927938
407 882 0
3043 883 1
3044 883 0
3045 883 0
3046 883 0
3047 883 0
3048 883 0
3043 884 0
3044 884 1
3045 884 0
3046 884 0
3047 884 0
3048 884 0
3043 885 0
3044 885 0
3045 885 1
3046 885 0
3047 885 0
3048 885 0
3043 886 0
3044 886 0
3045 886 0
3046 886 1
3047 886 0
3048 886 0
3043 887 0
3044 887 0
3045 887 0
3046 887 0
3047 887 1
3048 887 0
3043 888 0
3044 888 0
3045 888 0
3046 888 0
3047 888 0
3048 888 1
2677 889 1
2678 889 0
2679 889 0
2680 889 0
2681 889 0
2682 889 0
2677 890 0
2678 890 1
2679 890 0
2680 890 0
2681 890 0
2682 890 0
2677 891 0
2678 891 0
2679 891 1
2680 891 0
2681 891 0
2682 891 0
2677 892 0
2678 892 0
2679 892 0
2680 892 1
2681 892 0
2682 892 0
2677 893 0
2678 893 0
2679 893 0
2680 893 0
2681 893 1
2682 893 0
2677 894 0
2678 894 0
2679 894 0
2680 894 0
2681 894 0
2682 894 1
1685 895 1
1519 896 0
1520 896 0
1521 896 0
1522 896 0
1523 896 0
1524 896 0
1685 896 0.023574741168151871
1519 897 -1
1520 897 0.045258900204798641
1521 897 -0
1522 897 -0.99668365524927938
1523 897 0.06775671470238516
1524 897 -0
1685 897 0
1519 898 -0.045206927042819985
1520 898 -0.9999988768215905
1521 898 -0
1522 898 -0.067601049744234989
1523 898 -0.99668141436676572
1524 898 -0
1685 898 0
1519 899 -0
1520 899 -0
1521 899 -1
1522 899 -0
1523 899 -0
1524 899 -0.99668365524927938
1685 899 0
1684 900 1
1513 901 0
1514 901 0
1515 901 0
1516 901 0
1517 901 0
1518 901 0
1684 901 0.023574741168151871
1513 902 -1
1514 902 0.045258900204798641
1515 902 -0
1516 902 -0.99668365524927938
1517 902 0.06775671470238516
1518 902 -0
1684 902 0
1513 903 -0.045206927042819985
1514 903 -0.9999988768215905
1515 903 -0
1516 903 -0.067601049744234989
1517 903 -0.99668141436676572
1518 903 -0
1684 903 0
1513 904 -0
1514 904 -0
1515 904 -1
1516 904 -0
1517 904 -0
1518 904 -0.99668365524927938
1684 904 0
2311 905 1
2312 905 0
2313 905 0
2314 905 0
2315 905 0
2316 905 0
2311 906 0
2312 906 1
2313 906 0
2314 906 0
2315 906 0
2316 906 0
2311 907 0
2312 907 0
2313 907 1
2314 907 0
2315 907 0
2316 907 0
2311 908 0
2312 908 0
2313 908 0
2314 908 1
2315 908 0
2316 908 0
2311 909 0
2312 909 0
2313 909 0
2314 909 0
2315 909 1
2316 909 0
2311 910 0
2312 910 0
2313 910 0
2314 910 0
2315 910 0
2316 910 1
1945 911 1
1946 911 0
1947 911 0
1948 911 0
1949 911 0
1950 911 0
1945 912 0
1946 912 1
1947 912 0
1948 912 0
1949 912 0
1950 912 0
1945 913 0
1946 913 0
1947 913 1
1948 913 0
1949 913 0
1950 913 0
1945 914 0
1946 914 0
1947 914 0
1948 914 1
1949 914 0
1950 914 0
1945 915 0
1946 915 0
1947 915 0
1948 915 0
1949 915 1
1950 915 0
1945 916 0
1946 916 0
1947 916 0
1948 916 0
1949 916 0
1950 916 1
833 917 1
667 918 0
668 918 0
669 918 0
670 918 0
671 918 0
672 918 0
833 918 0.023574741168151871
667 919 -1
668 919 0.045258900204798641
669 919 -0
670 919 -0.99668365524927938
671 919 0.06775671470238516
672 919 -0
833 919 0
667 920 -0.045206927042819985
668 920 -0.9999988768215905
669 920 -0
670 920 -0.067601049744234989
671 920 -0.99668141436676572
672 920 -0
833 920 0
667 921 -0
668 921 -0
669 921 -1
670 921 -0
671 921 -0
672 921 -0.99668365524927938
833 921 0
832 922 1
661 923 0
662 923 0
663 923 0
664 923 0
665 923 0
666 923 0
832 923 0.023574741168151871
661 924 -1
662 924 0.045258900204798641
663 924 -0
664 924 -0.99668365524927938
665 924 0.06775671470238516
666 924 -0
832 924 0
661 925 -0.045206927042819985
662 925 -0.9999988768215905
663 925 -0
664 925 -0.067601049744234989
665 925 -0.99668141436676572
666 925 -0
832 925 0
661 926 -0
662 926 -0
663 926 -1
664 926 -0
665 926 -0
666 926 -0.99668365524927938
832 926 0
3037 927 1
3038 927 0
3039 927 0
3040 927 0
3041 927 0
3042 927 0
3037 928 0
3038 928 1
3039 928 0
3040 928 0
3041 928 0
3042 928 0
3037 929 0
3038 929 0
3039 929 1
3040 929 0
3041 929 0
3042 929 0
3037 930 0
3038 930 0
3039 930 0
3040 930 1
3041 930 0
3042 930 0
3037 931 0
3038 931 0
3039 931 0
3040 931 0
3041 931 1
3042 931 0
3037 932 0
3038 932 0
3039 932 0
3040 932 0
3041 932 0
3042 932 1
1939 933 1
1940 933 0
1941 933 0
1942 933 0
1943 933 0
1944 933 0
1939 934 0
1940 934 1
1941 934 0
1942 934 0
1943 934 0
1944 934 0
1939 935 0
1940 935 0
1941 935 1
1942 935 0
1943 935 0
1944 935 0
1939 936 0
1940 936 0
1941 936 0
1942 936 1
1943 936 0
1944 936 0
1939 937 0
1940 937 0
1941 937 0
1942 937 0
1943 937 1
1944 937 0
1939 938 0
1940 938 0
1941 938 0
1942 938 0
1943 938 0
1944 938 1
406 939 1
235 940 0
236 940 0
237 940 0
238 940 0
239 940 0
240 940 0
406 940 0.023574741168151871
235 941 -1
236 941 0.045258900204798641
237 941 -0
238 941 -0.99668365524927938
239 941 0.06775671470238516
240 941 -0
406 941 0
235 942 -0.045206927042819985
236 942 -0.9999988768215905
237 942 -0
238 942 -0.067601049744234989
239 942 -0.99668141436676572
240 942 -0
406 942 0
235 943 -0
236 943 -0
237 943 -1
238 943 -0
239 943 -0
240 943 -0.99668365524927938
406 943 0
405 944 1
229 945 0
230 945 0
231 945 0
232 945 0
233 945 0
234 945 0
405 945 0.023574741168151871
229 946 -1
230 946 0.045258900204798641
231 946 -0
232 946 -0.99668365524927938
233 946 0.06775671470238516
234 946 -0
405 946 0
229 947 -0.045206927042819985
230 947 -0.9999988768215905
231 947 -0
232 947 -0.067601049744234989
233 947 -0.99668141436676572
234 947 -0
405 947 0
229 948 -0
230 948 -0
231 948 -1
232 948 -0
233 948 -0
234 948 -0.99668365524927938
405 948 0
2671 949 1
2672 949 0
2673 949 0
2674 949 0
2675 949 0
2676 949 0
2671 950 0
2672 950 1
2673 950 0
2674 950 0
2675 950 0
2676 950 0
2671 951 0
2672 951 0
2673 951 1
2674 951 0
2675 951 0
2676 951 0
2671 952 0
2672 952 0
2673 952 0
2674 952 1
2675 952 0
2676 952 0
2671 953 0
2672 953 0
2673 953 0
2674 953 0
2675 953 1
2676 953 0
2671 954 0
2672 954 0
2673 954 0
2674 954 0
2675 954 0
2676 954 1
2305 955 1
2306 955 0
2307 955 0
2308 955 0
2309 955 0
2310 955 0
2305 956 0
2306 956 1
2307 956 0
2308 956 0
2309 956 0
2310 956 0
2305 957 0
2306 957 0
2307 957 1
2308 957 0
2309 957 0
2310 957 0
2305 958 0
2306 958 0
2307 958 0
2308 958 1
2309 958 0
2310 958 0
2305 959 0
2306 959 0
2307 959 0
2308 959 0
2309 959 1
2310 959 0
2305 960 0
2306 960 0
2307 960 0
2308 960 0
2309 960 0
2310 960 1
1258 961 1
1087 962 0
1088 962 0
1089 962 0
1090 962 0
1091 962 0
1092 962 0
1258 962 0.023574741168151871
1087 963 -1
1088 963 0.045258900204798641
1089 963 -0
1090 963 -0.99668365524927938
1091 963 0.06775671470238516
1092 963 -0
1258 963 0
1087 964 -0.045206927042819985
1088 964 -0.9999988768215905
1089 964 -0
1090 964 -0.067601049744234989
1091 964 -0.99668141436676572
1092 964 -0
1258 964 0
1087 965 -0
1088 965 -0
1089 965 -1
1090 965 -0
1091 965 -0
1092 965 -0.99668365524927938
1258 965 0
1257 966 1
1081 967 0
1082 967 0
1083 967 0
1084 967 0
1085 967 0
1086 967 0
1257 967 0.023574741168151871
1081 968 -1
1082 968 0.045258900204798641
1083 968 -0
1084 968 -0.99668365524927938
1085 968 0.06775671470238516
1086 968 -0
1257 968 0
1081 969 -0.045206927042819985
1082 969 -0.9999988768215905
1083 969 -0
1084 969 -0.067601049744234989
1085 969 -0.99668141436676572
1086 969 -0
1257 969 0
1081 970 -0
1082 970 -0
1083 970 -1
1084 970 -0
1085 970 -0
1086 970 -0.99668365524927938
1257 970 0
2299 971 1
2300 971 0
2301 971 0
2302 971 0
2303 971 0
2304 971 0
2299 972 0
2300 972 1
2301 972 0
2302 972 0
2303 972 0
2304 972 0
2299 973 0
2300 973 0
2301 973 1
2302 973 0
2303 973 0
2304 973 0
2299 974 0
2300 974 0
2301 974 0
2302 974 1
2303 974 0
2304 974 0
2299 975 0
2300 975 0
2301 975 0
2302 975 0
2303 975 1
2304 975 0
2299 976 0
2300 976 0
2301 976 0
2302 976 0
2303 976 0
2304 976 1
1933 977 1
1934 977 0
1935 977 0
1936 977 0
1937 977 0
1938 977 0
1933 978 0
1934 978 1
1935 978 0
1936 978 0
1937 978 0
1938 978 0
1933 979 0
1934 979 0
1935 979 1
1936 979 0
1937 979 0
1938 979 0
1933 980 0
1934 980 0
1935 980 0
1936 980 1
1937 980 0
1938 980 0
1933 981 0
1934 981 0
1935 981 0
1936 981 0
1937 981 1
1938 981 0
1933 982 0
1934 982 0
1935 982 0
1936 982 0
1937 982 0
1938 982 1
831 983 1
655 984 0
656 984 0
657 984 0
658 984 0
659 984 0
660 984 0
831 984 0.023574741168151871
655 985 -1
656 985 0.045258900204798641
657 985 -0
658 985 -0.99668365524927938
659 985 0.06775671470238516
660 985 -0
831 985 0
655 986 -0.045206927042819985
656 986 -0.9999988768215905
657 986 -0
658 986 -0.067601049744234989
659 986 -0.99668141436676572
660 986 -0
831 986 0
655 987 -0
656 987 -0
657 987 -1
658 987 -0
659 987 -0
660 987 -0.99668365524927938
831 987 0
830 988 1
649 989 0
650 989 0
651 989 0
652 989 0
653 989 0
654 989 0
830 989 0.023574741168151871
649 990 -1
650 990 0.045258900204798641
651 990 -0
652 990 -0.99668365524927938
653 990 0.06775671470238516
654 990 -0
830 990 0
649 991 -0.045206927042819985
650 991 -0.9999988768215905
651 991 -0
652 991 -0.067601049744234989
653 991 -0.99668141436676572
654 991 -0
830 991 0
649 992 -0
650 992 -0
651 992 -1
652 992 -0
653 992 -0
654 992 -0.99668365524927938
830 992 0
3031 993 1
3032 993 0
3033 993 0
3034 993 0
3035 993 0
3036 993 0
3031 994 0
3032 994 1
3033 994 0
3034 994 0
3035 994 0
3036 994 0
3031 995 0
3032 995 0
3033 995 1
3034 995 0
3035 995 0
3036 995 0
3031 996 0
3032 996 0
3033 996 0
3034 996 1
3035 996 0
3036 996 0
3031 997 0
3032 997 0
3033 997 0
3034 997 0
3035 997 1
3036 997 0
3031 998 0
3032 998 0
3033 998 0
3034 998 0
3035 998 0
3036 998 1
2665 999 1
2666 999 0
2667 999 0
2668 999 0
2669 999 0
2670 999 0
2665 1000 0
2666 1000 1
2667 1000 0
2668 1000 0
2669 1000 0
2670 1000 0
2665 1001 0
2666 1001 0
2667 1001 1
2668 1001 0
2669 1001 0
2670 1001 0
2665 1002 0
2666 1002 0
2667 1002 0
2668 1002 1
2669 1002 0
2670 1002 0
2665 1003 0
2666 1003 0
2667 1003 0
2668 1003 0
2669 1003 1
2670 1003 0
2665 1004 0
2666 1004 0
2667 1004 0
2668 1004 0
2669 1004 0
2670 1004 1
1683 1005 1
1507 1006 0
1508 1006 0
1509 1006 0
1510 1006 0
1511 1006 0
1512 1006 0
1683 1006 0.023574741168151871
1507 1007 -1
1508 1007 0.045258900204798641
1509 1007 -0
1510 1007 -0.99668365524927938
1511 1007 0.06775671470238516
1512 1007 -0
1683 1007 0
1507 1008 -0.045206927042819985
1508 1008 -0.9999988768215905
1509 1008 -0
1510 1008 -0.067601049744234989
1511 1008 -0.99668141436676572
1512 1008 -0
1683 1008 0
1507 1009 -0
1508 1009 -0
1509 1009 -1
1510 1009 -0
1511 1009 -0
1512 1009 -0.99668365524927938
1683 1009 0
1682 1010 1
1501 1011 0
1502 1011 0
1503 1011 0
1504 1011 0
1505 1011 0
1506 1011 0
1682 1011 0.023574741168151871
1501 1012 -1
1502 1012 0.045258900204798641
1503 1012 -0
1504 1012 -0.99668365524927938
1505 1012 0.06775671470238516
1506 1012 -0
1682 1012 0
1501 1013 -0.045206927042819985
1502 1013 -0.9999988768215905
1503 1013 -0
1504 1013 -0.067601049744234989
1505 1013 -0.99668141436676572
1506 1013 -0
1682 1013 0
1501 1014 -0
1502 1014 -0
1503 1014 -1
1504 1014 -0
1505 1014 -0
1506 1014 -0.99668365524927938
1682 1014 0
2659 1015 1
2660 1015 0
2661 1015 0
2662 1015 0
2663 1015 0
2664 1015 0
2659 1016 0
2660 1016 1
2661 1016 0
2662 1016 0
2663 1016 0
2664 1016 0
2659 1017 0
2660 1017 0
2661 1017 1
2662 1017 0
2663 1017 0
2664 1017 0
2659 1018 0
2660 1018 0
2661 1018 0
2662 1018 1
2663 1018 0
2664 1018 0
2659 1019 0
2660 1019 0
2661 1019 0
2662 1019 0
2663 1019 1
2664 1019 0
2659 1020 0
2660 1020 0
2661 1020 0
2662 1020 0
2663 1020 0
2664 1020 1
2293 1021 1
2294 1021 0
2295 1021 0
2296 1021 0
2297 1021 0
2298 1021 0
2293 1022 0
2294 1022 1
2295 1022 0
2296 1022 0
2297 1022 0
2298 1022 0
2293 1023 0
2294 1023 0
2295 1023 1
2296 1023 0
2297 1023 0
2298 1023 0
2293 1024 0
2294 1024 0
2295 1024 0
2296 1024 1
2297 1024 0
2298 1024 0
2293 1025 0
2294 1025 0
2295 1025 0
2296 1025 0
2297 1025 1
2298 1025 0
2293 1026 0
2294 1026 0
2295 1026 0
2296 1026 0
2297 1026 0
2298 1026 1
1256 1027 1
1075 1028 0
1076 1028 0
1077 1028 0
1078 1028 0
1079 1028 0
1080 1028 0
1256 1028 0.023574741168151871
1075 1029 -1
1076 1029 0.045258900204798641
1077 1029 -0
1078 1029 -0.99668365524927938
1079 1029 0.06775671470238516
1080 1029 -0
1256 1029 0
1075 1030 -0.045206927042819985
1076 1030 -0.9999988768215905
1077 1030 -0
1078 1030 -0.067601049744234989
1079 1030 -0.99668141436676572
1080 1030 -0
1256 1030 0
1075 1031 -0
1076 1031 -0
1077 1031 -1
1078 1031 -0
1079 1031 -0
1080 1031 -0.99668365524927938
1256 1031 0
1255 1032 1
1069 1033 0
1070 1033 0
1071 1033 0
1072 1033 0
1073 1033 0
1074 1033 0
1255 1033 0.023574741168151871
1069 1034 -1
1070 1034 0.045258900204798641
1071 1034 -0
1072 1034 -0.99668365524927938
1073 1034 0.06775671470238516
1074 1034 -0
1255 1034 0
1069 1035 -0.045206927042819985
1070 1035 -0.9999988768215905
1071 1035 -0
1072 1035 -0.067601049744234989
1073 1035 -0.99668141436676572
1074 1035 -0
1255 1035 0
1069 1036 -0
1070 1036 -0
1071 1036 -1
1072 1036 -0
1073 1036 -0
1074 1036 -0.99668365524927938
1255 1036 0
3025 1037 1
3026 1037 0
3027 1037 0
3028 1037 0
3029 1037 0
3030 1037 0
3025 1038 0
3026 1038 1
3027 1038 0
3028 1038 0
3029 1038 0
3030 1038 0
3025 1039 0
3026 1039 0
3027 1039 1
3028 1039 0
3029 1039 0
3030 1039 0
3025 1040 0
3026 1040 0
3027 1040 0
3028 1040 1
3029 1040 0
3030 1040 0
3025 1041 0
3026 1041 0
3027 1041 0
3028 1041 0
3029 1041 1
3030 1041 0
3025 1042 0
3026 1042 0
3027 1042 0
3028 1042 0
3029 1042 0
3030 1042 1
1927 1043 1
1928 1043 0
1929 1043 0
1930 1043 0
1931 1043 0
1932 1043 0
1927 1044 0
1928 1044 1
1929 1044 0
1930 1044 0
1931 1044 0
1932 1044 0
1927 1045 0
1928 1045 0
1929 1045 1
1930 1045 0
1931 1045 0
1932 1045 0
1927 1046 0
1928 1046 0
1929 1046 0
1930 1046 1
1931 1046 0
1932 1046 0
1927 1047 0
1928 1047 0
1929 1047 0
1930 1047 0
1931 1047 1
1932 1047 0
1927 1048 0
1928 1048 0
1929 1048 0
1930 1048 0
1931 1048 0
1932 1048 1
404 1049 1
223 1050 0
224 1050 0
225 1050 0
226 1050 0
227 1050 0
228 1050 0
404 1050 0.023574741168151871
223 1051 -1
224 1051 0.045258900204798641
225 1051 -0
226 1051 -0.99668365524927938
227 1051 0.06775671470238516
228 1051 -0
404 1051 0
223 1052 -0.045206927042819985
224 1052 -0.9999988768215905
225 1052 -0
226 1052 -0.067601049744234989
227 1052 -0.99668141436676572
228 1052 -0
404 1052 0
223 1053 -0
224 1053 -0
225 1053 -1
226 1053 -0
227 1053 -0
228 1053 -0.99668365524927938
404 1053 0
403 1054 1
217 1055 0
218 1055 0
219 1055 0
220 1055 0
221 1055 0
222 1055 0
403 1055 0.023574741168151871
217 1056 -1
218 1056 0.045258900204798641
219 1056 -0
220 1056 -0.99668365524927938
221 1056 0.06775671470238516
222 1056 -0
403 1056 0
217 1057 -0.045206927042819985
218 1057 -0.9999988768215905
219 1057 -0
220 1057 -0.067601049744234989
221 1057 -0.99668141436676572
222 1057 -0
403 1057 0
217 1058 -0
218 1058 -0
219 1058 -1
220 1058 -0
221 1058 -0
222 1058 -0.99668365524927938
403 1058 0
3019 1059 1
3020 1059 0
3021 1059 0
3022 1059 0
3023 1059 0
3024 1059 0
3019 1060 0
3020 1060 1
3021 1060 0
3022 1060 0
3023 1060 0
3024 1060 0
3019 1061 0
3020 1061 0
3021 1061 1
3022 1061 0
3023 1061 0
3024 1061 0
3019 1062 0
3020 1062 0
3021 1062 0
3022 1062 1
3023 1062 0
3024 1062 0
3019 1063 0
3020 1063 0
3021 1063 0
3022 1063 0
3023 1063 1
3024 1063 0
3019 1064 0
3020 1064 0
3021 1064 0
3022 1064 0
3023 1064 0
3024 1064 1
2653 1065 1
2654 1065 0
2655 1065 0
2656 1065 0
2657 1065 0
2658 1065 0
2653 1066 0
2654 1066 1
2655 1066 0
2656 1066 0
2657 1066 0
2658 1066 0
2653 1067 0
2654 1067 0
2655 1067 1
2656 1067 0
2657 1067 0
2658 1067 0
2653 1068 0
2654 1068 0
2655 1068 0
2656 1068 1
2657 1068 0
2658 1068 0
2653 1069 0
2654 1069 0
2655 1069 0
2656 1069 0
2657 1069 1
2658 1069 0
2653 1070 0
2654 1070 0
2655 1070 0
2656 1070 0
2657 1070 0
2658 1070 1
1681 1071 1
1495 1072 0
1496 1072 0
1497 1072 0
1498 1072 0
1499 1072 0
1500 1072 0
1681 1072 0.023574741168151871
1495 1073 -1
1496 1073 0.045258900204798641
1497 1073 -0
1498 1073 -0.99668365524927938
1499 1073 0.06775671470238516
1500 1073 -0
1681 1073 0
1495 1074 -0.045206927042819985
1496 1074 -0.9999988768215905
1497 1074 -0
1498 1074 -0.067601049744234989
1499 1074 -0.99668141436676572
1500 1074 -0
1681 1074 0
1495 1075 -0
1496 1075 -0
1497 1075 -1
1498 1075 -0
1499 1075 -0
1500 1075 -0.99668365524927938
1681 1075 0
1680 1076 1
1489 1077 0
1490 1077 0
1491 1077 0
1492 1077 0
1493 1077 0
1494 1077 0
1680 1077 0.023574741168151871
1489 1078 -1
1490 1078 0.045258900204798641
1491 1078 -0
1492 1078 -0.99668365524927938
1493 1078 0.06775671470238516
1494 1078 -0
1680 1078 0
1489 1079 -0.045206927042819985
1490 1079 -0.9999988768215905
1491 1079 -0
1492 1079 -0.067601049744234989
1493 1079 -0.99668141436676572
1494 1079 -0
1680 1079 0
1489 1080 -0
1490 1080 -0
1491 1080 -1
1492 1080 -0
1493 1080 -0
1494 1080 -0.99668365524927938
1680 1080 0
2287 1081 1
2288 1081 0
2289 1081 0
2290 1081 0
2291 1081 0
2292 1081 0
2287 1082 0
2288 1082 1
2289 1082 0
2290 1082 0
2291 1082 0
2292 1082 0
2287 1083 0
2288 1083 0
2289 1083 1
2290 1083 0
2291 1083 0
2292 1083 0
2287 1084 0
2288 1084 0
2289 1084 0
2290 1084 1
2291 1084 0
2292 1084 0
2287 1085 0
2288 1085 0
2289 1085 0
2290 1085 0
2291 1085 1
2292 1085 0
2287 1086 0
2288 1086 0
2289 1086 0
2290 1086 0
2291 1086 0
2292 1086 1
1921 1087 1
1922 1087 0
1923 1087 0
1924 1087 0
1925 1087 0
1926 1087 0
1921 1088 0
1922 1088 1
1923 1088 0
1924 1088 0
1925 1088 0
1926 1088 0
1921 1089 0
1922 1089 0
1923 1089 1
1924 1089 0
1925 1089 0
1926 1089 0
1921 1090 0
1922 1090 0
1923 1090 0
1924 1090 1
1925 1090 0
1926 1090 0
1921 1091 0
1922 1091 0
1923 1091 0
1924 1091 0
1925 1091 1
1926 1091 0
1921 1092 0
1922 1092 0
1923 1092 0
1924 1092 0
1925 1092 0
1926 1092 1
829 1093 1
643 1094 0
644 1094 0
645 1094 0
646 1094 0
647 1094 0
648 1094 0
829 1094 0.023574741168151871
643 1095 -1
644 1095 0.045258900204798641
645 1095 -0
646 1095 -0.99668365524927938
647 1095 0.06775671470238516
648 1095 -0
829 1095 0
643 1096 -0.045206927042819985
644 1096 -0.9999988768215905
645 1096 -0
646 1096 -0.067601049744234989
647 1096 -0.99668141436676572
648 1096 -0
829 1096 0
643 1097 -0
644 1097 -0
645 1097 -1
646 1097 -0
647 1097 -0
648 1097 -0.99668365524927938
829 1097 0
828 1098 1
637 1099 0
638 1099 0
639 1099 0
640 1099 0
641 1099 0
642 1099 0
828 1099 0.023574741168151871
637 1100 -1
638 1100 0.045258900204798641
639 1100 -0
640 1100 -0.99668365524927938
641 1100 0.06775671470238516
642 1100 -0
828 1100 0
637 1101 -0.045206927042819985
638 1101 -0.9999988768215905
639 1101 -0
640 1101 -0.067601049744234989
641 1101 -0.99668141436676572
642 1101 -0
828 1101 0
637 1102 -0
638 1102 -0
639 1102 -1
640 1102 -0
641 1102 -0
642 1102 -0.99668365524927938
828 1102 0
3013 1103 1
3014 1103 0
3015 1103 0
3016 1103 0
3017 1103 0
3018 1103 0
3013 1104 0
3014 1104 1
3015 1104 0
3016 1104 0
3017 1104 0
3018 1104 0
3013 1105 0
3014 1105 0
3015 1105 1
3016 1105 0
3017 1105 0
3018 1105 0
3013 1106 0
3014 1106 0
3015 1106 0
3016 1106 1
3017 1106 0
3018 1106 0
3013 1107 0
3014 1107 0
3015 1107 0
3016 1107 0
3017 1107 1
3018 1107 0
3013 1108 0
3014 1108 0
3015 1108 0
3016 1108 0
3017 1108 0
3018 1108 1
1915 1109 1
1916 1109 0
1917 1109 0
1918 1109 0
1919 1109 0
1920 1109 0
1915 1110 0
1916 1110 1
1917 1110 0
1918 1110 0
1919 1110 0
1920 1110 0
1915 1111 0
1916 1111 0
1917 1111 1
1918 1111 0
1919 1111 0
1920 1111 0
1915 1112 0
1916 1112 0
1917 1112 0
1918 1112 1
1919 1112 0
1920 1112 0
1915 1113 0
1916 1113 0
1917 1113 0
1918 1113 0
1919 1113 1
1920 1113 0
1915 1114 0
1916 1114 0
1917 1114 0
1918 1114 0
1919 1114 0
1920 1114 1
402 1115 1
211 1116 0
212 1116 0
213 1116 0
214 1116 0
215 1116 0
216 1116 0
402 1116 0.023574741168151871
211 1117 -1
212 1117 0.045258900204798641
213 1117 -0
214 1117 -0.99668365524927938
215 1117 0.06775671470238516
216 1117 -0
402 1117 0
211 1118 -0.045206927042819985
212 1118 -0.9999988768215905
213 1118 -0
214 1118 -0.067601049744234989
215 1118 -0.99668141436676572
216 1118 -0
402 1118 0
211 1119 -0
212 1119 -0
213 1119 -1
214 1119 -0
215 1119 -0
216 1119 -0.99668365524927938
402 1119 0
401 1120 1
205 1121 0
206 1121 0
207 1121 0
208 1121 0
209 1121 0
210 1121 0
401 1121 0.023574741168151871
205 1122 -1
206 1122 0.045258900204798641
207 1122 -0
208 1122 -0.99668365524927938
209 1122 0.06775671470238516
210 1122 -0
401 1122 0
205 1123 -0.045206927042819985
206 1123 -0.9999988768215905
207 1123 -0
208 1123 -0.067601049744234989
209 1123 -0.99668141436676572
210 1123 -0
401 1123 0
205 1124 -0
206 1124 -0
207 1124 -1
208 1124 -0
209 1124 -0
210 1124 -0.99668365524927938
401 1124 0
2647 1125 1
2648 1125 0
2649 1125 0
2650 1125 0
2651 1125 0
2652 1125 0
2647 1126 0
2648 1126 1
2649 1126 0
2650 1126 0
2651 1126 0
2652 1126 0
2647 1127 0
2648 1127 0
2649 1127 1
2650 1127 0
2651 1127 0
2652 1127 0
2647 1128 0
2648 1128 0
2649 1128 0
2650 1128 1
2651 1128 0
2652 1128 0
2647 1129 0
2648 1129 0
2649 1129 0
2650 1129 0
2651 1129 1
2652 1129 0
2647 1130 0
2648 1130 0
2649 1130 0
2650 1130 0
2651 1130 0
2652 1130 1
2281 1131 1
2282 1131 0
2283 1131 0
2284 1131 0
2285 1131 0
2286 1131 0
2281 1132 0
2282 1132 1
2283 1132 0
2284 1132 0
2285 1132 0
2286 1132 0
2281 1133 0
2282 1133 0
2283 1133 1
2284 1133 0
2285 1133 0
2286 1133 0
2281 1134 0
2282 1134 0
2283 1134 0
2284 1134 1
2285 1134 0
2286 1134 0
2281 1135 0
2282 1135 0
2283 1135 0
2284 1135 0
2285 1135 1
2286 1135 0
2281 1136 0
2282 1136 0
2283 1136 0
2284 1136 0
2285 1136 0
2286 1136 1
1254 1137 1
1063 1138 0
1064 1138 0
1065 1138 0
1066 1138 0
1067 1138 0
1068 1138 0
1254 1138 0.023574741168151871
1063 1139 -1
1064 1139 0.045258900204798641
1065 1139 -0
1066 1139 -0.99668365524927938
1067 1139 0.06775671470238516
1068 1139 -0
1254 1139 0
1063 1140 -0.045206927042819985
1064 1140 -0.9999988768215905
1065 1140 -0
1066 1140 -0.067601049744234989
1067 1140 -0.99668141436676572
1068 1140 -0
1254 1140 0
1063 1141 -0
1064 1141 -0
1065 1141 -1
1066 1141 -0
1067 1141 -0
1068 1141 -0.99668365524927938
1254 1141 0
1253 1142 1
1057 1143 0
1058 1143 0
1059 1143 0
1060 1143 0
1061 1143 0
1062 1143 0
1253 1143 0.023574741168151871
1057 1144 -1
1058 1144 0.045258900204798641
1059 1144 -0
1060 1144 -0.99668365524927938
1061 1144 0.06775671470238516
1062 1144 -0
1253 1144 0
1057 1145 -0.045206927042819985
1058 1145 -0.9999988768215905
1059 1145 -0
1060 1145 -0.067601049744234989
1061 1145 -0.99668141436676572
1062 1145 -0
1253 1145 0
1057 1146 -0
1058 1146 -0
1059 1146 -1
1060 1146 -0
1061 1146 -0
1062 1146 -0.99668365524927938
1253 1146 0
2275 1147 1
2276 1147 0
2277 1147 0
2278 1147 0
2279 1147 0
2280 1147 0
2275 1148 0
2276 1148 1
2277 1148 0
2278 1148 0
2279 1148 0
2280 1148 0
2275 1149 0
2276 1149 0
2277 1149 1
2278 1149 0
2279 1149 0
2280 1149 0
2275 1150 0
2276 1150 0
2277 1150 0
2278 1150 1
2279 1150 0
2280 1150 0
2275 1151 0
2276 1151 0
2277 1151 0
2278 1151 0
2279 1151 1
2280 1151 0
2275 1152 0
2276 1152 0
2277 1152 0
2278 1152 0
2279 1152 0
2280 1152 1
1909 1153 1
1910 1153 0
1911 1153 0
1912 1153 0
1913 1153 0
1914 1153 0
1909 1154 0
1910 1154 1
1911 1154 0
1912 1154 0
1913 1154 0
1914 1154 0
1909 1155 0
1910 1155 0
1911 1155 1
1912 1155 0
1913 1155 0
1914 1155 0
1909 1156 0
1910 1156 0
1911 1156 0
1912 1156 1
1913 1156 0
1914 1156 0
1909 1157 0
1910 1157 0
1911 1157 0
1912 1157 0
1913 1157 1
1914 1157 0
1909 1158 0
1910 1158 0
1911 1158 0
1912 1158 0
1913 1158 0
1914 1158 1
827 1159 1
631 1160 0
632 1160 0
633 1160 0
634 1160 0
635 1160 0
636 1160 0
827 1160 0.023574741168151871
631 1161 -1
632 1161 0.045258900204798641
633 1161 -0
634 1161 -0.99668365524927938
635 1161 0.06775671470238516
636 1161 -0
827 1161 0
631 1162 -0.045206927042819985
632 1162 -0.9999988768215905
633 1162 -0
634 1162 -0.067601049744234989
635 1162 -0.99668141436676572
636 1162 -0
827 1162 0
631 1163 -0
632 1163 -0
633 1163 -1
634 1163 -0
635 1163 -0
636 1163 -0.99668365524927938
827 1163 0
826 1164 1
625 1165 0
626 1165 0
627 1165 0
628 1165 0
629 1165 0
630 1165 0
826 1165 0.023574741168151871
625 1166 -1
626 1166 0.045258900204798641
627 1166 -0
628 1166 -0.99668365524927938
629 1166 0.06775671470238516
630 1166 -0
826 1166 0
625 1167 -0.045206927042819985
626 1167 -0.9999988768215905
627 1167 -0
628 1167 -0.067601049744234989
629 1167 -0.99668141436676572
630 1167 -0
826 1167 0
625 1168 -0
626 1168 -0
627 1168 -1
628 1168 -0
629 1168 -0
630 1168 -0.99668365524927938
826 1168 0
3007 1169 1
3008 1169 0
3009 1169 0
3010 1169 0
3011 1169 0
3012 1169 0
3007 1170 0
3008 1170 1
3009 1170 0
3010 1170 0
3011 1170 0
3012 1170 0
3007 1171 0
3008 1171 0
3009 1171 1
3010 1171 0
3011 1171 0
3012 1171 0
3007 1172 0
3008 1172 0
3009 1172 0
3010 1172 1
3011 1172 0
3012 1172 0
3007 1173 0
3008 1173 0
3009 1173 0
3010 1173 0
3011 1173 1
3012 1173 0
3007 1174 0
3008 1174 0
3009 1174 0
3010 1174 0
3011 1174 0
3012 1174 1
2641 1175 1
2642 1175 0
2643 1175 0
2644 1175 0
2645 1175 0
2646 1175 0
2641 1176 0
2642 1176 1
2643 1176 0
2644 1176 0
2645 1176 0
2646 1176 0
2641 1177 0
2642 1177 0
2643 1177 1
2644 1177 0
2645 1177 0
2646 1177 0
2641 1178 0
2642 1178 0
2643 1178 0
2644 1178 1
2645 1178 0
2646 1178 0
2641 1179 0
2642 1179 0
2643 1179 0
2644 1179 0
2645 1179 1
2646 1179 0
2641 1180 0
2642 1180 0
2643 1180 0
2644 1180 0
2645 1180 0
2646 1180 1
1679 1181 1
1483 1182 0
1484 1182 0
1485 1182 0
1486 1182 0
1487 1182 0
1488 1182 0
1679 1182 0.023574741168151871
1483 1183 -1
1484 1183 0.045258900204798641
1485 1183 -0
1486 1183 -0.99668365524927938
1487 1183 0.06775671470238516
1488 1183 -0
1679 1183 0
1483 1184 -0.045206927042819985
1484 1184 -0.9999988768215905
1485 1184 -0
1486 1184 -0.067601049744234989
1487 1184 -0.99668141436676572
1488 1184 -0
1679 1184 0
1483 1185 -0
1484 1185 -0
1485 1185 -1
1486 1185 -0
1487 1185 -0
1488 1185 -0.99668365524927938
1679 1185 0
1678 1186 1
1477 1187 0
1478 1187 0
1479 1187 0
1480 1187 0
1481 1187 0
1482 1187 0
1678 1187 0.023574741168151871
1477 1188 -1
1478 1188 0.045258900204798641
1479 1188 -0
1480 1188 -0.99668365524927938
1481 1188 0.06775671470238516
1482 1188 -0
1678 1188 0
1477 1189 -0.045206927042819985
1478 1189 -0.9999988768215905
1479 1189 -0
1480 1189 -0.067601049744234989
1481 1189 -0.99668141436676572
1482 1189 -0
1678 1189 0
1477 1190 -0
1478 1190 -0
1479 1190 -1
1480 1190 -0
1481 1190 -0
1482 1190 -0.99668365524927938
1678 1190 0
2635 1191 1
2636 1191 0
2637 1191 0
2638 1191 0
2639 1191 0
2640 1191 0
2635 1192 0
2636 1192 1
2637 1192 0
2638 1192 0
2639 1192 0
2640 1192 0
2635 1193 0
2636 1193 0
2637 1193 1
2638 1193 0
2639 1193 0
2640 1193 0
2635 1194 0
2636 1194 0
2637 1194 0
2638 1194 1
2639 1194 0
2640 1194 0
2635 1195 0
2636 1195 0
2637 1195 0
2638 1195 0
2639 1195 1
2640 1195 0
2635 1196 0
2636 1196 0
2637 1196 0
2638 1196 0
2639 1196 0
2640 1196 1
2269 1197 1
2270 1197 0
2271 1197 0
2272 1197 0
2273 1197 0
2274 1197 0
2269 1198 0
2270 1198 1
2271 1198 0
2272 1198 0
2273 1198 0
2274 1198 0
2269 1199 0
2270 1199 0
2271 1199 1
2272 1199 0
2273 1199 0
2274 1199 0
2269 1200 0
2270 1200 0
2271 1200 0
2272 1200 1
2273 1200 0
2274 1200 0
2269 1201 0
2270 1201 0
2271 1201 0
2272 1201 0
2273 1201 1
2274 1201 0
2269 1202 0
2270 1202 0
2271 1202 0
2272 1202 0
2273 1202 0
2274 1202 1
1252 1203 1
1051 1204 0
1052 1204 0
1053 1204 0
1054 1204 0
1055 1204 0
1056 1204 0
1252 1204 0.023574741168151871
1051 1205 -1
1052 1205 0.045258900204798641
1053 1205 -0
1054 1205 -0.99668365524927938
1055 1205 0.06775671470238516
1056 1205 -0
1252 1205 0
1051 1206 -0.045206927042819985
1052 1206 -0.9999988768215905
1053 1206 -0
1054 1206 -0.067601049744234989
1055 1206 -0.99668141436676572
1056 1206 -0
1252 1206 0
1051 1207 -0
1052 1207 -0
1053 1207 -1
1054 1207 -0
1055 1207 -0
1056 1207 -0.99668365524927938
1252 1207 0
1251 1208 1
1045 1209 0
1046 1209 0
1047 1209 0
1048 1209 0
1049 1209 0
1050 1209 0
1251 1209 0.023574741168151871
1045 1210 -1
1046 1210 0.045258900204798641
1047 1210 -0
1048 1210 -0.99668365524927938
1049 1210 0.06775671470238516
1050 1210 -0
1251 1210 0
1045 1211 -0.045206927042819985
1046 1211 -0.9999988768215905
1047 1211 -0
1048 1211 -0.067601049744234989
1049 1211 -0.99668141436676572
1050 1211 -0
1251 1211 0
1045 1212 -0
1046 1212 -0
1047 1212 -1
1048 1212 -0
1049 1212 -0
1050 1212 -0.99668365524927938
1251 1212 0
3001 1213 1
3002 1213 0
3003 1213 0
3004 1213 0
3005 1213 0
3006 1213 0
3001 1214 0
3002 1214 1
3003 1214 0
3004 1214 0
3005 1214 0
3006 1214 0
3001 1215 0
3002 1215 0
3003 1215 1
3004 1215 0
3005 1215 0
3006 1215 0
3001 1216 0
3002 1216 0
3003 1216 0
3004 1216 1
3005 1216 0
3006 1216 0
3001 1217 0
3002 1217 0
3003 1217 0
3004 1217 0
3005 1217 1
3006 1217 0
3001 1218 0
3002 1218 0
3003 1218 0
3004 1218 0
3005 1218 0
3006 1218 1
1903 1219 1
1904 1219 0
1905 1219 0
1906 1219 0
1907 1219 0
1908 1219 0
1903 1220 0
1904 1220 1
1905 1220 0
1906 1220 0
1907 1220 0
1908 1220 0
1903 1221 0
1904 1221 0
1905 1221 1
1906 1221 0
1907 1221 0
1908 1221 0
1903 1222 0
1904 1222 0
1905 1222 0
1906 1222 1
1907 1222 0
1908 1222 0
1903 1223 0
1904 1223 0
1905 1223 0
1906 1223 0
1907 1223 1
1908 1223 0
1903 1224 0
1904 1224 0
1905 1224 0
1906 1224 0
1907 1224 0
1908 1224 1
400 1225 1
199 1226 0
200 1226 0
201 1226 0
202 1226 0
203 1226 0
204 1226 0
400 1226 0.023574741168151871
199 1227 -1
200 1227 0.045258900204798641
201 1227 -0
202 1227 -0.99668365524927938
203 1227 0.06775671470238516
204 1227 -0
400 1227 0
199 1228 -0.045206927042819985
200 1228 -0.9999988768215905
201 1228 -0
202 1228 -0.067601049744234989
203 1228 -0.99668141436676572
204 1228 -0
400 1228 0
199 1229 -0
200 1229 -0
201 1229 -1
202 1229 -0
203 1229 -0
204 1229 -0.99668365524927938
400 1229 0
399 1230 1
193 1231 0
194 1231 0
195 1231 0
196 1231 0
197 1231 0
198 1231 0
399 1231 0.023574741168151871
193 1232 -1
194 1232 0.045258900204798641
195 1232 -0
196 1232 -0.99668365524927938
197 1232 0.06775671470238516
198 1232 -0
399 1232 0
193 1233 -0.045206927042819985
194 1233 -0.9999988768215905
195 1233 -0
196 1233 -0.067601049744234989
197 1233 -0.99668141436676572
198 1233 -0
399 1233 0
193 1234 -0
194 1234 -0
195 1234 -1
196 1234 -0
197 1234 -0
198 1234 -0.99668365524927938
399 1234 0
2995 1235 1
2996 1235 0
2997 1235 0
2998 1235 0
2999 1235 0
3000 1235 0
2995 1236 0
2996 1236 1
2997 1236 0
2998 1236 0
2999 1236 0
3000 1236 0
2995 1237 0
2996 1237 0
2997 1237 1
2998 1237 0
2999 1237 0
3000 1237 0
2995 1238 0
2996 1238 0
2997 1238 0
2998 1238 1
2999 1238 0
3000 1238 0
2995 1239 0
2996 1239 0
2997 1239 0
2998 1239 0
2999 1239 1
3000 1239 0
2995 1240 0
2996 1240 0
2997 1240 0
2998 1240 0
2999 1240 0
3000 1240 1
2629 1241 1
2630 1241 0
2631 1241 0
2632 1241 0
2633 1241 0
2634 1241 0
2629 1242 0
2630 1242 1
2631 1242 0
2632 1242 0
2633 1242 0
2634 1242 0
2629 1243 0
2630 1243 0
2631 1243 1
2632 1243 0
2633 1243 0
2634 1243 0
2629 1244 0
2630 1244 0
2631 1244 0
2632 1244 1
2633 1244 0
2634 1244 0
2629 1245 0
2630 1245 0
2631 1245 0
2632 1245 0
2633 1245 1
2634 1245 0
2629 1246 0
2630 1246 0
2631 1246 0
2632 1246 0
2633 1246 0
2634 1246 1
1677 1247 1
1471 1248 0
1472 1248 0
1473 1248 0
1474 1248 0
1475 1248 0
1476 1248 0
1677 1248 0.023574741168151871
1471 1249 -1
1472 1249 0.045258900204798641
1473 1249 -0
1474 1249 -0.99668365524927938
1475 1249 0.06775671470238516
1476 1249 -0
1677 1249 0
1471 1250 -0.045206927042819985
1472 1250 -0.9999988768215905
1473 1250 -0
1474 1250 -0.067601049744234989
1475 1250 -0.99668141436676572
1476 1250 -0
1677 1250 0
1471 1251 -0
1472 1251 -0
1473 1251 -1
1474 1251 -0
1475 1251 -0
1476 1251 -0.99668365524927938
1677 1251 0
1676 1252 1
1465 1253 0
1466 1253 0
1467 1253 0
1468 1253 0
1469 1253 0
1470 1253 0
1676 1253 0.023574741168151871
1465 1254 -1
1466 1254 0.045258900204798641
1467 1254 -0
1468 1254 -0.99668365524927938
1469 1254 0.06775671470238516
1470 1254 -0
1676 1254 0
1465 1255 -0.045206927042819985
1466 1255 -0.9999988768215905
1467 1255 -0
1468 1255 -0.067601049744234989
1469 1255 -0.99668141436676572
1470 1255 -0
1676 1255 0
1465 1256 -0
1466 1256 -0
1467 1256 -1
1468 1256 -0
1469 1256 -0
1470 1256 -0.99668365524927938
1676 1256 0
2263 1257 1
2264 1257 0
2265 1257 0
2266 1257 0
2267 1257 0
2268 1257 0
2263 1258 0
2264 1258 1
2265 1258 0
2266 1258 0
2267 1258 0
2268 1258 0
2263 1259 0
2264 1259 0
2265 1259 1
2266 1259 0
2267 1259 0
2268 1259 0
2263 1260 0
2264 1260 0
2265 1260 0
2266 1260 1
2267 1260 0
2268 1260 0
2263 1261 0
2264 1261 0
2265 1261 0
2266 1261 0
2267 1261 1
2268 1261 0
2263 1262 0
2264 1262 0
2265 1262 0
2266 1262 0
2267 1262 0
2268 1262 1
1897 1263 1
1898 1263 0
1899 1263 0
1900 1263 0
1901 1263 0
1902 1263 0
1897 1264 0
1898 1264 1
1899 1264 0
1900 1264 0
1901 1264 0
1902 1264 0
1897 1265 0
1898 1265 0
1899 1265 1
1900 1265 0
1901 1265 0
1902 1265 0
1897 1266 0
1898 1266 0
1899 1266 0
1900 1266 1
1901 1266 0
1902 1266 0
1897 1267 0
1898 1267 0
1899 1267 0
1900 1267 0
1901 1267 1
1902 1267 0
1897 1268 0
1898 1268 0
1899 1268 0
1900 1268 0
1901 1268 0
1902 1268 1
825 1269 1
619 1270 0
620 1270 0
621 1270 0
622 1270 0
623 1270 0
624 1270 0
825 1270 0.023574741168151871
619 1271 -1
620 1271 0.045258900204798641
621 1271 -0
622 1271 -0.99668365524927938
623 1271 0.06775671470238516
624 1271 -0
825 1271 0
619 1272 -0.045206927042819985
620 1272 -0.9999988768215905
621 1272 -0
622 1272 -0.067601049744234989
623 1272 -0.99668141436676572
624 1272 -0
825 1272 0
619 1273 -0
620 1273 -0
621 1273 -1
622 1273 -0
623 1273 -0
624 1273 -0.99668365524927938
825 1273 0
824 1274 1
613 1275 0
614 1275 0
615 1275 0
616 1275 0
617 1275 0
618 1275 0
824 1275 0.023574741168151871
613 1276 -1
614 1276 0.045258900204798641
615 1276 -0
616 1276 -0.99668365524927938
617 1276 0.06775671470238516
618 1276 -0
824 1276 0
613 1277 -0.045206927042819985
614 1277 -0.9999988768215905
615 1277 -0
616 1277 -0.067601049744234989
617 1277 -0.99668141436676572
618 1277 -0
824 1277 0
613 1278 -0
614 1278 -0
615 1278 -1
616 1278 -0
617 1278 -0
618 1278 -0.99668365524927938
824 1278 0
2989 1279 1
2990 1279 0
2991 1279 0
2992 1279 0
2993 1279 0
2994 1279 0
2989 1280 0
2990 1280 1
2991 1280 0
2992 1280 0
2993 1280 0
2994 1280 0
2989 1281 0
2990 1281 0
2991 1281 1
2992 1281 0
2993 1281 0
2994 1281 0
2989 1282 0
2990 1282 0
2991 1282 0
2992 1282 1
2993 1282 0
2994 1282 0
2989 1283 0
2990 1283 0
2991 1283 0
2992 1283 0
2993 1283 1
2994 1283 0
2989 1284 0
2990 1284 0
2991 1284 0
2992 1284 0
2993 1284 0
2994 1284 1
1891 1285 1
1892 1285 0
1893 1285 0
1894 1285 0
1895 1285 0
1896 1285 0
1891 1286 0
1892 1286 1
1893 1286 0
1894 1286 0
1895 1286 0
1896 1286 0
1891 1287 0
1892 1287 0
1893 1287 1
1894 1287 0
1895 1287 0
1896 1287 0
1891 1288 0
1892 1288 0
1893 1288 0
1894 1288 1
1895 1288 0
1896 1288 0
1891 1289 0
1892 1289 0
1893 1289 0
1894 1289 0
1895 1289 1
1896 1289 0
1891 1290 0
1892 1290 0
1893 1290 0
1894 1290 0
1895 1290 0
1896 1290 1
398 1291 1
187 1292 0
188 1292 0
189 1292 0
190 1292 0
191 1292 0
192 1292 0
398 1292 0.023574741168151871
187 1293 -1
188 1293 0.045258900204798641
189 1293 -0
190 1293 -0.99668365524927938
191 1293 0.06775671470238516
192 1293 -0
398 1293 0
187 1294 -0.045206927042819985
188 1294 -0.9999988768215905
189 1294 -0
190 1294 -0.067601049744234989
191 1294 -0.99668141436676572
192 1294 -0
398 1294 0
187 1295 -0
188 1295 -0
189 1295 -1
190 1295 -0
191 1295 -0
192 1295 -0.99668365524927938
398 1295 0
397 1296 1
181 1297 0
182 1297 0
183 1297 0
184 1297 0
185 1297 0
186 1297 0
397 1297 0.023574741168151871
181 1298 -1
182 1298 0.045258900204798641
183 1298 -0
184 1298 -0.99668365524927938
185 1298 0.06775671470238516
186 1298 -0
397 1298 0
181 1299 -0.045206927042819985
182 1299 -0.9999988768215905
183 1299 -0
184 1299 -0.067601049744234989
185 1299 -0.99668141436676572
186 1299 -0
397 1299 0
181 1300 -0
182 1300 -0
183 1300 -1
184 1300 -0
185 1300 -0
186 1300 -0.99668365524927938
397 1300 0
2623 1301 1
2624 1301 0
2625 1301 0
2626 1301 0
2627 1301 0
2628 1301 0
2623 1302 0
2624 1302 1
2625 1302 0
2626 1302 0
2627 1302 0
2628 1302 0
2623 1303 0
2624 1303 0
2625 1303 1
2626 1303 0
2627 1303 0
2628 1303 0
2623 1304 0
2624 1304 0
2625 1304 0
2626 1304 1
2627 1304 0
2628 1304 0
2623 1305 0
2624 1305 0
2625 1305 0
2626 1305 0
2627 1305 1
2628 1305 0
2623 1306 0
2624 1306 0
2625 1306 0
2626 1306 0
2627 1306 0
2628 1306 1
2257 1307 1
2258 1307 0
2259 1307 0
2260 1307 0
2261 1307 0
2262 1307 0
2257 1308 0
2258 1308 1
2259 1308 0
2260 1308 0
2261 1308 0
2262 1308 0
2257 1309 0
2258 1309 0
2259 1309 1
2260 1309 0
2261 1309 0
2262 1309 0
2257 1310 0
2258 1310 0
2259 1310 0
2260 1310 1
2261 1310 0
2262 1310 0
2257 1311 0
2258 1311 0
2259 1311 0
2260 1311 0
2261 1311 1
2262 1311 0
2257 1312 0
2258 1312 0
2259 1312 0
2260 1312 0
2261 1312 0
2262 1312 1
1250 1313 1
1039 1314 0
1040 1314 0
1041 1314 0
1042 1314 0
1043 1314 0
1044 1314 0
1250 1314 0.023574741168151871
1039 1315 -1
1040 1315 0.045258900204798641
1041 1315 -0
1042 1315 -0.99668365524927938
1043 1315 0.06775671470238516
1044 1315 -0
1250 1315 0
1039 1316 -0.045206927042819985
1040 1316 -0.9999988768215905
1041 1316 -0
1042 1316 -0.067601049744234989
1043 1316 -0.99668141436676572
1044 1316 -0
1250 1316 0
1039 1317 -0
1040 1317 -0
1041 1317 -1
1042 1317 -0
1043 1317 -0
1044 1317 -0.99668365524927938
1250 1317 0
1249 1318 1
1033 1319 0
1034 1319 0
1035 1319 0
1036 1319 0
1037 1319 0
1038 1319 0
1249 1319 0.023574741168151871
1033 1320 -1
1034 1320 0.045258900204798641
1035 1320 -0
1036 1320 -0.99668365524927938
1037 1320 0.06775671470238516
1038 1320 -0
1249 1320 0
1033 1321 -0.045206927042819985
1034 1321 -0.9999988768215905
1035 1321 -0
1036 1321 -0.067601049744234989
1037 1321 -0.99668141436676572
1038 1321 -0
1249 1321 0
1033 1322 -0
1034 1322 -0
1035 1322 -1
1036 1322 -0
1037 1322 -0
1038 1322 -0.99668365524927938
1249 1322 0
2251 1323 1
2252 1323 0
2253 1323 0
2254 1323 0
2255 1323 0
2256 1323 0
2251 1324 0
2252 1324 1
2253 1324 0
2254 1324 0
2255 1324 0
2256 1324 0
2251 1325 0
2252 1325 0
2253 1325 1
2254 1325 0
2255 1325 0
2256 1325 0
2251 1326 0
2252 1326 0
2253 1326 0
2254 1326 1
2255 1326 0
2256 1326 0
2251 1327 0
2252 1327 0
2253 1327 0
2254 1327 0
2255 1327 1
2256 1327 0
2251 1328 0
2252 1328 0
2253 1328 0
2254 1328 0
2255 1328 0
2256 1328 1
1885 1329 1
1886 1329 0
1887 1329 0
1888 1329 0
1889 1329 0
1890 1329 0
1885 1330 0
1886 1330 1
1887 1330 0
1888 1330 0
1889 1330 0
1890 1330 0
1885 1331 0
1886 1331 0
1887 1331 1
1888 1331 0
1889 1331 0
1890 1331 0
1885 1332 0
1886 1332 0
1887 1332 0
1888 1332 1
1889 1332 0
1890 1332 0
1885 1333 0
1886 1333 0
1887 1333 0
1888 1333 0
1889 1333 1
1890 1333 0
1885 1334 0
1886 1334 0
1887 1334 0
1888 1334 0
1889 1334 0
1890 1334 1
823 1335 1
607 1336 0
608 1336 0
609 1336 0
610 1336 0
611 1336 0
612 1336 0
823 1336 0.023574741168151871
607 1337 -1
608 1337 0.045258900204798641
609 1337 -0
610 1337 -0.99668365524927938
611 1337 0.06775671470238516
612 1337 -0
823 1337 0
607 1338 -0.045206927042819985
608 1338 -0.9999988768215905
609 1338 -0
610 1338 -0.067601049744234989
611 1338 -0.99668141436676572
612 1338 -0
823 1338 0
607 1339 -0
608 1339 -0
609 1339 -1
610 1339 -0
611 1339 -0
612 1339 -0.99668365524927938
823 1339 0
822 1340 1
601 1341 0
602 1341 0
603 1341 0
604 1341 0
605 1341 0
606 1341 0
822 1341 0.023574741168151871
601 1342 -1
602 1342 0.045258900204798641
603 1342 -0
604 1342 -0.99668365524927938
605 1342 0.06775671470238516
606 1342 -0
822 1342 0
601 1343 -0.045206927042819985
602 1343 -0.9999988768215905
603 1343 -0
604 1343 -0.067601049744234989
605 1343 -0.99668141436676572
606 1343 -0
822 1343 0
601 1344 -0
602 1344 -0
603 1344 -1
604 1344 -0
605 1344 -0
606 1344 -0.99668365524927938
822 1344 0
2983 1345 1
2984 1345 0
2985 1345 0
2986 1345 0
2987 1345 0
2988 1345 0
2983 1346 0
2984 1346 1
2985 1346 0
2986 1346 0
2987 1346 0
2988 1346 0
2983 1347 0
2984 1347 0
2985 1347 1
2986 1347 0
2987 1347 0
2988 1347 0
2983 1348 0
2984 1348 0
2985 1348 0
2986 1348 1
2987 1348 0
2988 1348 0
2983 1349 0
2984 1349 0
2985 1349 0
2986 1349 0
2987 1349 1
2988 1349 0
2983 1350 0
2984 1350 0
2985 1350 0
2986 1350 0
2987 1350 0
2988 1350 1
2617 1351 1
2618 1351 0
2619 1351 0
2620 1351 0
2621 1351 0
2622 1351 0
2617 1352 0
2618 1352 1
2619 1352 0
2620 1352 0
2621 1352 0
2622 1352 0
2617 1353 0
2618 1353 0
2619 1353 1
2620 1353 0
2621 1353 0
2622 1353 0
2617 1354 0
2618 1354 0
2619 1354 0
2620 1354 1
2621 1354 0
2622 1354 0
2617 1355 0
2618 1355 0
2619 1355 0
2620 1355 0
2621 1355 1
2622 1355 0
2617 1356 0
2618 1356 0
2619 1356 0
2620 1356 0
2621 1356 0
2622 1356 1
1675 1357 1
1459 1358 0
1460 1358 0
1461 1358 0
1462 1358 0
1463 1358 0
1464 1358 0
1675 1358 0.023574741168151871
1459 1359 -1
1460 1359 0.045258900204798641
1461 1359 -0
1462 1359 -0.99668365524927938
1463 1359 0.06775671470238516
1464 1359 -0
1675 1359 0
1459 1360 -0.045206927042819985
1460 1360 -0.9999988768215905
1461 1360 -0
1462 1360 -0.067601049744234989
1463 1360 -0.99668141436676572
1464 1360 -0
1675 1360 0
1459 1361 -0
1460 1361 -0
1461 1361 -1
1462 1361 -0
1463 1361 -0
1464 1361 -0.99668365524927938
1675 1361 0
1674 1362 1
1453 1363 0
1454 1363 0
1455 1363 0
1456 1363 0
1457 1363 0
1458 1363 0
1674 1363 0.023574741168151871
1453 1364 -1
1454 1364 0.045258900204798641
1455 1364 -0
1456 1364 -0.99668365524927938
1457 1364 0.06775671470238516
1458 1364 -0
1674 1364 0
1453 1365 -0.045206927042819985
1454 1365 -0.9999988768215905
1455 1365 -0
1456 1365 -0.067601049744234989
1457 1365 -0.99668141436676572
1458 1365 -0
1674 1365 0
1453 1366 -0
1454 1366 -0
1455 1366 -1
1456 1366 -0
1457 1366 -0
1458 1366 -0.99668365524927938
1674 1366 0
2611 1367 1
2612 1367 0
2613 1367 0
2614 1367 0
2615 1367 0
2616 1367 0
2611 1368 0
2612 1368 1
2613 1368 0
2614 1368 0
2615 1368 0
2616 1368 0
2611 1369 0
2612 1369 0
2613 1369 1
2614 1369 0
2615 1369 0
2616 1369 0
2611 1370 0
2612 1370 0
2613 1370 0
2614 1370 1
2615 1370 0
2616 1370 0
2611 1371 0
2612 1371 0
2613 1371 0
2614 1371 0
2615 1371 1
2616 1371 0
2611 1372 0
2612 1372 0
2613 1372 0
2614 1372 0
2615 1372 0
2616 1372 1
2245 1373 1
2246 1373 0
2247 1373 0
2248 1373 0
2249 1373 0
2250 1373 0
2245 1374 0
2246 1374 1
2247 1374 0
2248 1374 0
2249 1374 0
2250 1374 0
2245 1375 0
2246 1375 0
2247 1375 1
2248 1375 0
2249 1375 0
2250 1375 0
2245 1376 0
2246 1376 0
2247 1376 0
2248 1376 1
2249 1376 0
2250 1376 0
2245 1377 0
2246 1377 0
2247 1377 0
2248 1377 0
2249 1377 1
2250 1377 0
2245 1378 0
2246 1378 0
2247 1378 0
2248 1378 0
2249 1378 0
2250 1378 1
1248 1379 1
1027 1380 0
1028 1380 0
1029 1380 0
1030 1380 0
1031 1380 0
1032 1380 0
1248 1380 0.023574741168151871
1027 1381 -1
1028 1381 0.045258900204798641
1029 1381 -0
1030 1381 -0.99668365524927938
1031 1381 0.06775671470238516
1032 1381 -0
1248 1381 0
1027 1382 -0.045206927042819985
1028 1382 -0.9999988768215905
1029 1382 -0
1030 1382 -0.067601049744234989
1031 1382 -0.99668141436676572
1032 1382 -0
1248 1382 0
1027 1383 -0
1028 1383 -0
1029 1383 -1
1030 1383 -0
1031 1383 -0
1032 1383 -0.99668365524927938
1248 1383 0
1247 1384 1
1021 1385 0
1022 1385 0
1023 1385 0
1024 1385 0
1025 1385 0
1026 1385 0
1247 1385 0.023574741168151871
1021 1386 -1
1022 1386 0.045258900204798641
1023 1386 -0
1024 1386 -0.99668365524927938
1025 1386 0.06775671470238516
1026 1386 -0
1247 1386 0
1021 1387 -0.045206927042819985
1022 1387 -0.9999988768215905
1023 1387 -0
1024 1387 -0.067601049744234989
1025 1387 -0.99668141436676572
1026 1387 -0
1247 1387 0
1021 1388 -0
1022 1388 -0
1023 1388 -1
1024 1388 -0
1025 1388 -0
1026 1388 -0.99668365524927938
1247 1388 0
2977 1389 1
2978 1389 0
2979 1389 0
2980 1389 0
2981 1389 0
2982 1389 0
2977 1390 0
2978 1390 1
2979 1390 0
2980 1390 0
2981 1390 0
2982 1390 0
2977 1391 0
2978 1391 0
2979 1391 1
2980 1391 0
2981 1391 0
2982 1391 0
2977 1392 0
2978 1392 0
2979 1392 0
2980 1392 1
2981 1392 0
2982 1392 0
2977 1393 0
2978 1393 0
2979 1393 0
2980 1393 0
2981 1393 1
2982 1393 0
2977 1394 0
2978 1394 0
2979 1394 0
2980 1394 0
2981 1394 0
2982 1394 1
1879 1395 1
1880 1395 0
1881 1395 0
1882 1395 0
1883 1395 0
1884 1395 0
1879 1396 0
1880 1396 1
1881 1396 0
1882 1396 0
1883 1396 0
1884 1396 0
1879 1397 0
1880 1397 0
1881 1397 1
1882 1397 0
1883 1397 0
1884 1397 0
1879 1398 0
1880 1398 0
1881 1398 0
1882 1398 1
1883 1398 0
1884 1398 0
1879 1399 0
1880 1399 0
1881 1399 0
1882 1399 0
1883 1399 1
1884 1399 0
1879 1400 0
1880 1400 0
1881 1400 0
1882 1400 0
1883 1400 0
1884 1400 1
396 1401 1
175 1402 0
176 1402 0
177 1402 0
178 1402 0
179 1402 0
180 1402 0
396 1402 0.023574741168151871
175 1403 -1
176 1403 0.045258900204798641
177 1403 -0
178 1403 -0.99668365524927938
179 1403 0.06775671470238516
180 1403 -0
396 1403 0
175 1404 -0.045206927042819985
176 1404 -0.9999988768215905
177 1404 -0
178 1404 -0.067601049744234989
179 1404 -0.99668141436676572
180 1404 -0
396 1404 0
175 1405 -0
176 1405 -0
177 1405 -1
178 1405 -0
179 1405 -0
180 1405 -0.99668365524927938
396 1405 0
395 1406 1
169 1407 0
170 1407 0
171 1407 0
172 1407 0
173 1407 0
174 1407 0
395 1407 0.023574741168151871
169 1408 -1
170 1408 0.045258900204798641
171 1408 -0
172 1408 -0.99668365524927938
173 1408 0.06775671470238516
174 1408 -0
395 1408 0
169 1409 -0.045206927042819985
170 1409 -0.9999988768215905
171 1409 -0
172 1409 -0.067601049744234989
173 1409 -0.99668141436676572
174 1409 -0
395 1409 0
169 1410 -0
170 1410 -0
171 1410 -1
172 1410 -0
173 1410 -0
174 1410 -0.99668365524927938
395 1410 0
2971 1411 1
2972 1411 0
2973 1411 0
2974 1411 0
2975 1411 0
2976 1411 0
2971 1412 0
2972 1412 1
2973 1412 0
2974 1412 0
2975 1412 0
2976 1412 0
2971 1413 0
2972 1413 0
2973 1413 1
2974 1413 0
2975 1413 0
2976 1413 0
2971 1414 0
2972 1414 0
2973 1414 0
2974 1414 1
2975 1414 0
2976 1414 0
2971 1415 0
2972 1415 0
2973 1415 0
2974 1415 0
2975 1415 1
2976 1415 0
2971 1416 0
2972 1416 0
2973 1416 0
2974 1416 0
2975 1416 0
2976 1416 1
2605 1417 1
2606 1417 0
2607 1417 0
2608 1417 0
2609 1417 0
2610 1417 0
2605 1418 0
2606 1418 1
2607 1418 0
2608 1418 0
2609 1418 0
2610 1418 0
2605 1419 0
2606 1419 0
2607 1419 1
2608 1419 0
2609 1419 0
2610 1419 0
2605 1420 0
2606 1420 0
2607 1420 0
2608 1420 1
2609 1420 0
2610 1420 0
2605 1421 0
2606 1421 0
2607 1421 0
2608 1421 0
2609 1421 1
2610 1421 0
2605 1422 0
2606 1422 0
2607 1422 0
2608 1422 0
2609 1422 0
2610 1422 1
1673 1423 1
1447 1424 0
1448 1424 0
1449 1424 0
1450 1424 0
1451 1424 0
1452 1424 0
1673 1424 0.023574741168151871
1447 1425 -1
1448 1425 0.045258900204798641
1449 1425 -0
1450 1425 -0.99668365524927938
1451 1425 0.06775671470238516
1452 1425 -0
1673 1425 0
1447 1426 -0.045206927042819985
1448 1426 -0.9999988768215905
1449 1426 -0
1450 1426 -0.067601049744234989
1451 1426 -0.99668141436676572
1452 1426 -0
1673 1426 0
1447 1427 -0
1448 1427 -0
1449 1427 -1
1450 1427 -0
1451 1427 -0
1452 1427 -0.99668365524927938
1673 1427 0
1672 1428 1
1441 1429 0
1442 1429 0
1443 1429 0
1444 1429 0
1445 1429 0
1446 1429 0
1672 1429 0.023574741168151871
1441 1430 -1
1442 1430 0.045258900204798641
1443 1430 -0
1444 1430 -0.99668365524927938
1445 1430 0.06775671470238516
1446 1430 -0
1672 1430 0
1441 1431 -0.045206927042819985
1442 1431 -0.9999988768215905
1443 1431 -0
1444 1431 -0.067601049744234989
1445 1431 -0.99668141436676572
1446 1431 -0
1672 1431 0
1441 1432 -0
1442 1432 -0
1443 1432 -1
1444 1432 -0
1445 1432 -0
1446 1432 -0.99668365524927938
1672 1432 0
2239 1433 1
2240 1433 0
2241 1433 0
2242 1433 0
2243 1433 0
2244 1433 0
2239 1434 0
2240 1434 1
2241 1434 0
2242 1434 0
2243 1434 0
2244 1434 0
2239 1435 0
2240 1435 0
2241 1435 1
2242 1435 0
2243 1435 0
2244 1435 0
2239 1436 0
2240 1436 0
2241 1436 0
2242 1436 1
2243 1436 0
2244 1436 0
2239 1437 0
2240 1437 0
2241 1437 0
2242 1437 0
2243 1437 1
2244 1437 0
2239 1438 0
2240 1438 0
2241 1438 0
2242 1438 0
2243 1438 0
2244 1438 1
1873 1439 1
1874 1439 0
1875 1439 0
1876 1439 0
1877 1439 0
1878 1439 0
1873 1440 0
1874 1440 1
1875 1440 0
1876 1440 0
1877 1440 0
1878 1440 0
1873 1441 0
1874 1441 0
1875 1441 1
1876 1441 0
1877 1441 0
1878 1441 0
1873 1442 0
1874 1442 0
1875 1442 0
1876 1442 1
1877 1442 0
1878 1442 0
1873 1443 0
1874 1443 0
1875 1443 0
1876 1443 0
1877 1443 1
1878 1443 0
1873 1444 0
1874 1444 0
1875 1444 0
1876 1444 0
1877 1444 0
1878 1444 1
821 1445 1
595 1446 0
596 1446 0
597 1446 0
598 1446 0
599 1446 0
600 1446 0
821 1446 0.023574741168151871
595 1447 -1
596 1447 0.045258900204798641
597 1447 -0
598 1447 -0.99668365524927938
599 1447 0.06775671470238516
600 1447 -0
821 1447 0
595 1448 -0.045206927042819985
596 1448 -0.9999988768215905
597 1448 -0
598 1448 -0.067601049744234989
599 1448 -0.99668141436676572
600 1448 -0
821 1448 0
595 1449 -0
596 1449 -0
597 1449 -1
598 1449 -0
599 1449 -0
600 1449 -0.99668365524927938
821 1449 0
820 1450 1
589 1451 0
590 1451 0
591 1451 0
592 1451 0
593 1451 0
594 1451 0
820 1451 0.023574741168151871
589 1452 -1
590 1452 0.045258900204798641
591 1452 -0
592 1452 -0.99668365524927938
593 1452 0.06775671470238516
594 1452 -0
820 1452 0
589 1453 -0.045206927042819985
590 1453 -0.9999988768215905
591 1453 -0
592 1453 -0.067601049744234989
593 1453 -0.99668141436676572
594 1453 -0
820 1453 0
589 1454 -0
590 1454 -0
591 1454 -1
592 1454 -0
593 1454 -0
594 1454 -0.99668365524927938
820 1454 0
2965 1455 1
2966 1455 0
2967 1455 0
2968 1455 0
2969 1455 0
2970 1455 0
2965 1456 0
2966 1456 1
2967 1456 0
2968 1456 0
2969 1456 0
2970 1456 0
2965 1457 0
2966 1457 0
2967 1457 1
2968 1457 0
2969 1457 0
2970 1457 0
2965 1458 0
2966 1458 0
2967 1458 0
2968 1458 1
2969 1458 0
2970 1458 0
2965 1459 0
2966 1459 0
2967 1459 0
2968 1459 0
2969 1459 1
2970 1459 0
2965 1460 0
2966 1460 0
2967 1460 0
2968 1460 0
2969 1460 0
2970 1460 1
1867 1461 1
1868 1461 0
1869 1461 0
1870 1461 0
1871 1461 0
1872 1461 0
1867 1462 0
1868 1462 1
1869 1462 0
1870 1462 0
1871 1462 0
1872 1462 0
1867 1463 0
1868 1463 0
1869 1463 1
1870 1463 0
1871 1463 0
1872 1463 0
1867 1464 0
1868 1464 0
1869 1464 0
1870 1464 1
1871 1464 0
1872 1464 0
1867 1465 0
1868 1465 0
1869 1465 0
1870 1465 0
1871 1465 1
1872 1465 0
1867 1466 0
1868 1466 0
1869 1466 0
1870 1466 0
1871 1466 0
1872 1466 1
394 1467 1
163 1468 0
164 1468 0
165 1468 0
166 1468 0
167 1468 0
168 1468 0
394 1468 0.023574741168151871
163 1469 -1
164 1469 0.045258900204798641
165 1469 -0
166 1469 -0.99668365524927938
167 1469 0.06775671470238516
168 1469 -0
394 1469 0
163 1470 -0.045206927042819985
164 1470 -0.9999988768215905
165 1470 -0
166 1470 -0.067601049744234989
167 1470 -0.99668141436676572
168 1470 -0
394 1470 0
163 1471 -0
164 1471 -0
165 1471 -1
166 1471 -0
167 1471 -0
168 1471 -0.99668365524927938
394 1471 0
393 1472 1
157 1473 0
158 1473 0
159 1473 0
160 1473 0
161 1473 0
162 1473 0
393 1473 0.023574741168151871
157 1474 -1
158 1474 0.045258900204798641
159 1474 -0
160 1474 -0.99668365524927938
161 1474 0.06775671470238516
162 1474 -0
393 1474 0
157 1475 -0.045206927042819985
158 1475 -0.9999988768215905
159 1475 -0
160 1475 -0.067601049744234989
161 1475 -0.99668141436676572
162 1475 -0
393 1475 0
157 1476 -0
158 1476 -0
159 1476 -1
160 1476 -0
161 1476 -0
162 1476 -0.99668365524927938
393 1476 0
2599 1477 1
2600 1477 0
2601 1477 0
2602 1477 0
2603 1477 0
2604 1477 0
2599 1478 0
2600 1478 1
2601 1478 0
2602 1478 0
2603 1478 0
2604 1478 0
2599 1479 0
2600 1479 0
2601 1479 1
2602 1479 0
2603 1479 0
2604 1479 0
2599 1480 0
2600 1480 0
2601 1480 0
2602 1480 1
2603 1480 0
2604 1480 0
2599 1481 0
2600 1481 0
2601 1481 0
2602 1481 0
2603 1481 1
2604 1481 0
2599 1482 0
2600 1482 0
2601 1482 0
2602 1482 0
2603 1482 0
2604 1482 1
2233 1483 1
2234 1483 0
2235 1483 0
2236 1483 0
2237 1483 0
2238 1483 0
2233 1484 0
2234 1484 1
2235 1484 0
2236 1484 0
2237 1484 0
2238 1484 0
2233 1485 0
2234 1485 0
2235 1485 1
2236 1485 0
2237 1485 0
2238 1485 0
2233 1486 0
2234 1486 0
2235 1486 0
2236 1486 1
2237 1486 0
2238 1486 0
2233 1487 0
2234 1487 0
2235 1487 0
2236 1487 0
2237 1487 1
2238 1487 0
2233 1488 0
2234 1488 0
2235 1488 0
2236 1488 0
2237 1488 0
2238 1488 1
1246 1489 1
1015 1490 0
1016 1490 0
1017 1490 0
1018 1490 0
1019 1490 0
1020 1490 0
1246 1490 0.023574741168151871
1015 1491 -1
1016 1491 0.045258900204798641
1017 1491 -0
1018 1491 -0.99668365524927938
1019 1491 0.06775671470238516
1020 1491 -0
1246 1491 0
1015 1492 -0.045206927042819985
1016 1492 -0.9999988768215905
1017 1492 -0
1018 1492 -0.067601049744234989
1019 1492 -0.99668141436676572
1020 1492 -0
1246 1492 0
1015 1493 -0
1016 1493 -0
1017 1493 -1
1018 1493 -0
1019 1493 -0
1020 1493 -0.99668365524927938
1246 1493 0
1245 1494 1
1009 1495 0
1010 1495 0
1011 1495 0
1012 1495 0
1013 1495 0
1014 1495 0
1245 1495 0.023574741168151871
1009 1496 -1
1010 1496 0.045258900204798641
1011 1496 -0
1012 1496 -0.99668365524927938
1013 1496 0.06775671470238516
1014 1496 -0
1245 1496 0
1009 1497 -0.045206927042819985
1010 1497 -0.9999988768215905
1011 1497 -0
1012 1497 -0.067601049744234989
1013 1497 -0.99668141436676572
1014 1497 -0
1245 1497 0
1009 1498 -0
1010 1498 -0
1011 1498 -1
1012 1498 -0
1013 1498 -0
1014 1498 -0.99668365524927938
1245 1498 0
2227 1499 1
2228 1499 0
2229 1499 0
2230 1499 0
2231 1499 0
2232 1499 0
2227 1500 0
2228 1500 1
2229 1500 0
2230 1500 0
2231 1500 0
2232 1500 0
2227 1501 0
2228 1501 0
2229 1501 1
2230 1501 0
2231 1501 0
2232 1501 0
2227 1502 0
2228 1502 0
2229 1502 0
2230 1502 1
2231 1502 0
2232 1502 0
2227 1503 0
2228 1503 0
2229 1503 0
2230 1503 0
2231 1503 1
2232 1503 0
2227 1504 0
2228 1504 0
2229 1504 0
2230 1504 0
2231 1504 0
2232 1504 1
1861 1505 1
1862 1505 0
1863 1505 0
1864 1505 0
1865 1505 0
1866 1505 0
1861 1506 0
1862 1506 1
1863 1506 0
1864 1506 0
1865 1506 0
1866 1506 0
1861 1507 0
1862 1507 0
1863 1507 1
1864 1507 0
1865 1507 0
1866 1507 0
1861 1508 0
1862 1508 0
1863 1508 0
1864 1508 1
1865 1508 0
1866 1508 0
1861 1509 0
1862 1509 0
1863 1509 0
1864 1509 0
1865 1509 1
1866 1509 0
1861 1510 0
1862 1510 0
1863 1510 0
1864 1510 0
1865 1510 0
1866 1510 1
819 1511 1
583 1512 0
584 1512 0
585 1512 0
586 1512 0
587 1512 0
588 1512 0
819 1512 0.023574741168151871
583 1513 -1
584 1513 0.045258900204798641
585 1513 -0
586 1513 -0.99668365524927938
587 1513 0.06775671470238516
588 1513 -0
819 1513 0
583 1514 -0.045206927042819985
584 1514 -0.9999988768215905
585 1514 -0
586 1514 -0.067601049744234989
587 1514 -0.99668141436676572
588 1514 -0
819 1514 0
583 1515 -0
584 1515 -0
585 1515 -1
586 1515 -0
587 1515 -0
588 1515 -0.99668365524927938
819 1515 0
818 1516 1
577 1517 0
578 1517 0
579 1517 0
580 1517 0
581 1517 0
582 1517 0
818 1517 0.023574741168151871
577 1518 -1
578 1518 0.045258900204798641
579 1518 -0
580 1518 -0.99668365524927938
581 1518 0.06775671470238516
582 1518 -0
818 1518 0
577 1519 -0.045206927042819985
578 1519 -0.9999988768215905
579 1519 -0
580 1519 -0.067601049744234989
581 1519 -0.99668141436676572
582 1519 -0
818 1519 0
577 1520 -0
578 1520 -0
579 1520 -1
580 1520 -0
581 1520 -0
582 1520 -0.99668365524927938
818 1520 0
2959 1521 1
2960 1521 0
2961 1521 0
2962 1521 0
2963 1521 0
2964 1521 0
2959 1522 0
2960 1522 1
2961 1522 0
2962 1522 0
2963 1522 0
2964 1522 0
2959 1523 0
2960 1523 0
2961 1523 1
2962 1523 0
2963 1523 0
2964 1523 0
2959 1524 0
2960 1524 0
2961 1524 0
2962 1524 1
2963 1524 0
2964 1524 0
2959 1525 0
2960 1525 0
2961 1525 0
2962 1525 0
2963 1525 1
2964 1525 0
2959 1526 0
2960 1526 0
2961 1526 0
2962 1526 0
2963 1526 0
2964 1526 1
2593 1527 1
2594 1527 0
2595 1527 0
2596 1527 0
2597 1527 0
2598 1527 0
2593 1528 0
2594 1528 1
2595 1528 0
2596 1528 0
2597 1528 0
2598 1528 0
2593 1529 0
2594 1529 0
2595 1529 1
2596 1529 0
2597 1529 0
2598 1529 0
2593 1530 0
2594 1530 0
2595 1530 0
2596 1530 1
2597 1530 0
2598 1530 0
2593 1531 0
2594 1531 0
2595 1531 0
2596 1531 0
2597 1531 1
2598 1531 0
2593 1532 0
2594 1532 0
2595 1532 0
2596 1532 0
2597 1532 0
2598 1532 1
1671 1533 1
1435 1534 0
1436 1534 0
1437 1534 0
1438 1534 0
1439 1534 0
1440 1534 0
1671 1534 0.023574741168151871
1435 1535 -1
1436 1535 0.045258900204798641
1437 1535 -0
1438 1535 -0.99668365524927938
1439 1535 0.06775671470238516
1440 1535 -0
1671 1535 0
1435 1536 -0.045206927042819985
1436 1536 -0.9999988768215905
1437 1536 -0
1438 1536 -0.067601049744234989
1439 1536 -0.99668141436676572
1440 1536 -0
1671 1536 0
1435 1537 -0
1436 1537 -0
1437 1537 -1
1438 1537 -0
1439 1537 -0
1440 1537 -0.99668365524927938
1671 1537 0
1670 1538 1
1429 1539 0
1430 1539 0
1431 1539 0
1432 1539 0
1433 1539 0
1434 1539 0
1670 1539 0.023574741168151871
1429 1540 -1
1430 1540 0.045258900204798641
1431 1540 -0
1432 1540 -0.99668365524927938
1433 1540 0.06775671470238516
1434 1540 -0
1670 1540 0
1429 1541 -0.045206927042819985
1430 1541 -0.9999988768215905
1431 1541 -0
1432 1541 -0.067601049744234989
1433 1541 -0.99668141436676572
1434 1541 -0
1670 1541 0
1429 1542 -0
1430 1542 -0
1431 1542 -1
1432 1542 -0
1433 1542 -0
1434 1542 -0.99668365524927938
1670 1542 0
2587 1543 1
2588 1543 0
2589 1543 0
2590 1543 0
2591 1543 0
2592 1543 0
2587 1544 0
2588 1544 1
2589 1544 0
2590 1544 0
2591 1544 0
2592 1544 0
2587 1545 0
2588 1545 0
2589 1545 1
2590 1545 0
2591 1545 0
2592 1545 0
2587 1546 0
2588 1546 0
2589 1546 0
2590 1546 1
2591 1546 0
2592 1546 0
2587 1547 0
2588 1547 0
2589 1547 0
2590 1547 0
2591 1547 1
2592 1547 0
2587 1548 0
2588 1548 0
2589 1548 0
2590 1548 0
2591 1548 0
2592 1548 1
2221 1549 1
2222 1549 0
2223 1549 0
2224 1549 0
2225 1549 0
2226 1549 0
2221 1550 0
2222 1550 1
2223 1550 0
2224 1550 0
2225 1550 0
2226 1550 0
2221 1551 0
2222 1551 0
2223 1551 1
2224 1551 0
2225 1551 0
2226 1551 0
2221 1552 0
2222 1552 0
2223 1552 0
2224 1552 1
2225 1552 0
2226 1552 0
2221 1553 0
2222 1553 0
2223 1553 0
2224 1553 0
2225 1553 1
2226 1553 0
2221 1554 0
2222 1554 0
2223 1554 0
2224 1554 0
2225 1554 0
2226 1554 1
1244 1555 1
1003 1556 0
1004 1556 0
1005 1556 0
1006 1556 0
1007 1556 0
1008 1556 0
1244 1556 0.023574741168151871
1003 1557 -1
1004 1557 0.045258900204798641
1005 1557 -0
1006 1557 -0.99668365524927938
1007 1557 0.06775671470238516
1008 1557 -0
1244 1557 0
1003 1558 -0.045206927042819985
1004 1558 -0.9999988768215905
1005 1558 -0
1006 1558 -0.067601049744234989
1007 1558 -0.99668141436676572
1008 1558 -0
1244 1558 0
1003 1559 -0
1004 1559 -0
1005 1559 -1
1006 1559 -0
1007 1559 -0
1008 1559 -0.99668365524927938
1244 1559 0
1243 1560 1
997 1561 0
998 1561 0
999 1561 0
1000 1561 0
1001 1561 0
1002 1561 0
1243 1561 0.023574741168151871
997 1562 -1
998 1562 0.045258900204798641
999 1562 -0
1000 1562 -0.99668365524927938
1001 1562 0.06775671470238516
1002 1562 -0
1243 1562 0
997 1563 -0.045206927042819985
998 1563 -0.9999988768215905
999 1563 -0
1000 1563 -0.067601049744234989
1001 1563 -0.99668141436676572
1002 1563 -0
1243 1563 0
997 1564 -0
998 1564 -0
999 1564 -1
1000 1564 -0
1001 1564 -0
1002 1564 -0.99668365524927938
1243 1564 0
2953 1565 1
2954 1565 0
2955 1565 0
2956 1565 0
2957 1565 0
2958 1565 0
2953 1566 0
2954 1566 1
2955 1566 0
2956 1566 0
2957 1566 0
2958 1566 0
2953 1567 0
2954 1567 0
2955 1567 1
2956 1567 0
2957 1567 0
2958 1567 0
2953 1568 0
2954 1568 0
2955 1568 0
2956 1568 1
2957 1568 0
2958 1568 0
2953 1569 0
2954 1569 0
2955 1569 0
2956 1569 0
2957 1569 1
2958 1569 0
2953 1570 0
2954 1570 0
2955 1570 0
2956 1570 0
2957 1570 0
2958 1570 1
1855 1571 1
1856 1571 0
1857 1571 0
1858 1571 0
1859 1571 0
1860 1571 0
1855 1572 0
1856 1572 1
1857 1572 0
1858 1572 0
1859 1572 0
1860 1572 0
1855 1573 0
1856 1573 0
1857 1573 1
1858 1573 0
1859 1573 0
1860 1573 0
1855 1574 0
1856 1574 0
1857 1574 0
1858 1574 1
1859 1574 0
1860 1574 0
1855 1575 0
1856 1575 0
1857 1575 0
1858 1575 0
1859 1575 1
1860 1575 0
1855 1576 0
1856 1576 0
1857 1576 0
1858 1576 0
1859 1576 0
1860 1576 1
392 1577 1
151 1578 0
152 1578 0
153 1578 0
154 1578 0
155 1578 0
156 1578 0
392 1578 0.023574741168151871
151 1579 -1
152 1579 0.045258900204798641
153 1579 -0
154 1579 -0.99668365524927938
155 1579 0.06775671470238516
156 1579 -0
392 1579 0
151 1580 -0.045206927042819985
152 1580 -0.9999988768215905
153 1580 -0
154 1580 -0.067601049744234989
155 1580 -0.99668141436676572
156 1580 -0
392 1580 0
151 1581 -0
152 1581 -0
153 1581 -1
154 1581 -0
155 1581 -0
156 1581 -0.99668365524927938
392 1581 0
391 1582 1
145 1583 0
146 1583 0
147 1583 0
148 1583 0
149 1583 0
150 1583 0
391 1583 0.023574741168151871
145 1584 -1
146 1584 0.045258900204798641
147 1584 -0
148 1584 -0.99668365524927938
149 1584 0.06775671470238516
150 1584 -0
391 1584 0
145 1585 -0.045206927042819985
146 1585 -0.9999988768215905
147 1585 -0
148 1585 -0.067601049744234989
149 1585 -0.99668141436676572
150 1585 -0
391 1585 0
145 1586 -0
146 1586 -0
147 1586 -1
148 1586 -0
149 1586 -0
150 1586 -0.99668365524927938
391 1586 0
2947 1587 1
2948 1587 0
2949 1587 0
2950 1587 0
2951 1587 0
2952 1587 0
2947 1588 0
2948 1588 1
2949 1588 0
2950 1588 0
2951 1588 0
2952 1588 0
2947 1589 0
2948 1589 0
2949 1589 1
2950 1589 0
2951 1589 0
2952 1589 0
2947 1590 0
2948 1590 0
2949 1590 0
2950 1590 1
2951 1590 0
2952 1590 0
2947 1591 0
2948 1591 0
2949 1591 0
2950 1591 0
2951 1591 1
2952 1591 0
2947 1592 0
2948 1592 0
2949 1592 0
2950 1592 0
2951 1592 0
2952 1592 1
2581 1593 1
2582 1593 0
2583 1593 0
2584 1593 0
2585 1593 0
2586 1593 0
2581 1594 0
2582 1594 1
2583 1594 0
2584 1594 0
2585 1594 0
2586 1594 0
2581 1595 0
2582 1595 0
2583 1595 1
2584 1595 0
2585 1595 0
2586 1595 0
2581 1596 0
2582 1596 0
2583 1596 0
2584 1596 1
2585 1596 0
2586 1596 0
2581 1597 0
2582 1597 0
2583 1597 0
2584 1597 0
2585 1597 1
2586 1597 0
2581 1598 0
2582 1598 0
2583 1598 0
2584 1598 0
2585 1598 0
2586 1598 1
1669 1599 1
1423 1600 0
1424 1600 0
1425 1600 0
1426 1600 0
1427 1600 0
1428 1600 0
1669 1600 0.023574741168151871
1423 1601 -1
1424 1601 0.045258900204798641
1425 1601 -0
1426 1601 -0.99668365524927938
1427 1601 0.06775671470238516
1428 1601 -0
1669 1601 0
1423 1602 -0.045206927042819985
1424 1602 -0.9999988768215905
1425 1602 -0
1426 1602 -0.067601049744234989
1427 1602 -0.99668141436676572
1428 1602 -0
1669 1602 0
1423 1603 -0
1424 1603 -0
1425 1603 -1
1426 1603 -0
1427 1603 -0
1428 1603 -0.99668365524927938
1669 1603 0
1668 1604 1
1417 1605 0
1418 1605 0
1419 1605 0
1420 1605 0
1421 1605 0
1422 1605 0
1668 1605 0.023574741168151871
1417 1606 -1
1418 1606 0.045258900204798641
1419 1606 -0
1420 1606 -0.99668365524927938
1421 1606 0.06775671470238516
1422 1606 -0
1668 1606 0
1417 1607 -0.045206927042819985
1418 1607 -0.9999988768215905
1419 1607 -0
1420 1607 -0.067601049744234989
1421 1607 -0.99668141436676572
1422 1607 -0
1668 1607 0
1417 1608 -0
1418 1608 -0
1419 1608 -1
1420 1608 -0
1421 1608 -0
1422 1608 -0.99668365524927938
1668 1608 0
2215 1609 1
2216 1609 0
2217 1609 0
2218 1609 0
2219 1609 0
2220 1609 0
2215 1610 0
2216 1610 1
2217 1610 0
2218 1610 0
2219 1610 0
2220 1610 0
2215 1611 0
2216 1611 0
2217 1611 1
2218 1611 0
2219 1611 0
2220 1611 0
2215 1612 0
2216 1612 0
2217 1612 0
2218 1612 1
2219 1612 0
2220 1612 0
2215 1613 0
2216 1613 0
2217 1613 0
2218 1613 0
2219 1613 1
2220 1613 0
2215 1614 0
2216 1614 0
2217 1614 0
2218 1614 0
2219 1614 0
2220 1614 1
1849 1615 1
1850 1615 0
1851 1615 0
1852 1615 0
1853 1615 0
1854 1615 0
1849 1616 0
1850 1616 1
1851 1616 0
1852 1616 0
1853 1616 0
1854 1616 0
1849 1617 0
1850 1617 0
1851 1617 1
1852 1617 0
1853 1617 0
1854 1617 0
1849 1618 0
1850 1618 0
1851 1618 0
1852 1618 1
1853 1618 0
1854 1618 0
1849 1619 0
1850 1619 0
1851 1619 0
1852 1619 0
1853 1619 1
1854 1619 0
1849 1620 0
1850 1620 0
1851 1620 0
1852 1620 0
1853 1620 0
1854 1620 1
817 1621 1
571 1622 0
572 1622 0
573 1622 0
574 1622 0
575 1622 0
576 1622 0
817 1622 0.023574741168151871
571 1623 -1
572 1623 0.045258900204798641
573 1623 -0
574 1623 -0.99668365524927938
575 1623 0.06775671470238516
576 1623 -0
817 1623 0
571 1624 -0.045206927042819985
572 1624 -0.9999988768215905
573 1624 -0
574 1624 -0.067601049744234989
575 1624 -0.99668141436676572
576 1624 -0
817 1624 0
571 1625 -0
572 1625 -0
573 1625 -1
574 1625 -0
575 1625 -0
576 1625 -0.99668365524927938
817 1625 0
816 1626 1
565 1627 0
566 1627 0
567 1627 0
568 1627 0
569 1627 0
570 1627 0
816 1627 0.023574741168151871
565 1628 -1
566 1628 0.045258900204798641
567 1628 -0
568 1628 -0.99668365524927938
569 1628 0.06775671470238516
570 1628 -0
816 1628 0
565 1629 -0.045206927042819985
566 1629 -0.9999988768215905
567 1629 -0
568 1629 -0.067601049744234989
569 1629 -0.99668141436676572
570 1629 -0
816 1629 0
565 1630 -0
566 1630 -0
567 1630 -1
568 1630 -0
569 1630 -0
570 1630 -0.99668365524927938
816 1630 0
2941 1631 1
2942 1631 0
2943 1631 0
2944 1631 0
2945 1631 0
2946 1631 0
2941 1632 0
2942 1632 1
2943 1632 0
2944 1632 0
2945 1632 0
2946 1632 0
2941 1633 0
2942 1633 0
2943 1633 1
2944 1633 0
2945 1633 0
2946 1633 0
2941 1634 0
2942 1634 0
2943 1634 0
2944 1634 1
2945 1634 0
2946 1634 0
2941 1635 0
2942 1635 0
2943 1635 0
2944 1635 0
2945 1635 1
2946 1635 0
2941 1636 0
2942 1636 0
2943 1636 0
2944 1636 0
2945 1636 0
2946 1636 1
1843 1637 1
1844 1637 0
1845 1637 0
1846 1637 0
1847 1637 0
1848 1637 0
1843 1638 0
1844 1638 1
1845 1638 0
1846 1638 0
1847 1638 0
1848 1638 0
1843 1639 0
1844 1639 0
1845 1639 1
1846 1639 0
1847 1639 0
1848 1639 0
1843 1640 0
1844 1640 0
1845 1640 0
1846 1640 1
1847 1640 0
1848 1640 0
1843 1641 0
1844 1641 0
1845 1641 0
1846 1641 0
1847 1641 1
1848 1641 0
1843 1642 0
1844 1642 0
1845 1642 0
1846 1642 0
1847 1642 0
1848 1642 1
390 1643 1
139 1644 0
140 1644 0
141 1644 0
142 1644 0
143 1644 0
144 1644 0
390 1644 0.023574741168151871
139 1645 -1
140 1645 0.045258900204798641
141 1645 -0
142 1645 -0.99668365524927938
143 1645 0.06775671470238516
144 1645 -0
390 1645 0
139 1646 -0.045206927042819985
140 1646 -0.9999988768215905
141 1646 -0
142 1646 -0.067601049744234989
143 1646 -0.99668141436676572
144 1646 -0
390 1646 0
139 1647 -0
140 1647 -0
141 1647 -1
142 1647 -0
143 1647 -0
144 1647 -0.99668365524927938
390 1647 0
389 1648 1
133 1649 0
134 1649 0
135 1649 0
136 1649 0
137 1649 0
138 1649 0
389 1649 0.023574741168151871
133 1650 -1
134 1650 0.045258900204798641
135 1650 -0
136 1650 -0.99668365524927938
137 1650 0.06775671470238516
138 1650 -0
389 1650 0
133 1651 -0.045206927042819985
134 1651 -0.9999988768215905
135 1651 -0
136 1651 -0.067601049744234989
137 1651 -0.99668141436676572
138 1651 -0
389 1651 0
133 1652 -0
134 1652 -0
135 1652 -1
136 1652 -0
137 1652 -0
138 1652 -0.99668365524927938
389 1652 0
2575 1653 1
2576 1653 0
2577 1653 0
2578 1653 0
2579 1653 0
2580 1653 0
2575 1654 0
2576 1654 1
2577 1654 0
2578 1654 0
2579 1654 0
2580 1654 0
2575 1655 0
2576 1655 0
2577 1655 1
2578 1655 0
2579 1655 0
2580 1655 0
2575 1656 0
2576 1656 0
2577 1656 0
2578 1656 1
2579 1656 0
2580 1656 0
2575 1657 0
2576 1657 0
2577 1657 0
2578 1657 0
2579 1657 1
2580 1657 0
2575 1658 0
2576 1658 0
2577 1658 0
2578 1658 0
2579 1658 0
2580 1658 1
2209 1659 1
2210 1659 0
2211 1659 0
2212 1659 0
2213 1659 0
2214 1659 0
2209 1660 0
2210 1660 1
2211 1660 0
2212 1660 0
2213 1660 0
2214 1660 0
2209 1661 0
2210 1661 0
2211 1661 1
2212 1661 0
2213 1661 0
2214 1661 0
2209 1662 0
2210 1662 0
2211 1662 0
2212 1662 1
2213 1662 0
2214 1662 0
2209 1663 0
2210 1663 0
2211 1663 0
2212 1663 0
2213 1663 1
2214 1663 0
2209 1664 0
2210 1664 0
2211 1664 0
2212 1664 0
2213 1664 0
2214 1664 1
1242 1665 1
991 1666 0
992 1666 0
993 1666 0
994 1666 0
995 1666 0
996 1666 0
1242 1666 0.023574741168151871
991 1667 -1
992 1667 0.045258900204798641
993 1667 -0
994 1667 -0.99668365524927938
995 1667 0.06775671470238516
996 1667 -0
1242 1667 0
991 1668 -0.045206927042819985
992 1668 -0.9999988768215905
993 1668 -0
994 1668 -0.067601049744234989
995 1668 -0.99668141436676572
996 1668 -0
1242 1668 0
991 1669 -0
992 1669 -0
993 1669 -1
994 1669 -0
995 1669 -0
996 1669 -0.99668365524927938
1242 1669 0
1241 1670 1
985 1671 0
986 1671 0
987 1671 0
988 1671 0
989 1671 0
990 1671 0
1241 1671 0.023574741168151871
985 1672 -1
986 1672 0.045258900204798641
987 1672 -0
988 1672 -0.99668365524927938
989 1672 0.06775671470238516
990 1672 -0
1241 1672 0
985 1673 -0.045206927042819985
986 1673 -0.9999988768215905
987 1673 -0
988 1673 -0.067601049744234989
989 1673 -0.99668141436676572
990 1673 -0
1241 1673 0
985 1674 -0
986 1674 -0
987 1674 -1
988 1674 -0
989 1674 -0
990 1674 -0.99668365524927938
1241 1674 0
2203 1675 1
2204 1675 0
2205 1675 0
2206 1675 0
2207 1675 0
2208 1675 0
2203 1676 0
2204 1676 1
2205 1676 0
2206 1676 0
2207 1676 0
2208 1676 0
2203 1677 0
2204 1677 0
2205 1677 1
2206 1677 0
2207 1677 0
2208 1677 0
2203 1678 0
2204 1678 0
2205 1678 0
2206 1678 1
2207 1678 0
2208 1678 0
2203 1679 0
2204 1679 0
2205 1679 0
2206 1679 0
2207 1679 1
2208 1679 0
2203 1680 0
2204 1680 0
2205 1680 0
2206 1680 0
2207 1680 0
2208 1680 1
1837 1681 1
1838 1681 0
1839 1681 0
1840 1681 0
1841 1681 0
1842 1681 0
1837 1682 0
1838 1682 1
1839 1682 0
1840 1682 0
1841 1682 0
1842 1682 0
1837 1683 0
1838 1683 0
1839 1683 1
1840 1683 0
1841 1683 0
1842 1683 0
1837 1684 0
1838 1684 0
1839 1684 0
1840 1684 1
1841 1684 0
1842 1684 0
1837 1685 0
1838 1685 0
1839 1685 0
1840 1685 0
1841 1685 1
1842 1685 0
1837 1686 0
1838 1686 0
1839 1686 0
1840 1686 0
1841 1686 0
1842 1686 1
815 1687 1
559 1688 0
560 1688 0
561 1688 0
562 1688 0
563 1688 0
564 1688 0
815 1688 0.023574741168151871
559 1689 -1
560 1689 0.045258900204798641
561 1689 -0
562 1689 -0.99668365524927938
563 1689 0.06775671470238516
564 1689 -0
815 1689 0
559 1690 -0.045206927042819985
560 1690 -0.9999988768215905
561 1690 -0
562 1690 -0.067601049744234989
563 1690 -0.99668141436676572
564 1690 -0
815 1690 0
559 1691 -0
560 1691 -0
561 1691 -1
562 1691 -0
563 1691 -0
564 1691 -0.99668365524927938
815 1691 0
814 1692 1
553 1693 0
554 1693 0
555 1693 0
556 1693 0
557 1693 0
558 1693 0
814 1693 0.023574741168151871
553 1694 -1
554 1694 0.045258900204798641
555 1694 -0
556 1694 -0.99668365524927938
557 1694 0.06775671470238516
558 1694 -0
814 1694 0
553 1695 -0.045206927042819985
554 1695 -0.9999988768215905
555 1695 -0
556 1695 -0.067601049744234989
557 1695 -0.99668141436676572
558 1695 -0
814 1695 0
553 1696 -0
554 1696 -0
555 1696 -1
556 1696 -0
557 1696 -0
558 1696 -0.99668365524927938
814 1696 0
2935 1697 1
2936 1697 0
2937 1697 0
2938 1697 0
2939 1697 0
2940 1697 0
2935 1698 0
2936 1698 1
2937 1698 0
2938 1698 0
2939 1698 0
2940 1698 0
2935 1699 0
2936 1699 0
2937 1699 1
2938 1699 0
2939 1699 0
2940 1699 0
2935 1700 0
2936 1700 0
2937 1700 0
2938 1700 1
2939 1700 0
2940 1700 0
2935 1701 0
2936 1701 0
2937 1701 0
2938 1701 0
2939 1701 1
2940 1701 0
2935 1702 0
2936 1702 0
2937 1702 0
2938 1702 0
2939 1702 0
2940 1702 1
2569 1703 1
2570 1703 0
2571 1703 0
2572 1703 0
2573 1703 0
2574 1703 0
2569 1704 0
2570 1704 1
2571 1704 0
2572 1704 0
2573 1704 0
2574 1704 0
2569 1705 0
2570 1705 0
2571 1705 1
2572 1705 0
2573 1705 0
2574 1705 0
2569 1706 0
2570 1706 0
2571 1706 0
2572 1706 1
2573 1706 0
2574 1706 0
2569 1707 0
2570 1707 0
2571 1707 0
2572 1707 0
2573 1707 1
2574 1707 0
2569 1708 0
2570 1708 0
2571 1708 0
2572 1708 0
2573 1708 0
2574 1708 1
1667 1709 1
1411 1710 0
1412 1710 0
1413 1710 0
1414 1710 0
1415 1710 0
1416 1710 0
1667 1710 0.023574741168151871
1411 1711 -1
1412 1711 0.045258900204798641
1413 1711 -0
1414 1711 -0.99668365524927938
1415 1711 0.06775671470238516
1416 1711 -0
1667 1711 0
1411 1712 -0.045206927042819985
1412 1712 -0.9999988768215905
1413 1712 -0
1414 1712 -0.067601049744234989
1415 1712 -0.99668141436676572
1416 1712 -0
1667 1712 0
1411 1713 -0
1412 1713 -0
1413 1713 -1
1414 1713 -0
1415 1713 -0
1416 1713 -0.99668365524927938
1667 1713 0
1666 1714 1
1405 1715 0
1406 1715 0
1407 1715 0
1408 1715 0
1409 1715 0
1410 1715 0
1666 1715 0.023574741168151871
1405 1716 -1
1406 1716 0.045258900204798641
1407 1716 -0
1408 1716 -0.99668365524927938
1409 1716 0.06775671470238516
1410 1716 -0
1666 1716 0
1405 1717 -0.045206927042819985
1406 1717 -0.9999988768215905
1407 1717 -0
1408 1717 -0.067601049744234989
1409 1717 -0.99668141436676572
1410 1717 -0
1666 1717 0
1405 1718 -0
1406 1718 -0
1407 1718 -1
1408 1718 -0
1409 1718 -0
1410 1718 -0.99668365524927938
1666 1718 0
2563 1719 1
2564 1719 0
2565 1719 0
2566 1719 0
2567 1719 0
2568 1719 0
2563 1720 0
2564 1720 1
2565 1720 0
2566 1720 0
2567 1720 0
2568 1720 0
2563 1721 0
2564 1721 0
2565 1721 1
2566 1721 0
2567 1721 0
2568 1721 0
2563 1722 0
2564 1722 0
2565 1722 0
2566 1722 1
2567 1722 0
2568 1722 0
2563 1723 0
2564 1723 0
2565 1723 0
2566 1723 0
2567 1723 1
2568 1723 0
2563 1724 0
2564 1724 0
2565 1724 0
2566 1724 0
2567 1724 0
2568 1724 1
2197 1725 1
2198 1725 0
2199 1725 0
2200 1725 0
2201 1725 0
2202 1725 0
2197 1726 0
2198 1726 1
2199 1726 0
2200 1726 0
2201 1726 0
2202 1726 0
2197 1727 0
2198 1727 0
2199 1727 1
2200 1727 0
2201 1727 0
2202 1727 0
2197 1728 0
2198 1728 0
2199 1728 0
2200 1728 1
2201 1728 0
2202 1728 0
2197 1729 0
2198 1729 0
2199 1729 0
2200 1729 0
2201 1729 1
2202 1729 0
2197 1730 0
2198 1730 0
2199 1730 0
2200 1730 0
2201 1730 0
2202 1730 1
1240 1731 1
979 1732 0
980 1732 0
981 1732 0
982 1732 0
983 1732 0
984 1732 0
1240 1732 0.023574741168151871
979 1733 -1
980 1733 0.045258900204798641
981 1733 -0
982 1733 -0.99668365524927938
983 1733 0.06775671470238516
984 1733 -0
1240 1733 0
979 1734 -0.045206927042819985
980 1734 -0.9999988768215905
981 1734 -0
982 1734 -0.067601049744234989
983 1734 -0.99668141436676572
984 1734 -0
1240 1734 0
979 1735 -0
980 1735 -0
981 1735 -1
982 1735 -0
983 1735 -0
984 1735 -0.99668365524927938
1240 1735 0
1239 1736 1
973 1737 0
974 1737 0
975 1737 0
976 1737 0
977 1737 0
978 1737 0
1239 1737 0.023574741168151871
973 1738 -1
974 1738 0.045258900204798641
975 1738 -0
976 1738 -0.99668365524927938
977 1738 0.06775671470238516
978 1738 -0
1239 1738 0
973 1739 -0.045206927042819985
974 1739 -0.9999988768215905
975 1739 -0
976 1739 -0.067601049744234989
977 1739 -0.99668141436676572
978 1739 -0
1239 1739 0
973 1740 -0
974 1740 -0
975 1740 -1
976 1740 -0
977 1740 -0
978 1740 -0.99668365524927938
1239 1740 0
2929 1741 1
2930 1741 0
2931 1741 0
2932 1741 0
2933 1741 0
2934 1741 0
2929 1742 0
2930 1742 1
2931 1742 0
2932 1742 0
2933 1742 0
2934 1742 0
2929 1743 0
2930 1743 0
2931 1743 1
2932 1743 0
2933 1743 0
2934 1743 0
2929 1744 0
2930 1744 0
2931 1744 0
2932 1744 1
2933 1744 0
2934 1744 0
2929 1745 0
2930 1745 0
2931 1745 0
2932 1745 0
2933 1745 1
2934 1745 0
2929 1746 0
2930 1746 0
2931 1746 0
2932 1746 0
2933 1746 0
2934 1746 1
1831 1747 1
1832 1747 0
1833 1747 0
1834 1747 0
1835 1747 0
1836 1747 0
1831 1748 0
1832 1748 1
1833 1748 0
1834 1748 0
1835 1748 0
1836 1748 0
1831 1749 0
1832 1749 0
1833 1749 1
1834 1749 0
1835 1749 0
1836 1749 0
1831 1750 0
1832 1750 0
1833 1750 0
1834 1750 1
1835 1750 0
1836 1750 0
1831 1751 0
1832 1751 0
1833 1751 0
1834 1751 0
1835 1751 1
1836 1751 0
1831 1752 0
1832 1752 0
1833 1752 0
1834 1752 0
1835 1752 0
1836 1752 1
388 1753 1
127 1754 0
128 1754 0
129 1754 0
130 1754 0
131 1754 0
132 1754 0
388 1754 0.023574741168151871
127 1755 -1
128 1755 0.045258900204798641
129 1755 -0
130 1755 -0.99668365524927938
131 1755 0.06775671470238516
132 1755 -0
388 1755 0
127 1756 -0.045206927042819985
128 1756 -0.9999988768215905
129 1756 -0
130 1756 -0.067601049744234989
131 1756 -0.99668141436676572
132 1756 -0
388 1756 0
127 1757 -0
128 1757 -0
129 1757 -1
130 1757 -0
131 1757 -0
132 1757 -0.99668365524927938
388 1757 0
387 1758 1
121 1759 0
122 1759 0
123 1759 0
124 1759 0
125 1759 0
126 1759 0
387 1759 0.023574741168151871
121 1760 -1
122 1760 0.045258900204798641
123 1760 -0
124 1760 -0.99668365524927938
125 1760 0.06775671470238516
126 1760 -0
387 1760 0
121 1761 -0.045206927042819985
122 1761 -0.9999988768215905
123 1761 -0
124 1761 -0.067601049744234989
125 1761 -0.99668141436676572
126 1761 -0
387 1761 0
121 1762 -0
122 1762 -0
123 1762 -1
124 1762 -0
125 1762 -0
126 1762 -0.99668365524927938
387 1762 0
2923 1763 1
2924 1763 0
2925 1763 0
2926 1763 0
2927 1763 0
2928 1763 0
2923 1764 0
2924 1764 1
2925 1764 0
2926 1764 0
2927 1764 0
2928 1764 0
2923 1765 0
2924 1765 0
2925 1765 1
2926 1765 0
2927 1765 0
2928 1765 0
2923 1766 0
2924 1766 0
2925 1766 0
2926 1766 1
2927 1766 0
2928 1766 0
2923 1767 0
2924 1767 0
2925 1767 0
2926 1767 0
2927 1767 1
2928 1767 0
2923 1768 0
2924 1768 0
2925 1768 0
2926 1768 0
2927 1768 0
2928 1768 1
2557 1769 1
2558 1769 0
2559 1769 0
2560 1769 0
2561 1769 0
2562 1769 0
2557 1770 0
2558 1770 1
2559 1770 0
2560 1770 0
2561 1770 0
2562 1770 0
2557 1771 0
2558 1771 0
2559 1771 1
2560 1771 0
2561 1771 0
2562 1771 0
2557 1772 0
2558 1772 0
2559 1772 0
2560 1772 1
2561 1772 0
2562 1772 0
2557 1773 0
2558 1773 0
2559 1773 0
2560 1773 0
2561 1773 1
2562 1773 0
2557 1774 0
2558 1774 0
2559 1774 0
2560 1774 0
2561 1774 0
2562 1774 1
1665 1775 1
1399 1776 0
1400 1776 0
1401 1776 0
1402 1776 0
1403 1776 0
1404 1776 0
1665 1776 0.023574741168151871
1399 1777 -1
1400 1777 0.045258900204798641
1401 1777 -0
1402 1777 -0.99668365524927938
1403 1777 0.06775671470238516
1404 1777 -0
1665 1777 0
1399 1778 -0.045206927042819985
1400 1778 -0.9999988768215905
1401 1778 -0
1402 1778 -0.067601049744234989
1403 1778 -0.99668141436676572
1404 1778 -0
1665 1778 0
1399 1779 -0
1400 1779 -0
1401 1779 -1
1402 1779 -0
1403 1779 -0
1404 1779 -0.99668365524927938
1665 1779 0
1664 1780 1
1393 1781 0
1394 1781 0
1395 1781 0
1396 1781 0
1397 1781 0
1398 1781 0
1664 1781 0.023574741168151871
1393 1782 -1
1394 1782 0.045258900204798641
1395 1782 -0
1396 1782 -0.99668365524927938
1397 1782 0.06775671470238516
1398 1782 -0
1664 1782 0
1393 1783 -0.045206927042819985
1394 1783 -0.9999988768215905
1395 1783 -0
1396 1783 -0.067601049744234989
1397 1783 -0.99668141436676572
1398 1783 -0
1664 1783 0
1393 1784 -0
1394 1784 -0
1395 1784 -1
1396 1784 -0
1397 1784 -0
1398 1784 -0.99668365524927938
1664 1784 0
2191 1785 1
2192 1785 0
2193 1785 0
2194 1785 0
2195 1785 0
2196 1785 0
2191 1786 0
2192 1786 1
2193 1786 0
2194 1786 0
2195 1786 0
2196 1786 0
2191 1787 0
2192 1787 0
2193 1787 1
2194 1787 0
2195 1787 0
2196 1787 0
2191 1788 0
2192 1788 0
2193 1788 0
2194 1788 1
2195 1788 0
2196 1788 0
2191 1789 0
2192 1789 0
2193 1789 0
2194 1789 0
2195 1789 1
2196 1789 0
2191 1790 0
2192 1790 0
2193 1790 0
2194 1790 0
2195 1790 0
2196 1790 1
1825 1791 1
1826 1791 0
1827 1791 0
1828 1791 0
1829 1791 0
1830 1791 0
1825 1792 0
1826 1792 1
1827 1792 0
1828 1792 0
1829 1792 0
1830 1792 0
1825 1793 0
1826 1793 0
1827 1793 1
1828 1793 0
1829 1793 0
1830 1793 0
1825 1794 0
1826 1794 0
1827 1794 0
1828 1794 1
1829 1794 0
1830 1794 0
1825 1795 0
1826 1795 0
1827 1795 0
1828 1795 0
1829 1795 1
1830 1795 0
1825 1796 0
1826 1796 0
1827 1796 0
1828 1796 0
1829 1796 0
1830 1796 1
813 1797 1
547 1798 0
548 1798 0
549 1798 0
550 1798 0
551 1798 0
552 1798 0
813 1798 0.023574741168151871
547 1799 -1
548 1799 0.045258900204798641
549 1799 -0
550 1799 -0.99668365524927938
551 1799 0.06775671470238516
552 1799 -0
813 1799 0
547 1800 -0.045206927042819985
548 1800 -0.9999988768215905
549 1800 -0
550 1800 -0.067601049744234989
551 1800 -0.99668141436676572
552 1800 -0
813 1800 0
547 1801 -0
548 1801 -0
549 1801 -1
550 1801 -0
551 1801 -0
552 1801 -0.99668365524927938
813 1801 0
812 1802 1
541 1803 0
542 1803 0
543 1803 0
544 1803 0
545 1803 0
546 1803 0
812 1803 0.023574741168151871
541 1804 -1
542 1804 0.045258900204798641
543 1804 -0
544 1804 -0.99668365524927938
545 1804 0.06775671470238516
546 1804 -0
812 1804 0
541 1805 -0.045206927042819985
542 1805 -0.9999988768215905
543 1805 -0
544 1805 -0.067601049744234989
545 1805 -0.99668141436676572
546 1805 -0
812 1805 0
541 1806 -0
542 1806 -0
543 1806 -1
544 1806 -0
545 1806 -0
546 1806 -0.99668365524927938
812 1806 0
2917 1807 1
2918 1807 0
2919 1807 0
2920 1807 0
2921 1807 0
2922 1807 0
2917 1808 0
2918 1808 1
2919 1808 0
2920 1808 0
2921 1808 0
2922 1808 0
2917 1809 0
2918 1809 0
2919 1809 1
2920 1809 0
2921 1809 0
2922 1809 0
2917 1810 0
2918 1810 0
2919 1810 0
2920 1810 1
2921 1810 0
2922 1810 0
2917 1811 0
2918 1811 0
2919 1811 0
2920 1811 0
2921 1811 1
2922 1811 0
2917 1812 0
2918 1812 0
2919 1812 0
2920 1812 0
2921 1812 0
2922 1812 1
1819 1813 1
1820 1813 0
1821 1813 0
1822 1813 0
1823 1813 0
1824 1813 0
1819 1814 0
1820 1814 1
1821 1814 0
1822 1814 0
1823 1814 0
1824 1814 0
1819 1815 0
1820 1815 0
1821 1815 1
1822 1815 0
1823 1815 0
1824 1815 0
1819 1816 0
1820 1816 0
1821 1816 0
1822 1816 1
1823 1816 0
1824 1816 0
1819 1817 0
1820 1817 0
1821 1817 0
1822 1817 0
1823 1817 1
1824 1817 0
1819 1818 0
1820 1818 0
1821 1818 0
1822 1818 0
1823 1818 0
1824 1818 1
386 1819 1
115 1820 0
116 1820 0
117 1820 0
118 1820 0
119 1820 0
120 1820 0
386 1820 0.023574741168151871
115 1821 -1
116 1821 0.045258900204798641
117 1821 -0
118 1821 -0.99668365524927938
119 1821 0.06775671470238516
120 1821 -0
386 1821 0
115 1822 -0.045206927042819985
116 1822 -0.9999988768215905
117 1822 -0
118 1822 -0.067601049744234989
119 1822 -0.99668141436676572
120 1822 -0
386 1822 0
115 1823 -0
116 1823 -0
117 1823 -1
118 1823 -0
119 1823 -0
120 1823 -0.99668365524927938
386 1823 0
385 1824 1
109 1825 0
110 1825 0
111 1825 0
112 1825 0
113 1825 0
114 1825 0
385 1825 0.023574741168151871
109 1826 -1
110 1826 0.045258900204798641
111 1826 -0
112 1826 -0.99668365524927938
113 1826 0.06775671470238516
114 1826 -0
385 1826 0
109 1827 -0.045206927042819985
110 1827 -0.9999988768215905
111 1827 -0
112 1827 -0.067601049744234989
113 1827 -0.99668141436676572
114 1827 -0
385 1827 0
109 1828 -0
110 1828 -0
111 1828 -1
112 1828 -0
113 1828 -0
114 1828 -0.99668365524927938
385 1828 0
2551 1829 1
2552 1829 0
2553 1829 0
2554 1829 0
2555 1829 0
2556 1829 0
2551 1830 0
2552 1830 1
2553 1830 0
2554 1830 0
2555 1830 0
2556 1830 0
2551 1831 0
2552 1831 0
2553 1831 1
2554 1831 0
2555 1831 0
2556 1831 0
2551 1832 0
2552 1832 0
2553 1832 0
2554 1832 1
2555 1832 0
2556 1832 0
2551 1833 0
2552 1833 0
2553 1833 0
2554 1833 0
2555 1833 1
2556 1833 0
2551 1834 0
2552 1834 0
2553 1834 0
2554 1834 0
2555 1834 0
2556 1834 1
2185 1835 1
2186 1835 0
2187 1835 0
2188 1835 0
2189 1835 0
2190 1835 0
2185 1836 0
2186 1836 1
2187 1836 0
2188 1836 0
2189 1836 0
2190 1836 0
2185 1837 0
2186 1837 0
2187 1837 1
2188 1837 0
2189 1837 0
2190 1837 0
2185 1838 0
2186 1838 0
2187 1838 0
2188 1838 1
2189 1838 0
2190 1838 0
2185 1839 0
2186 1839 0
2187 1839 0
2188 1839 0
2189 1839 1
2190 1839 0
2185 1840 0
2186 1840 0
2187 1840 0
2188 1840 0
2189 1840 0
2190 1840 1
1238 1841 1
967 1842 0
968 1842 0
969 1842 0
970 1842 0
971 1842 0
972 1842 0
1238 1842 0.023574741168151871
967 1843 -1
968 1843 0.045258900204798641
969 1843 -0
970 1843 -0.99668365524927938
971 1843 0.06775671470238516
972 1843 -0
1238 1843 0
967 1844 -0.045206927042819985
968 1844 -0.9999988768215905
969 1844 -0
970 1844 -0.067601049744234989
971 1844 -0.99668141436676572
972 1844 -0
1238 1844 0
967 1845 -0
968 1845 -0
969 1845 -1
970 1845 -0
971 1845 -0
972 1845 -0.99668365524927938
1238 1845 0
1237 1846 1
961 1847 0
962 1847 0
963 1847 0
964 1847 0
965 1847 0
966 1847 0
1237 1847 0.023574741168151871
961 1848 -1
962 1848 0.045258900204798641
963 1848 -0
964 1848 -0.99668365524927938
965 1848 0.06775671470238516
966 1848 -0
1237 1848 0
961 1849 -0.045206927042819985
962 1849 -0.9999988768215905
963 1849 -0
964 1849 -0.067601049744234989
965 1849 -0.99668141436676572
966 1849 -0
1237 1849 0
961 1850 -0
962 1850 -0
963 1850 -1
964 1850 -0
965 1850 -0
966 1850 -0.99668365524927938
1237 1850 0
2179 1851 1
2180 1851 0
2181 1851 0
2182 1851 0
2183 1851 0
2184 1851 0
2179 1852 0
2180 1852 1
2181 1852 0
2182 1852 0
2183 1852 0
2184 1852 0
2179 1853 0
2180 1853 0
2181 1853 1
2182 1853 0
2183 1853 0
2184 1853 0
2179 1854 0
2180 1854 0
2181 1854 0
2182 1854 1
2183 1854 0
2184 1854 0
2179 1855 0
2180 1855 0
2181 1855 0
2182 1855 0
2183 1855 1
2184 1855 0
2179 1856 0
2180 1856 0
2181 1856 0
2182 1856 0
2183 1856 0
2184 1856 1
1813 1857 1
1814 1857 0
1815 1857 0
1816 1857 0
1817 1857 0
1818 1857 0
1813 1858 0
1814 1858 1
1815 1858 0
1816 1858 0
1817 1858 0
1818 1858 0
1813 1859 0
1814 1859 0
1815 1859 1
1816 1859 0
1817 1859 0
1818 1859 0
1813 1860 0
1814 1860 0
1815 1860 0
1816 1860 1
1817 1860 0
1818 1860 0
1813 1861 0
1814 1861 0
1815 1861 0
1816 1861 0
1817 1861 1
1818 1861 0
1813 1862 0
1814 1862 0
1815 1862 0
1816 1862 0
1817 1862 0
1818 1862 1
811 1863 1
535 1864 0
536 1864 0
537 1864 0
538 1864 0
539 1864 0
540 1864 0
811 1864 0.023574741168151871
535 1865 -1
536 1865 0.045258900204798641
537 1865 -0
538 1865 -0.99668365524927938
539 1865 0.06775671470238516
540 1865 -0
811 1865 0
535 1866 -0.045206927042819985
536 1866 -0.9999988768215905
537 1866 -0
538 1866 -0.067601049744234989
539 1866 -0.99668141436676572
540 1866 -0
811 1866 0
535 1867 -0
536 1867 -0
537 1867 -1
538 1867 -0
539 1867 -0
540 1867 -0.99668365524927938
811 1867 0
810 1868 1
529 1869 0
530 1869 0
531 1869 0
532 1869 0
533 1869 0
534 1869 0
810 1869 0.023574741168151871
529 1870 -1
530 1870 0.045258900204798641
531 1870 -0
532 1870 -0.99668365524927938
533 1870 0.06775671470238516
534 1870 -0
810 1870 0
529 1871 -0.045206927042819985
530 1871 -0.9999988768215905
531 1871 -0
532 1871 -0.067601049744234989
533 1871 -0.99668141436676572
534 1871 -0
810 1871 0
529 1872 -0
530 1872 -0
531 1872 -1
532 1872 -0
533 1872 -0
534 1872 -0.99668365524927938
810 1872 0
2911 1873 1
2912 1873 0
2913 1873 0
2914 1873 0
2915 1873 0
2916 1873 0
2911 1874 0
2912 1874 1
2913 1874 0
2914 1874 0
2915 1874 0
2916 1874 0
2911 1875 0
2912 1875 0
2913 1875 1
2914 1875 0
2915 1875 0
2916 1875 0
2911 1876 0
2912 1876 0
2913 1876 0
2914 1876 1
2915 1876 0
2916 1876 0
2911 1877 0
2912 1877 0
2913 1877 0
2914 1877 0
2915 1877 1
2916 1877 0
2911 1878 0
2912 1878 0
2913 1878 0
2914 1878 0
2915 1878 0
2916 1878 1
2545 1879 1
2546 1879 0
2547 1879 0
2548 1879 0
2549 1879 0
2550 1879 0
2545 1880 0
2546 1880 1
2547 1880 0
2548 1880 0
2549 1880 0
2550 1880 0
2545 1881 0
2546 1881 0
2547 1881 1
2548 1881 0
2549 1881 0
2550 1881 0
2545 1882 0
2546 1882 0
2547 1882 0
2548 1882 1
2549 1882 0
2550 1882 0
2545 1883 0
2546 1883 0
2547 1883 0
2548 1883 0
2549 1883 1
2550 1883 0
2545 1884 0
2546 1884 0
2547 1884 0
2548 1884 0
2549 1884 0
2550 1884 1
1663 1885 1
1387 1886 0
1388 1886 0
1389 1886 0
1390 1886 0
1391 1886 0
1392 1886 0
1663 1886 0.023574741168151871
1387 1887 -1
1388 1887 0.045258900204798641
1389 1887 -0
1390 1887 -0.99668365524927938
1391 1887 0.06775671470238516
1392 1887 -0
1663 1887 0
1387 1888 -0.045206927042819985
1388 1888 -0.9999988768215905
1389 1888 -0
1390 1888 -0.067601049744234989
1391 1888 -0.99668141436676572
1392 1888 -0
1663 1888 0
1387 1889 -0
1388 1889 -0
1389 1889 -1
1390 1889 -0
1391 1889 -0
1392 1889 -0.99668365524927938
1663 1889 0
1662 1890 1
1381 1891 0
1382 1891 0
1383 1891 0
1384 1891 0
1385 1891 0
1386 1891 0
1662 1891 0.023574741168151871
1381 1892 -1
1382 1892 0.045258900204798641
1383 1892 -0
1384 1892 -0.99668365524927938
1385 1892 0.06775671470238516
1386 1892 -0
1662 1892 0
1381 1893 -0.045206927042819985
1382 1893 -0.9999988768215905
1383 1893 -0
1384 1893 -0.067601049744234989
1385 1893 -0.99668141436676572
1386 1893 -0
1662 1893 0
1381 1894 -0
1382 1894 -0
1383 1894 -1
1384 1894 -0
1385 1894 -0
1386 1894 -0.99668365524927938
1662 1894 0
2539 1895 1
2540 1895 0
2541 1895 0
2542 1895 0
2543 1895 0
2544 1895 0
2539 1896 0
2540 1896 1
2541 1896 0
2542 1896 0
2543 1896 0
2544 1896 0
2539 1897 0
2540 1897 0
2541 1897 1
2542 1897 0
2543 1897 0
2544 1897 0
2539 1898 0
2540 1898 0
2541 1898 0
2542 1898 1
2543 1898 0
2544 1898 0
2539 1899 0
2540 1899 0
2541 1899 0
2542 1899 0
2543 1899 1
2544 1899 0
2539 1900 0
2540 1900 0
2541 1900 0
2542 1900 0
2543 1900 0
2544 1900 1
2173 1901 1
2174 1901 0
2175 1901 0
2176 1901 0
2177 1901 0
2178 1901 0
2173 1902 0
2174 1902 1
2175 1902 0
2176 1902 0
2177 1902 0
2178 1902 0
2173 1903 0
2174 1903 0
2175 1903 1
2176 1903 0
2177 1903 0
2178 1903 0
2173 1904 0
2174 1904 0
2175 1904 0
2176 1904 1
2177 1904 0
2178 1904 0
2173 1905 0
2174 1905 0
2175 1905 0
2176 1905 0
2177 1905 1
2178 1905 0
2173 1906 0
2174 1906 0
2175 1906 0
2176 1906 0
2177 1906 0
2178 1906 1
1236 1907 1
955 1908 0
956 1908 0
957 1908 0
958 1908 0
959 1908 0
960 1908 0
1236 1908 0.023574741168151871
955 1909 -1
956 1909 0.045258900204798641
957 1909 -0
958 1909 -0.99668365524927938
959 1909 0.06775671470238516
960 1909 -0
1236 1909 0
955 1910 -0.045206927042819985
956 1910 -0.9999988768215905
957 1910 -0
958 1910 -0.067601049744234989
959 1910 -0.99668141436676572
960 1910 -0
1236 1910 0
955 1911 -0
956 1911 -0
957 1911 -1
958 1911 -0
959 1911 -0
960 1911 -0.99668365524927938
1236 1911 0
1235 1912 1
949 1913 0
950 1913 0
951 1913 0
952 1913 0
953 1913 0
954 1913 0
1235 1913 0.023574741168151871
949 1914 -1
950 1914 0.045258900204798641
951 1914 -0
952 1914 -0.99668365524927938
953 1914 0.06775671470238516
954 1914 -0
1235 1914 0
949 1915 -0.045206927042819985
950 1915 -0.9999988768215905
951 1915 -0
952 1915 -0.067601049744234989
953 1915 -0.99668141436676572
954 1915 -0
1235 1915 0
949 1916 -0
950 1916 -0
951 1916 -1
952 1916 -0
953 1916 -0
954 1916 -0.99668365524927938
1235 1916 0
2905 1917 1
2906 1917 0
2907 1917 0
2908 1917 0
2909 1917 0
2910 1917 0
2905 1918 0
2906 1918 1
2907 1918 0
2908 1918 0
2909 1918 0
2910 1918 0
2905 1919 0
2906 1919 0
2907 1919 1
2908 1919 0
2909 1919 0
2910 1919 0
2905 1920 0
2906 1920 0
2907 1920 0
2908 1920 1
2909 1920 0
2910 1920 0
2905 1921 0
2906 1921 0
2907 1921 0
2908 1921 0
2909 1921 1
2910 1921 0
2905 1922 0
2906 1922 0
2907 1922 0
2908 1922 0
2909 1922 0
2910 1922 1
1807 1923 1
1808 1923 0
1809 1923 0
1810 1923 0
1811 1923 0
1812 1923 0
1807 1924 0
1808 1924 1
1809 1924 0
1810 1924 0
1811 1924 0
1812 1924 0
1807 1925 0
1808 1925 0
1809 1925 1
1810 1925 0
1811 1925 0
1812 1925 0
1807 1926 0
1808 1926 0
1809 1926 0
1810 1926 1
1811 1926 0
1812 1926 0
1807 1927 0
1808 1927 0
1809 1927 0
1810 1927 0
1811 1927 1
1812 1927 0
1807 1928 0
1808 1928 0
1809 1928 0
1810 1928 0
1811 1928 0
1812 1928 1
384 1929 1
103 1930 0
104 1930 0
105 1930 0
106 1930 0
107 1930 0
108 1930 0
384 1930 0.023574741168151871
103 1931 -1
104 1931 0.045258900204798641
105 1931 -0
106 1931 -0.99668365524927938
107 1931 0.06775671470238516
108 1931 -0
384 1931 0
103 1932 -0.045206927042819985
104 1932 -0.9999988768215905
105 1932 -0
106 1932 -0.067601049744234989
107 1932 -0.99668141436676572
108 1932 -0
384 1932 0
103 1933 -0
104 1933 -0
105 1933 -1
106 1933 -0
107 1933 -0
108 1933 -0.99668365524927938
384 1933 0
383 1934 1
97 1935 0
98 1935 0
99 1935 0
100 1935 0
101 1935 0
102 1935 0
383 1935 0.023574741168151871
97 1936 -1
98 1936 0.045258900204798641
99 1936 -0
100 1936 -0.99668365524927938
101 1936 0.06775671470238516
102 1936 -0
383 1936 0
97 1937 -0.045206927042819985
98 1937 -0.9999988768215905
99 1937 -0
100 1937 -0.067601049744234989
101 1937 -0.99668141436676572
102 1937 -0
383 1937 0
97 1938 -0
98 1938 -0
99 1938 -1
100 1938 -0
101 1938 -0
102 1938 -0.99668365524927938
383 1938 0
2899 1939 1
2900 1939 0
2901 1939 0
2902 1939 0
2903 1939 0
2904 1939 0
2899 1940 0
2900 1940 1
2901 1940 0
2902 1940 0
2903 1940 0
2904 1940 0
2899 1941 0
2900 1941 0
2901 1941 1
2902 1941 0
2903 1941 0
2904 1941 0
2899 1942 0
2900 1942 0
2901 1942 0
2902 1942 1
2903 1942 0
2904 1942 0
2899 1943 0
2900 1943 0
2901 1943 0
2902 1943 0
2903 1943 1
2904 1943 0
2899 1944 0
2900 1944 0
2901 1944 0
2902 1944 0
2903 1944 0
2904 1944 1
2533 1945 1
2534 1945 0
2535 1945 0
2536 1945 0
2537 1945 0
2538 1945 0
2533 1946 0
2534 1946 1
2535 1946 0
2536 1946 0
2537 1946 0
2538 1946 0
2533 1947 0
2534 1947 0
2535 1947 1
2536 1947 0
2537 1947 0
2538 1947 0
2533 1948 0
2534 1948 0
2535 1948 0
2536 1948 1
2537 1948 0
2538 1948 0
2533 1949 0
2534 1949 0
2535 1949 0
2536 1949 0
2537 1949 1
2538 1949 0
2533 1950 0
2534 1950 0
2535 1950 0
2536 1950 0
2537 1950 0
2538 1950 1
1661 1951 1
1375 1952 0
1376 1952 0
1377 1952 0
1378 1952 0
1379 1952 0
1380 1952 0
1661 1952 0.023574741168151871
1375 1953 -1
1376 1953 0.045258900204798641
1377 1953 -0
1378 1953 -0.99668365524927938
1379 1953 0.06775671470238516
1380 1953 -0
1661 1953 0
1375 1954 -0.045206927042819985
1376 1954 -0.9999988768215905
1377 1954 -0
1378 1954 -0.067601049744234989
1379 1954 -0.99668141436676572
1380 1954 -0
1661 1954 0
1375 1955 -0
1376 1955 -0
1377 1955 -1
1378 1955 -0
1379 1955 -0
1380 1955 -0.99668365524927938
1661 1955 0
1660 1956 1
1369 1957 0
1370 1957 0
1371 1957 0
1372 1957 0
1373 1957 0
1374 1957 0
1660 1957 0.023574741168151871
1369 1958 -1
1370 1958 0.045258900204798641
1371 1958 -0
1372 1958 -0.99668365524927938
1373 1958 0.06775671470238516
1374 1958 -0
1660 1958 0
1369 1959 -0.045206927042819985
1370 1959 -0.9999988768215905
1371 1959 -0
1372 1959 -0.067601049744234989
1373 1959 -0.99668141436676572
1374 1959 -0
1660 1959 0
1369 1960 -0
1370 1960 -0
1371 1960 -1
1372 1960 -0
1373 1960 -0
1374 1960 -0.99668365524927938
1660 1960 0
2167 1961 1
2168 1961 0
2169 1961 0
2170 1961 0
2171 1961 0
2172 1961 0
2167 1962 0
2168 1962 1
2169 1962 0
2170 1962 0
2171 1962 0
2172 1962 0
2167 1963 0
2168 1963 0
2169 1963 1
2170 1963 0
2171 1963 0
2172 1963 0
2167 1964 0
2168 1964 0
2169 1964 0
2170 1964 1
2171 1964 0
2172 1964 0
2167 1965 0
2168 1965 0
2169 1965 0
2170 1965 0
2171 1965 1
2172 1965 0
2167 1966 0
2168 1966 0
2169 1966 0
2170 1966 0
2171 1966 0
2172 1966 1
1801 1967 1
1802 1967 0
1803 1967 0
1804 1967 0
1805 1967 0
1806 1967 0
1801 1968 0
1802 1968 1
1803 1968 0
1804 1968 0
1805 1968 0
1806 1968 0
1801 1969 0
1802 1969 0
1803 1969 1
1804 1969 0
1805 1969 0
1806 1969 0
1801 1970 0
1802 1970 0
1803 1970 0
1804 1970 1
1805 1970 0
1806 1970 0
1801 1971 0
1802 1971 0
1803 1971 0
1804 1971 0
1805 1971 1
1806 1971 0
1801 1972 0
1802 1972 0
1803 1972 0
1804 1972 0
1805 1972 0
1806 1972 1
809 1973 1
523 1974 0
524 1974 0
525 1974 0
526 1974 0
527 1974 0
528 1974 0
809 1974 0.023574741168151871
523 1975 -1
524 1975 0.045258900204798641
525 1975 -0
526 1975 -0.99668365524927938
527 1975 0.06775671470238516
528 1975 -0
809 1975 0
523 1976 -0.045206927042819985
524 1976 -0.9999988768215905
525 1976 -0
526 1976 -0.067601049744234989
527 1976 -0.99668141436676572
528 1976 -0
809 1976 0
523 1977 -0
524 1977 -0
525 1977 -1
526 1977 -0
527 1977 -0
528 1977 -0.99668365524927938
809 1977 0
808 1978 1
517 1979 0
518 1979 0
519 1979 0
520 1979 0
521 1979 0
522 1979 0
808 1979 0.023574741168151871
517 1980 -1
518 1980 0.045258900204798641
519 1980 -0
520 1980 -0.99668365524927938
521 1980 0.06775671470238516
522 1980 -0
808 1980 0
517 1981 -0.045206927042819985
518 1981 -0.9999988768215905
519 1981 -0
520 1981 -0.067601049744234989
521 1981 -0.99668141436676572
522 1981 -0
808 1981 0
517 1982 -0
518 1982 -0
519 1982 -1
520 1982 -0
521 1982 -0
522 1982 -0.99668365524927938
808 1982 0
2893 1983 1
2894 1983 0
2895 1983 0
2896 1983 0
2897 1983 0
2898 1983 0
2893 1984 0
2894 1984 1
2895 1984 0
2896 1984 0
2897 1984 0
2898 1984 0
2893 1985 0
2894 1985 0
2895 1985 1
2896 1985 0
2897 1985 0
2898 1985 0
2893 1986 0
2894 1986 0
2895 1986 0
2896 1986 1
2897 1986 0
2898 1986 0
2893 1987 0
2894 1987 0
2895 1987 0
2896 1987 0
2897 1987 1
2898 1987 0
2893 1988 0
2894 1988 0
2895 1988 0
2896 1988 0
2897 1988 0
2898 1988 1
1795 1989 1
1796 1989 0
1797 1989 0
1798 1989 0
1799 1989 0
1800 1989 0
1795 1990 0
1796 1990 1
1797 1990 0
1798 1990 0
1799 1990 0
1800 1990 0
1795 1991 0
1796 1991 0
1797 1991 1
1798 1991 0
1799 1991 0
1800 1991 0
1795 1992 0
1796 1992 0
1797 1992 0
1798 1992 1
1799 1992 0
1800 1992 0
1795 1993 0
1796 1993 0
1797 1993 0
1798 1993 0
1799 1993 1
1800 1993 0
1795 1994 0
1796 1994 0
1797 1994 0
1798 1994 0
1799 1994 0
1800 1994 1
382 1995 1
91 1996 0
92 1996 0
93 1996 0
94 1996 0
95 1996 0
96 1996 0
382 1996 0.023574741168151871
91 1997 -1
92 1997 0.045258900204798641
93 1997 -0
94 1997 -0.99668365524927938
95 1997 0.06775671470238516
96 1997 -0
382 1997 0
91 1998 -0.045206927042819985
92 1998 -0.9999988768215905
93 1998 -0
94 1998 -0.067601049744234989
95 1998 -0.99668141436676572
96 1998 -0
382 1998 0
91 1999 -0
92 1999 -0
93 1999 -1
94 1999 -0
95 1999 -0
96 1999 -0.99668365524927938
382 1999 0
381 2000 1
85 2001 0
86 2001 0
87 2001 0
88 2001 0
89 2001 0
90 2001 0
381 2001 0.023574741168151871
85 2002 -1
86 2002 0.045258900204798641
87 2002 -0
88 2002 -0.99668365524927938
89 2002 0.06775671470238516
90 2002 -0
381 2002 0
85 2003 -0.045206927042819985
86 2003 -0.9999988768215905
87 2003 -0
88 2003 -0.067601049744234989
89 2003 -0.99668141436676572
90 2003 -0
381 2003 0
85 2004 -0
86 2004 -0
87 2004 -1
88 2004 -0
89 2004 -0
90 2004 -0.99668365524927938
381 2004 0
2527 2005 1
2528 2005 0
2529 2005 0
2530 2005 0
2531 2005 0
2532 2005 0
2527 2006 0
2528 2006 1
2529 2006 0
2530 2006 0
2531 2006 0
2532 2006 0
2527 2007 0
2528 2007 0
2529 2007 1
2530 2007 0
2531 2007 0
2532 2007 0
2527 2008 0
2528 2008 0
2529 2008 0
2530 2008 1
2531 2008 0
2532 2008 0
2527 2009 0
2528 2009 0
2529 2009 0
2530 2009 0
2531 2009 1
2532 2009 0
2527 2010 0
2528 2010 0
2529 2010 0
2530 2010 0
2531 2010 0
2532 2010 1
2161 2011 1
2162 2011 0
2163 2011 0
2164 2011 0
2165 2011 0
2166 2011 0
2161 2012 0
2162 2012 1
2163 2012 0
2164 2012 0
2165 2012 0
2166 2012 0
2161 2013 0
2162 2013 0
2163 2013 1
2164 2013 0
2165 2013 0
2166 2013 0
2161 2014 0
2162 2014 0
2163 2014 0
2164 2014 1
2165 2014 0
2166 2014 0
2161 2015 0
2162 2015 0
2163 2015 0
2164 2015 0
2165 2015 1
2166 2015 0
2161 2016 0
2162 2016 0
2163 2016 0
2164 2016 0
2165 2016 0
2166 2016 1
1234 2017 1
943 2018 0
944 2018 0
945 2018 0
946 2018 0
947 2018 0
948 2018 0
1234 2018 0.023574741168151871
943 2019 -1
944 2019 0.045258900204798641
945 2019 -0
946 2019 -0.99668365524927938
947 2019 0.06775671470238516
948 2019 -0
1234 2019 0
943 2020 -0.045206927042819985
944 2020 -0.9999988768215905
945 2020 -0
946 2020 -0.067601049744234989
947 2020 -0.99668141436676572
948 2020 -0
1234 2020 0
943 2021 -0
944 2021 -0
945 2021 -1
946 2021 -0
947 2021 -0
948 2021 -0.99668365524927938
1234 2021 0
1233 2022 1
937 2023 0
938 2023 0
939 2023 0
940 2023 0
941 2023 0
942 2023 0
1233 2023 0.023574741168151871
937 2024 -1
938 2024 0.045258900204798641
939 2024 -0
940 2024 -0.99668365524927938
941 2024 0.06775671470238516
942 2024 -0
1233 2024 0
937 2025 -0.045206927042819985
938 2025 -0.9999988768215905
939 2025 -0
940 2025 -0.067601049744234989
941 2025 -0.99668141436676572
942 2025 -0
1233 2025 0
937 2026 -0
938 2026 -0
939 2026 -1
940 2026 -0
941 2026 -0
942 2026 -0.99668365524927938
1233 2026 0
2155 2027 1
2156 2027 0
2157 2027 0
2158 2027 0
2159 2027 0
2160 2027 0
2155 2028 0
2156 2028 1
2157 2028 0
2158 2028 0
2159 2028 0
2160 2028 0
2155 2029 0
2156 2029 0
2157 2029 1
2158 2029 0
2159 2029 0
2160 2029 0
2155 2030 0
2156 2030 0
2157 2030 0
2158 2030 1
2159 2030 0
2160 2030 0
2155 2031 0
2156 2031 0
2157 2031 0
2158 2031 0
2159 2031 1
2160 2031 0
2155 2032 0
2156 2032 0
2157 2032 0
2158 2032 0
2159 2032 0
2160 2032 1
1789 2033 1
1790 2033 0
1791 2033 0
1792 2033 0
1793 2033 0
1794 2033 0
1789 2034 0
1790 2034 1
1791 2034 0
1792 2034 0
1793 2034 0
1794 2034 0
1789 2035 0
1790 2035 0
1791 2035 1
1792 2035 0
1793 2035 0
1794 2035 0
1789 2036 0
1790 2036 0
1791 2036 0
1792 2036 1
1793 2036 0
1794 2036 0
1789 2037 0
1790 2037 0
1791 2037 0
1792 2037 0
1793 2037 1
1794 2037 0
1789 2038 0
1790 2038 0
1791 2038 0
1792 2038 0
1793 2038 0
1794 2038 1
807 2039 1
511 2040 0
512 2040 0
513 2040 0
514 2040 0
515 2040 0
516 2040 0
807 2040 0.023574741168151871
511 2041 -1
512 2041 0.045258900204798641
513 2041 -0
514 2041 -0.99668365524927938
515 2041 0.06775671470238516
516 2041 -0
807 2041 0
511 2042 -0.045206927042819985
512 2042 -0.9999988768215905
513 2042 -0
514 2042 -0.067601049744234989
515 2042 -0.99668141436676572
516 2042 -0
807 2042 0
511 2043 -0
512 2043 -0
513 2043 -1
514 2043 -0
515 2043 -0
516 2043 -0.99668365524927938
807 2043 0
806 2044 1
505 2045 0
506 2045 0
507 2045 0
508 2045 0
509 2045 0
510 2045 0
806 2045 0.023574741168151871
505 2046 -1
506 2046 0.045258900204798641
507 2046 -0
508 2046 -0.99668365524927938
509 2046 0.06775671470238516
510 2046 -0
806 2046 0
505 2047 -0.045206927042819985
506 2047 -0.9999988768215905
507 2047 -0
508 2047 -0.067601049744234989
509 2047 -0.99668141436676572
510 2047 -0
806 2047 0
505 2048 -0
506 2048 -0
507 2048 -1
508 2048 -0
509 2048 -0
510 2048 -0.99668365524927938
806 2048 0
2887 2049 1
2888 2049 0
2889 2049 0
2890 2049 0
2891 2049 0
2892 2049 0
2887 2050 0
2888 2050 1
2889 2050 0
2890 2050 0
2891 2050 0
2892 2050 0
2887 2051 0
2888 2051 0
2889 2051 1
2890 2051 0
2891 2051 0
2892 2051 0
2887 2052 0
2888 2052 0
2889 2052 0
2890 2052 1
2891 2052 0
2892 2052 0
2887 2053 0
2888 2053 0
2889 2053 0
2890 2053 0
2891 2053 1
2892 2053 0
2887 2054 0
2888 2054 0
2889 2054 0
2890 2054 0
2891 2054 0
2892 2054 1
2521 2055 1
2522 2055 0
2523 2055 0
2524 2055 0
2525 2055 0
2526 2055 0
2521 2056 0
2522 2056 1
2523 2056 0
2524 2056 0
2525 2056 0
2526 2056 0
2521 2057 0
2522 2057 0
2523 2057 1
2524 2057 0
2525 2057 0
2526 2057 0
2521 2058 0
2522 2058 0
2523 2058 0
2524 2058 1
2525 2058 0
2526 2058 0
2521 2059 0
2522 2059 0
2523 2059 0
2524 2059 0
2525 2059 1
2526 2059 0
2521 2060 0
2522 2060 0
2523 2060 0
2524 2060 0
2525 2060 0
2526 2060 1
1659 2061 1
1363 2062 0
1364 2062 0
1365 2062 0
1366 2062 0
1367 2062 0
1368 2062 0
1659 2062 0.023574741168151871
1363 2063 -1
1364 2063 0.045258900204798641
1365 2063 -0
1366 2063 -0.99668365524927938
1367 2063 0.06775671470238516
1368 2063 -0
1659 2063 0
1363 2064 -0.045206927042819985
1364 2064 -0.9999988768215905
1365 2064 -0
1366 2064 -0.067601049744234989
1367 2064 -0.99668141436676572
1368 2064 -0
1659 2064 0
1363 2065 -0
1364 2065 -0
1365 2065 -1
1366 2065 -0
1367 2065 -0
1368 2065 -0.99668365524927938
1659 2065 0
1658 2066 1
1357 2067 0
1358 2067 0
1359 2067 0
1360 2067 0
1361 2067 0
1362 2067 0
1658 2067 0.023574741168151871
1357 2068 -1
1358 2068 0.045258900204798641
1359 2068 -0
1360 2068 -0.99668365524927938
1361 2068 0.06775671470238516
1362 2068 -0
1658 2068 0
1357 2069 -0.045206927042819985
1358 2069 -0.9999988768215905
1359 2069 -0
1360 2069 -0.067601049744234989
1361 2069 -0.99668141436676572
1362 2069 -0
1658 2069 0
1357 2070 -0
1358 2070 -0
1359 2070 -1
1360 2070 -0
1361 2070 -0
1362 2070 -0.99668365524927938
1658 2070 0
2515 2071 1
2516 2071 0
2517 2071 0
2518 2071 0
2519 2071 0
2520 2071 0
2515 2072 0
2516 2072 1
2517 2072 0
2518 2072 0
2519 2072 0
2520 2072 0
2515 2073 0
2516 2073 0
2517 2073 1
2518 2073 0
2519 2073 0
2520 2073 0
2515 2074 0
2516 2074 0
2517 2074 0
2518 2074 1
2519 2074 0
2520 2074 0
2515 2075 0
2516 2075 0
2517 2075 0
2518 2075 0
2519 2075 1
2520 2075 0
2515 2076 0
2516 2076 0
2517 2076 0
2518 2076 0
2519 2076 0
2520 2076 1
2149 2077 1
2150 2077 0
2151 2077 0
2152 2077 0
2153 2077 0
2154 2077 0
2149 2078 0
2150 2078 1
2151 2078 0
2152 2078 0
2153 2078 0
2154 2078 0
2149 2079 0
2150 2079 0
2151 2079 1
2152 2079 0
2153 2079 0
2154 2079 0
2149 2080 0
2150 2080 0
2151 2080 0
2152 2080 1
2153 2080 0
2154 2080 0
2149 2081 0
2150 2081 0
2151 2081 0
2152 2081 0
2153 2081 1
2154 2081 0
2149 2082 0
2150 2082 0
2151 2082 0
2152 2082 0
2153 2082 0
2154 2082 1
1232 2083 1
931 2084 0
932 2084 0
933 2084 0
934 2084 0
935 2084 0
936 2084 0
1232 2084 0.023574741168151871
931 2085 -1
932 2085 0.045258900204798641
933 2085 -0
934 2085 -0.99668365524927938
935 2085 0.06775671470238516
936 2085 -0
1232 2085 0
931 2086 -0.045206927042819985
932 2086 -0.9999988768215905
933 2086 -0
934 2086 -0.067601049744234989
935 2086 -0.99668141436676572
936 2086 -0
1232 2086 0
931 2087 -0
932 2087 -0
933 2087 -1
934 2087 -0
935 2087 -0
936 2087 -0.99668365524927938
1232 2087 0
1231 2088 1
925 2089 0
926 2089 0
927 2089 0
928 2089 0
929 2089 0
930 2089 0
1231 2089 0.023574741168151871
925 2090 -1
926 2090 0.045258900204798641
927 2090 -0
928 2090 -0.99668365524927938
929 2090 0.06775671470238516
930 2090 -0
1231 2090 0
925 2091 -0.045206927042819985
926 2091 -0.9999988768215905
927 2091 -0
928 2091 -0.067601049744234989
929 2091 -0.99668141436676572
930 2091 -0
1231 2091 0
925 2092 -0
926 2092 -0
927 2092 -1
928 2092 -0
929 2092 -0
930 2092 -0.99668365524927938
1231 2092 0
2881 2093 1
2882 2093 0
2883 2093 0
2884 2093 0
2885 2093 0
2886 2093 0
2881 2094 0
2882 2094 1
2883 2094 0
2884 2094 0
2885 2094 0
2886 2094 0
2881 2095 0
2882 2095 0
2883 2095 1
2884 2095 0
2885 2095 0
2886 2095 0
2881 2096 0
2882 2096 0
2883 2096 0
2884 2096 1
2885 2096 0
2886 2096 0
2881 2097 0
2882 2097 0
2883 2097 0
2884 2097 0
2885 2097 1
2886 2097 0
2881 2098 0
2882 2098 0
2883 2098 0
2884 2098 0
2885 2098 0
2886 2098 1
1783 2099 1
1784 2099 0
1785 2099 0
1786 2099 0
1787 2099 0
1788 2099 0
1783 2100 0
1784 2100 1
1785 2100 0
1786 2100 0
1787 2100 0
1788 2100 0
1783 2101 0
1784 2101 0
1785 2101 1
1786 2101 0
1787 2101 0
1788 2101 0
1783 2102 0
1784 2102 0
1785 2102 0
1786 2102 1
1787 2102 0
1788 2102 0
1783 2103 0
1784 2103 0
1785 2103 0
1786 2103 0
1787 2103 1
1788 2103 0
1783 2104 0
1784 2104 0
1785 2104 0
1786 2104 0
1787 2104 0
1788 2104 1
380 2105 1
79 2106 0
80 2106 0
81 2106 0
82 2106 0
83 2106 0
84 2106 0
380 2106 0.023574741168151871
79 2107 -1
80 2107 0.045258900204798641
81 2107 -0
82 2107 -0.99668365524927938
83 2107 0.06775671470238516
84 2107 -0
380 2107 0
79 2108 -0.045206927042819985
80 2108 -0.9999988768215905
81 2108 -0
82 2108 -0.067601049744234989
83 2108 -0.99668141436676572
84 2108 -0
380 2108 0
79 2109 -0
80 2109 -0
81 2109 -1
82 2109 -0
83 2109 -0
84 2109 -0.99668365524927938
380 2109 0
379 2110 1
73 2111 0
74 2111 0
75 2111 0
76 2111 0
77 2111 0
78 2111 0
379 2111 0.023574741168151871
73 2112 -1
74 2112 0.045258900204798641
75 2112 -0
76 2112 -0.99668365524927938
77 2112 0.06775671470238516
78 2112 -0
379 2112 0
73 2113 -0.045206927042819985
74 2113 -0.9999988768215905
75 2113 -0
76 2113 -0.067601049744234989
77 2113 -0.99668141436676572
78 2113 -0
379 2113 0
73 2114 -0
74 2114 -0
75 2114 -1
76 2114 -0
77 2114 -0
78 2114 -0.99668365524927938
379 2114 0
2875 2115 1
2876 2115 0
2877 2115 0
2878 2115 0
2879 2115 0
2880 2115 0
2875 2116 0
2876 2116 1
2877 2116 0
2878 2116 0
2879 2116 0
2880 2116 0
2875 2117 0
2876 2117 0
2877 2117 1
2878 2117 0
2879 2117 0
2880 2117 0
2875 2118 0
2876 2118 0
2877 2118 0
2878 2118 1
2879 2118 0
2880 2118 0
2875 2119 0
2876 2119 0
2877 2119 0
2878 2119 0
2879 2119 1
2880 2119 0
2875 2120 0
2876 2120 0
2877 2120 0
2878 2120 0
2879 2120 0
2880 2120 1
2509 2121 1
2510 2121 0
2511 2121 0
2512 2121 0
2513 2121 0
2514 2121 0
2509 2122 0
2510 2122 1
2511 2122 0
2512 2122 0
2513 2122 0
2514 2122 0
2509 2123 0
2510 2123 0
2511 2123 1
2512 2123 0
2513 2123 0
2514 2123 0
2509 2124 0
2510 2124 0
2511 2124 0
2512 2124 1
2513 2124 0
2514 2124 0
2509 2125 0
2510 2125 0
2511 2125 0
2512 2125 0
2513 2125 1
2514 2125 0
2509 2126 0
2510 2126 0
2511 2126 0
2512 2126 0
2513 2126 0
2514 2126 1
1657 2127 1
1351 2128 0
1352 2128 0
1353 2128 0
1354 2128 0
1355 2128 0
1356 2128 0
1657 2128 0.023574741168151871
1351 2129 -1
1352 2129 0.045258900204798641
1353 2129 -0
1354 2129 -0.99668365524927938
1355 2129 0.06775671470238516
1356 2129 -0
1657 2129 0
1351 2130 -0.045206927042819985
1352 2130 -0.9999988768215905
1353 2130 -0
1354 2130 -0.067601049744234989
1355 2130 -0.99668141436676572
1356 2130 -0
1657 2130 0
1351 2131 -0
1352 2131 -0
1353 2131 -1
1354 2131 -0
1355 2131 -0
1356 2131 -0.99668365524927938
1657 2131 0
1656 2132 1
1345 2133 0
1346 2133 0
1347 2133 0
1348 2133 0
1349 2133 0
1350 2133 0
1656 2133 0.023574741168151871
1345 2134 -1
1346 2134 0.045258900204798641
1347 2134 -0
1348 2134 -0.99668365524927938
1349 2134 0.06775671470238516
1350 2134 -0
1656 2134 0
1345 2135 -0.045206927042819985
1346 2135 -0.9999988768215905
1347 2135 -0
1348 2135 -0.067601049744234989
1349 2135 -0.99668141436676572
1350 2135 -0
1656 2135 0
1345 2136 -0
1346 2136 -0
1347 2136 -1
1348 2136 -0
1349 2136 -0
1350 2136 -0.99668365524927938
1656 2136 0
2143 2137 1
2144 2137 0
2145 2137 0
2146 2137 0
2147 2137 0
2148 2137 0
2143 2138 0
2144 2138 1
2145 2138 0
2146 2138 0
2147 2138 0
2148 2138 0
2143 2139 0
2144 2139 0
2145 2139 1
2146 2139 0
2147 2139 0
2148 2139 0
2143 2140 0
2144 2140 0
2145 2140 0
2146 2140 1
2147 2140 0
2148 2140 0
2143 2141 0
2144 2141 0
2145 2141 0
2146 2141 0
2147 2141 1
2148 2141 0
2143 2142 0
2144 2142 0
2145 2142 0
2146 2142 0
2147 2142 0
2148 2142 1
1777 2143 1
1778 2143 0
1779 2143 0
1780 2143 0
1781 2143 0
1782 2143 0
1777 2144 0
1778 2144 1
1779 2144 0
1780 2144 0
1781 2144 0
1782 2144 0
1777 2145 0
1778 2145 0
1779 2145 1
1780 2145 0
1781 2145 0
1782 2145 0
1777 2146 0
1778 2146 0
1779 2146 0
1780 2146 1
1781 2146 0
1782 2146 0
1777 2147 0
1778 2147 0
1779 2147 0
1780 2147 0
1781 2147 1
1782 2147 0
1777 2148 0
1778 2148 0
1779 2148 0
1780 2148 0
1781 2148 0
1782 2148 1
805 2149 1
499 2150 0
500 2150 0
501 2150 0
502 2150 0
503 2150 0
504 2150 0
805 2150 0.023574741168151871
499 2151 -1
500 2151 0.045258900204798641
501 2151 -0
502 2151 -0.99668365524927938
503 2151 0.06775671470238516
504 2151 -0
805 2151 0
499 2152 -0.045206927042819985
500 2152 -0.9999988768215905
501 2152 -0
502 2152 -0.067601049744234989
503 2152 -0.99668141436676572
504 2152 -0
805 2152 0
499 2153 -0
500 2153 -0
501 2153 -1
502 2153 -0
503 2153 -0
504 2153 -0.99668365524927938
805 2153 0
804 2154 1
493 2155 0
494 2155 0
495 2155 0
496 2155 0
497 2155 0
498 2155 0
804 2155 0.023574741168151871
493 2156 -1
494 2156 0.045258900204798641
495 2156 -0
496 2156 -0.99668365524927938
497 2156 0.06775671470238516
498 2156 -0
804 2156 0
493 2157 -0.045206927042819985
494 2157 -0.9999988768215905
495 2157 -0
496 2157 -0.067601049744234989
497 2157 -0.99668141436676572
498 2157 -0
804 2157 0
493 2158 -0
494 2158 -0
495 2158 -1
496 2158 -0
497 2158 -0
498 2158 -0.99668365524927938
804 2158 0
2869 2159 1
2870 2159 0
2871 2159 0
2872 2159 0
2873 2159 0
2874 2159 0
2869 2160 0
2870 2160 1
2871 2160 0
2872 2160 0
2873 2160 0
2874 2160 0
2869 2161 0
2870 2161 0
2871 2161 1
2872 2161 0
2873 2161 0
2874 2161 0
2869 2162 0
2870 2162 0
2871 2162 0
2872 2162 1
2873 2162 0
2874 2162 0
2869 2163 0
2870 2163 0
2871 2163 0
2872 2163 0
2873 2163 1
2874 2163 0
2869 2164 0
2870 2164 0
2871 2164 0
2872 2164 0
2873 2164 0
2874 2164 1
1771 2165 1
1772 2165 0
1773 2165 0
1774 2165 0
1775 2165 0
1776 2165 0
1771 2166 0
1772 2166 1
1773 2166 0
1774 2166 0
1775 2166 0
1776 2166 0
1771 2167 0
1772 2167 0
1773 2167 1
1774 2167 0
1775 2167 0
1776 2167 0
1771 2168 0
1772 2168 0
1773 2168 0
1774 2168 1
1775 2168 0
1776 2168 0
1771 2169 0
1772 2169 0
1773 2169 0
1774 2169 0
1775 2169 1
1776 2169 0
1771 2170 0
1772 2170 0
1773 2170 0
1774 2170 0
1775 2170 0
1776 2170 1
378 2171 1
67 2172 0
68 2172 0
69 2172 0
70 2172 0
71 2172 0
72 2172 0
378 2172 0.023574741168151871
67 2173 -1
68 2173 0.045258900204798641
69 2173 -0
70 2173 -0.99668365524927938
71 2173 0.06775671470238516
72 2173 -0
378 2173 0
67 2174 -0.045206927042819985
68 2174 -0.9999988768215905
69 2174 -0
70 2174 -0.067601049744234989
71 2174 -0.99668141436676572
72 2174 -0
378 2174 0
67 2175 -0
68 2175 -0
69 2175 -1
70 2175 -0
71 2175 -0
72 2175 -0.99668365524927938
378 2175 0
377 2176 1
61 2177 0
62 2177 0
63 2177 0
64 2177 0
65 2177 0
66 2177 0
377 2177 0.023574741168151871
61 2178 -1
62 2178 0.045258900204798641
63 2178 -0
64 2178 -0.99668365524927938
65 2178 0.06775671470238516
66 2178 -0
377 2178 0
61 2179 -0.045206927042819985
62 2179 -0.9999988768215905
63 2179 -0
64 2179 -0.067601049744234989
65 2179 -0.99668141436676572
66 2179 -0
377 2179 0
61 2180 -0
62 2180 -0
63 2180 -1
64 2180 -0
65 2180 -0
66 2180 -0.99668365524927938
377 2180 0
2503 2181 1
2504 2181 0
2505 2181 0
2506 2181 0
2507 2181 0
2508 2181 0
2503 2182 0
2504 2182 1
2505 2182 0
2506 2182 0
2507 2182 0
2508 2182 0
2503 2183 0
2504 2183 0
2505 2183 1
2506 2183 0
2507 2183 0
2508 2183 0
2503 2184 0
2504 2184 0
2505 2184 0
2506 2184 1
2507 2184 0
2508 2184 0
2503 2185 0
2504 2185 0
2505 2185 0
2506 2185 0
2507 2185 1
2508 2185 0
2503 2186 0
2504 2186 0
2505 2186 0
2506 2186 0
2507 2186 0
2508 2186 1
2137 2187 1
2138 2187 0
2139 2187 0
2140 2187 0
2141 2187 0
2142 2187 0
2137 2188 0
2138 2188 1
2139 2188 0
2140 2188 0
2141 2188 0
2142 2188 0
2137 2189 0
2138 2189 0
2139 2189 1
2140 2189 0
2141 2189 0
2142 2189 0
2137 2190 0
2138 2190 0
2139 2190 0
2140 2190 1
2141 2190 0
2142 2190 0
2137 2191 0
2138 2191 0
2139 2191 0
2140 2191 0
2141 2191 1
2142 2191 0
2137 2192 0
2138 2192 0
2139 2192 0
2140 2192 0
2141 2192 0
2142 2192 1
1230 2193 1
919 2194 0
920 2194 0
921 2194 0
922 2194 0
923 2194 0
924 2194 0
1230 2194 0.023574741168151871
919 2195 -1
920 2195 0.045258900204798641
921 2195 -0
922 2195 -0.99668365524927938
923 2195 0.06775671470238516
924 2195 -0
1230 2195 0
919 2196 -0.045206927042819985
920 2196 -0.9999988768215905
921 2196 -0
922 2196 -0.067601049744234989
923 2196 -0.99668141436676572
924 2196 -0
1230 2196 0
919 2197 -0
920 2197 -0
921 2197 -1
922 2197 -0
923 2197 -0
924 2197 -0.99668365524927938
1230 2197 0
1229 2198 1
913 2199 0
914 2199 0
915 2199 0
916 2199 0
917 2199 0
918 2199 0
1229 2199 0.023574741168151871
913 2200 -1
914 2200 0.045258900204798641
915 2200 -0
916 2200 -0.99668365524927938
917 2200 0.06775671470238516
918 2200 -0
1229 2200 0
913 2201 -0.045206927042819985
914 2201 -0.9999988768215905
915 2201 -0
916 2201 -0.067601049744234989
917 2201 -0.99668141436676572
918 2201 -0
1229 2201 0
913 2202 -0
914 2202 -0
915 2202 -1
916 2202 -0
917 2202 -0
918 2202 -0.99668365524927938
1229 2202 0
2131 2203 1
2132 2203 0
2133 2203 0
2134 2203 0
2135 2203 0
2136 2203 0
2131 2204 0
2132 2204 1
2133 2204 0
2134 2204 0
2135 2204 0
2136 2204 0
2131 2205 0
2132 2205 0
2133 2205 1
2134 2205 0
2135 2205 0
2136 2205 0
2131 2206 0
2132 2206 0
2133 2206 0
2134 2206 1
2135 2206 0
2136 2206 0
2131 2207 0
2132 2207 0
2133 2207 0
2134 2207 0
2135 2207 1
2136 2207 0
2131 2208 0
2132 2208 0
2133 2208 0
2134 2208 0
2135 2208 0
2136 2208 1
1765 2209 1
1766 2209 0
1767 2209 0
1768 2209 0
1769 2209 0
1770 2209 0
1765 2210 0
1766 2210 1
1767 2210 0
1768 2210 0
1769 2210 0
1770 2210 0
1765 2211 0
1766 2211 0
1767 2211 1
1768 2211 0
1769 2211 0
1770 2211 0
1765 2212 0
1766 2212 0
1767 2212 0
1768 2212 1
1769 2212 0
1770 2212 0
1765 2213 0
1766 2213 0
1767 2213 0
1768 2213 0
1769 2213 1
1770 2213 0
1765 2214 0
1766 2214 0
1767 2214 0
1768 2214 0
1769 2214 0
1770 2214 1
803 2215 1
487 2216 0
488 2216 0
489 2216 0
490 2216 0
491 2216 0
492 2216 0
803 2216 0.023574741168151871
487 2217 -1
488 2217 0.045258900204798641
489 2217 -0
490 2217 -0.99668365524927938
491 2217 0.06775671470238516
492 2217 -0
803 2217 0
487 2218 -0.045206927042819985
488 2218 -0.9999988768215905
489 2218 -0
490 2218 -0.067601049744234989
491 2218 -0.99668141436676572
492 2218 -0
803 2218 0
487 2219 -0
488 2219 -0
489 2219 -1
490 2219 -0
491 2219 -0
492 2219 -0.99668365524927938
803 2219 0
802 2220 1
481 2221 0
482 2221 0
483 2221 0
484 2221 0
485 2221 0
486 2221 0
802 2221 0.023574741168151871
481 2222 -1
482 2222 0.045258900204798641
483 2222 -0
484 2222 -0.99668365524927938
485 2222 0.06775671470238516
486 2222 -0
802 2222 0
481 2223 -0.045206927042819985
482 2223 -0.9999988768215905
483 2223 -0
484 2223 -0.067601049744234989
485 2223 -0.99668141436676572
486 2223 -0
802 2223 0
481 2224 -0
482 2224 -0
483 2224 -1
484 2224 -0
485 2224 -0
486 2224 -0.99668365524927938
802 2224 0
2863 2225 1
2864 2225 0
2865 2225 0
2866 2225 0
2867 2225 0
2868 2225 0
2863 2226 0
2864 2226 1
2865 2226 0
2866 2226 0
2867 2226 0
2868 2226 0
2863 2227 0
2864 2227 0
2865 2227 1
2866 2227 0
2867 2227 0
2868 2227 0
2863 2228 0
2864 2228 0
2865 2228 0
2866 2228 1
2867 2228 0
2868 2228 0
2863 2229 0
2864 2229 0
2865 2229 0
2866 2229 0
2867 2229 1
2868 2229 0
2863 2230 0
2864 2230 0
2865 2230 0
2866 2230 0
2867 2230 0
2868 2230 1
2497 2231 1
2498 2231 0
2499 2231 0
2500 2231 0
2501 2231 0
2502 2231 0
2497 2232 0
2498 2232 1
2499 2232 0
2500 2232 0
2501 2232 0
2502 2232 0
2497 2233 0
2498 2233 0
2499 2233 1
2500 2233 0
2501 2233 0
2502 2233 0
2497 2234 0
2498 2234 0
2499 2234 0
2500 2234 1
2501 2234 0
2502 2234 0
2497 2235 0
2498 2235 0
2499 2235 0
2500 2235 0
2501 2235 1
2502 2235 0
2497 2236 0
2498 2236 0
2499 2236 0
2500 2236 0
2501 2236 0
2502 2236 1
1655 2237 1
1339 2238 0
1340 2238 0
1341 2238 0
1342 2238 0
1343 2238 0
1344 2238 0
1655 2238 0.023574741168151871
1339 2239 -1
1340 2239 0.045258900204798641
1341 2239 -0
1342 2239 -0.99668365524927938
1343 2239 0.06775671470238516
1344 2239 -0
1655 2239 0
1339 2240 -0.045206927042819985
1340 2240 -0.9999988768215905
1341 2240 -0
1342 2240 -0.067601049744234989
1343 2240 -0.99668141436676572
1344 2240 -0
1655 2240 0
1339 2241 -0
1340 2241 -0
1341 2241 -1
1342 2241 -0
1343 2241 -0
1344 2241 -0.99668365524927938
1655 2241 0
1654 2242 1
1333 2243 0
1334 2243 0
1335 2243 0
1336 2243 0
1337 2243 0
1338 2243 0
1654 2243 0.023574741168151871
1333 2244 -1
1334 2244 0.045258900204798641
1335 2244 -0
1336 2244 -0.99668365524927938
1337 2244 0.06775671470238516
1338 2244 -0
1654 2244 0
1333 2245 -0.045206927042819985
1334 2245 -0.9999988768215905
1335 2245 -0
1336 2245 -0.067601049744234989
1337 2245 -0.99668141436676572
1338 2245 -0
1654 2245 0
1333 2246 -0
1334 2246 -0
1335 2246 -1
1336 2246 -0
1337 2246 -0
1338 2246 -0.99668365524927938
1654 2246 0
2491 2247 1
2492 2247 0
2493 2247 0
2494 2247 0
2495 2247 0
2496 2247 0
2491 2248 0
2492 2248 1
2493 2248 0
2494 2248 0
2495 2248 0
2496 2248 0
2491 2249 0
2492 2249 0
2493 2249 1
2494 2249 0
2495 2249 0
2496 2249 0
2491 2250 0
2492 2250 0
2493 2250 0
2494 2250 1
2495 2250 0
2496 2250 0
2491 2251 0
2492 2251 0
2493 2251 0
2494 2251 0
2495 2251 1
2496 2251 0
2491 2252 0
2492 2252 0
2493 2252 0
2494 2252 0
2495 2252 0
2496 2252 1
2125 2253 1
2126 2253 0
2127 2253 0
2128 2253 0
2129 2253 0
2130 2253 0
2125 2254 0
2126 2254 1
2127 2254 0
2128 2254 0
2129 2254 0
2130 2254 0
2125 2255 0
2126 2255 0
2127 2255 1
2128 2255 0
2129 2255 0
2130 2255 0
2125 2256 0
2126 2256 0
2127 2256 0
2128 2256 1
2129 2256 0
2130 2256 0
2125 2257 0
2126 2257 0
2127 2257 0
2128 2257 0
2129 2257 1
2130 2257 0
2125 2258 0
2126 2258 0
2127 2258 0
2128 2258 0
2129 2258 0
2130 2258 1
1228 2259 1
907 2260 0
908 2260 0
909 2260 0
910 2260 0
911 2260 0
912 2260 0
1228 2260 0.023574741168151871
907 2261 -1
908 2261 0.045258900204798641
909 2261 -0
910 2261 -0.99668365524927938
911 2261 0.06775671470238516
912 2261 -0
1228 2261 0
907 2262 -0.045206927042819985
908 2262 -0.9999988768215905
909 2262 -0
910 2262 -0.067601049744234989
911 2262 -0.99668141436676572
912 2262 -0
1228 2262 0
907 2263 -0
908 2263 -0
909 2263 -1
910 2263 -0
911 2263 -0
912 2263 -0.99668365524927938
1228 2263 0
1227 2264 1
901 2265 0
902 2265 0
903 2265 0
904 2265 0
905 2265 0
906 2265 0
1227 2265 0.023574741168151871
901 2266 -1
902 2266 0.045258900204798641
903 2266 -0
904 2266 -0.99668365524927938
905 2266 0.06775671470238516
906 2266 -0
1227 2266 0
901 2267 -0.045206927042819985
902 2267 -0.9999988768215905
903 2267 -0
904 2267 -0.067601049744234989
905 2267 -0.99668141436676572
906 2267 -0
1227 2267 0
901 2268 -0
902 2268 -0
903 2268 -1
904 2268 -0
905 2268 -0
906 2268 -0.99668365524927938
1227 2268 0
2857 2269 1
2858 2269 0
2859 2269 0
2860 2269 0
2861 2269 0
2862 2269 0
2857 2270 0
2858 2270 1
2859 2270 0
2860 2270 0
2861 2270 0
2862 2270 0
2857 2271 0
2858 2271 0
2859 2271 1
2860 2271 0
2861 2271 0
2862 2271 0
2857 2272 0
2858 2272 0
2859 2272 0
2860 2272 1
2861 2272 0
2862 2272 0
2857 2273 0
2858 2273 0
2859 2273 0
2860 2273 0
2861 2273 1
2862 2273 0
2857 2274 0
2858 2274 0
2859 2274 0
2860 2274 0
2861 2274 0
2862 2274 1
1759 2275 1
1760 2275 0
1761 2275 0
1762 2275 0
1763 2275 0
1764 2275 0
1759 2276 0
1760 2276 1
1761 2276 0
1762 2276 0
1763 2276 0
1764 2276 0
1759 2277 0
1760 2277 0
1761 2277 1
1762 2277 0
1763 2277 0
1764 2277 0
1759 2278 0
1760 2278 0
1761 2278 0
1762 2278 1
1763 2278 0
1764 2278 0
1759 2279 0
1760 2279 0
1761 2279 0
1762 2279 0
1763 2279 1
1764 2279 0
1759 2280 0
1760 2280 0
1761 2280 0
1762 2280 0
1763 2280 0
1764 2280 1
376 2281 1
55 2282 0
56 2282 0
57 2282 0
58 2282 0
59 2282 0
60 2282 0
376 2282 0.023574741168151871
55 2283 -1
56 2283 0.045258900204798641
57 2283 -0
58 2283 -0.99668365524927938
59 2283 0.06775671470238516
60 2283 -0
376 2283 0
55 2284 -0.045206927042819985
56 2284 -0.9999988768215905
57 2284 -0
58 2284 -0.067601049744234989
59 2284 -0.99668141436676572
60 2284 -0
376 2284 0
55 2285 -0
56 2285 -0
57 2285 -1
58 2285 -0
59 2285 -0
60 2285 -0.99668365524927938
376 2285 0
375 2286 1
49 2287 0
50 2287 0
51 2287 0
52 2287 0
53 2287 0
54 2287 0
375 2287 0.023574741168151871
49 2288 -1
50 2288 0.045258900204798641
51 2288 -0
52 2288 -0.99668365524927938
53 2288 0.06775671470238516
54 2288 -0
375 2288 0
49 2289 -0.045206927042819985
50 2289 -0.9999988768215905
51 2289 -0
52 2289 -0.067601049744234989
53 2289 -0.99668141436676572
54 2289 -0
375 2289 0
49 2290 -0
50 2290 -0
51 2290 -1
52 2290 -0
53 2290 -0
54 2290 -0.99668365524927938
375 2290 0
2851 2291 1
2852 2291 0
2853 2291 0
2854 2291 0
2855 2291 0
2856 2291 0
2851 2292 0
2852 2292 1
2853 2292 0
2854 2292 0
2855 2292 0
2856 2292 0
2851 2293 0
2852 2293 0
2853 2293 1
2854 2293 0
2855 2293 0
2856 2293 0
2851 2294 0
2852 2294 0
2853 2294 0
2854 2294 1
2855 2294 0
2856 2294 0
2851 2295 0
2852 2295 0
2853 2295 0
2854 2295 0
2855 2295 1
2856 2295 0
2851 2296 0
2852 2296 0
2853 2296 0
2854 2296 0
2855 2296 0
2856 2296 1
2485 2297 1
2486 2297 0
2487 2297 0
2488 2297 0
2489 2297 0
2490 2297 0
2485 2298 0
2486 2298 1
2487 2298 0
2488 2298 0
2489 2298 0
2490 2298 0
2485 2299 0
2486 2299 0
2487 2299 1
2488 2299 0
2489 2299 0
2490 2299 0
2485 2300 0
2486 2300 0
2487 2300 0
2488 2300 1
2489 2300 0
2490 2300 0
2485 2301 0
2486 2301 0
2487 2301 0
2488 2301 0
2489 2301 1
2490 2301 0
2485 2302 0
2486 2302 0
2487 2302 0
2488 2302 0
2489 2302 0
2490 2302 1
1653 2303 1
1327 2304 0
1328 2304 0
1329 2304 0
1330 2304 0
1331 2304 0
1332 2304 0
1653 2304 0.023574741168151871
1327 2305 -1
1328 2305 0.045258900204798641
1329 2305 -0
1330 2305 -0.99668365524927938
1331 2305 0.06775671470238516
1332 2305 -0
1653 2305 0
1327 2306 -0.045206927042819985
1328 2306 -0.9999988768215905
1329 2306 -0
1330 2306 -0.067601049744234989
1331 2306 -0.99668141436676572
1332 2306 -0
1653 2306 0
1327 2307 -0
1328 2307 -0
1329 2307 -1
1330 2307 -0
1331 2307 -0
1332 2307 -0.99668365524927938
1653 2307 0
1652 2308 1
1321 2309 0
1322 2309 0
1323 2309 0
1324 2309 0
1325 2309 0
1326 2309 0
1652 2309 0.023574741168151871
1321 2310 -1
1322 2310 0.045258900204798641
1323 2310 -0
1324 2310 -0.99668365524927938
1325 2310 0.06775671470238516
1326 2310 -0
1652 2310 0
1321 2311 -0.045206927042819985
1322 2311 -0.9999988768215905
1323 2311 -0
1324 2311 -0.067601049744234989
1325 2311 -0.99668141436676572
1326 2311 -0
1652 2311 0
1321 2312 -0
1322 2312 -0
1323 2312 -1
1324 2312 -0
1325 2312 -0
1326 2312 -0.99668365524927938
1652 2312 0
2119 2313 1
2120 2313 0
2121 2313 0
2122 2313 0
2123 2313 0
2124 2313 0
2119 2314 0
2120 2314 1
2121 2314 0
2122 2314 0
2123 2314 0
2124 2314 0
2119 2315 0
2120 2315 0
2121 2315 1
2122 2315 0
2123 2315 0
2124 2315 0
2119 2316 0
2120 2316 0
2121 2316 0
2122 2316 1
2123 2316 0
2124 2316 0
2119 2317 0
2120 2317 0
2121 2317 0
2122 2317 0
2123 2317 1
2124 2317 0
2119 2318 0
2120 2318 0
2121 2318 0
2122 2318 0
2123 2318 0
2124 2318 1
1753 2319 1
1754 2319 0
1755 2319 0
1756 2319 0
1757 2319 0
1758 2319 0
1753 2320 0
1754 2320 1
1755 2320 0
1756 2320 0
1757 2320 0
1758 2320 0
1753 2321 0
1754 2321 0
1755 2321 1
1756 2321 0
1757 2321 0
1758 2321 0
1753 2322 0
1754 2322 0
1755 2322 0
1756 2322 1
1757 2322 0
1758 2322 0
1753 2323 0
1754 2323 0
1755 2323 0
1756 2323 0
1757 2323 1
1758 2323 0
1753 2324 0
1754 2324 0
1755 2324 0
1756 2324 0
1757 2324 0
1758 2324 1
801 2325 1
475 2326 0
476 2326 0
477 2326 0
478 2326 0
479 2326 0
480 2326 0
801 2326 0.023574741168151871
475 2327 -1
476 2327 0.045258900204798641
477 2327 -0
478 2327 -0.99668365524927938
479 2327 0.06775671470238516
480 2327 -0
801 2327 0
475 2328 -0.045206927042819985
476 2328 -0.9999988768215905
477 2328 -0
478 2328 -0.067601049744234989
479 2328 -0.99668141436676572
480 2328 -0
801 2328 0
475 2329 -0
476 2329 -0
477 2329 -1
478 2329 -0
479 2329 -0
480 2329 -0.99668365524927938
801 2329 0
800 2330 1
469 2331 0
470 2331 0
471 2331 0
472 2331 0
473 2331 0
474 2331 0
800 2331 0.023574741168151871
469 2332 -1
470 2332 0.045258900204798641
471 2332 -0
472 2332 -0.99668365524927938
473 2332 0.06775671470238516
474 2332 -0
800 2332 0
469 2333 -0.045206927042819985
470 2333 -0.9999988768215905
471 2333 -0
472 2333 -0.067601049744234989
473 2333 -0.99668141436676572
474 2333 -0
800 2333 0
469 2334 -0
470 2334 -0
471 2334 -1
472 2334 -0
473 2334 -0
474 2334 -0.99668365524927938
800 2334 0
2845 2335 1
2846 2335 0
2847 2335 0
2848 2335 0
2849 2335 0
2850 2335 0
2845 2336 0
2846 2336 1
2847 2336 0
2848 2336 0
2849 2336 0
2850 2336 0
2845 2337 0
2846 2337 0
2847 2337 1
2848 2337 0
2849 2337 0
2850 2337 0
2845 2338 0
2846 2338 0
2847 2338 0
2848 2338 1
2849 2338 0
2850 2338 0
2845 2339 0
2846 2339 0
2847 2339 0
2848 2339 0
2849 2339 1
2850 2339 0
2845 2340 0
2846 2340 0
2847 2340 0
2848 2340 0
2849 2340 0
2850 2340 1
1747 2341 1
1748 2341 0
1749 2341 0
1750 2341 0
1751 2341 0
1752 2341 0
1747 2342 0
1748 2342 1
1749 2342 0
1750 2342 0
1751 2342 0
1752 2342 0
1747 2343 0
1748 2343 0
1749 2343 1
1750 2343 0
1751 2343 0
1752 2343 0
1747 2344 0
1748 2344 0
1749 2344 0
1750 2344 1
1751 2344 0
1752 2344 0
1747 2345 0
1748 2345 0
1749 2345 0
1750 2345 0
1751 2345 1
1752 2345 0
1747 2346 0
1748 2346 0
1749 2346 0
1750 2346 0
1751 2346 0
1752 2346 1
374 2347 1
43 2348 0
44 2348 0
45 2348 0
46 2348 0
47 2348 0
48 2348 0
374 2348 0.023574741168151871
43 2349 -1
44 2349 0.045258900204798641
45 2349 -0
46 2349 -0.99668365524927938
47 2349 0.06775671470238516
48 2349 -0
374 2349 0
43 2350 -0.045206927042819985
44 2350 -0.9999988768215905
45 2350 -0
46 2350 -0.067601049744234989
47 2350 -0.99668141436676572
48 2350 -0
374 2350 0
43 2351 -0
44 2351 -0
45 2351 -1
46 2351 -0
47 2351 -0
48 2351 -0.99668365524927938
374 2351 0
373 2352 1
37 2353 0
38 2353 0
39 2353 0
40 2353 0
41 2353 0
42 2353 0
373 2353 0.023574741168151871
37 2354 -1
38 2354 0.045258900204798641
39 2354 -0
40 2354 -0.99668365524927938
41 2354 0.06775671470238516
42 2354 -0
373 2354 0
37 2355 -0.045206927042819985
38 2355 -0.9999988768215905
39 2355 -0
40 2355 -0.067601049744234989
41 2355 -0.99668141436676572
42 2355 -0
373 2355 0
37 2356 -0
38 2356 -0
39 2356 -1
40 2356 -0
41 2356 -0
42 2356 -0.99668365524927938
373 2356 0
2479 2357 1
2480 2357 0
2481 2357 0
2482 2357 0
2483 2357 0
2484 2357 0
2479 2358 0
2480 2358 1
2481 2358 0
2482 2358 0
2483 2358 0
2484 2358 0
2479 2359 0
2480 2359 0
2481 2359 1
2482 2359 0
2483 2359 0
2484 2359 0
2479 2360 0
2480 2360 0
2481 2360 0
2482 2360 1
2483 2360 0
2484 2360 0
2479 2361 0
2480 2361 0
2481 2361 0
2482 2361 0
2483 2361 1
2484 2361 0
2479 2362 0
2480 2362 0
2481 2362 0
2482 2362 0
2483 2362 0
2484 2362 1
2113 2363 1
2114 2363 0
2115 2363 0
2116 2363 0
2117 2363 0
2118 2363 0
2113 2364 0
2114 2364 1
2115 2364 0
2116 2364 0
2117 2364 0
2118 2364 0
2113 2365 0
2114 2365 0
2115 2365 1
2116 2365 0
2117 2365 0
2118 2365 0
2113 2366 0
2114 2366 0
2115 2366 0
2116 2366 1
2117 2366 0
2118 2366 0
2113 2367 0
2114 2367 0
2115 2367 0
2116 2367 0
2117 2367 1
2118 2367 0
2113 2368 0
2114 2368 0
2115 2368 0
2116 2368 0
2117 2368 0
2118 2368 1
1226 2369 1
895 2370 0
896 2370 0
897 2370 0
898 2370 0
899 2370 0
900 2370 0
1226 2370 0.023574741168151871
895 2371 -1
896 2371 0.045258900204798641
897 2371 -0
898 2371 -0.99668365524927938
899 2371 0.06775671470238516
900 2371 -0
1226 2371 0
895 2372 -0.045206927042819985
896 2372 -0.9999988768215905
897 2372 -0
898 2372 -0.067601049744234989
899 2372 -0.99668141436676572
900 2372 -0
1226 2372 0
895 2373 -0
896 2373 -0
897 2373 -1
898 2373 -0
899 2373 -0
900 2373 -0.99668365524927938
1226 2373 0
1225 2374 1
889 2375 0
890 2375 0
891 2375 0
892 2375 0
893 2375 0
894 2375 0
1225 2375 0.023574741168151871
889 2376 -1
890 2376 0.045258900204798641
891 2376 -0
892 2376 -0.99668365524927938
893 2376 0.06775671470238516
894 2376 -0
1225 2376 0
889 2377 -0.045206927042819985
890 2377 -0.9999988768215905
891 2377 -0
892 2377 -0.067601049744234989
893 2377 -0.99668141436676572
894 2377 -0
1225 2377 0
889 2378 -0
890 2378 -0
891 2378 -1
892 2378 -0
893 2378 -0
894 2378 -0.99668365524927938
1225 2378 0
2107 2379 1
2108 2379 0
2109 2379 0
2110 2379 0
2111 2379 0
2112 2379 0
2107 2380 0
2108 2380 1
2109 2380 0
2110 2380 0
2111 2380 0
2112 2380 0
2107 2381 0
2108 2381 0
2109 2381 1
2110 2381 0
2111 2381 0
2112 2381 0
2107 2382 0
2108 2382 0
2109 2382 0
2110 2382 1
2111 2382 0
2112 2382 0
2107 2383 0
2108 2383 0
2109 2383 0
2110 2383 0
2111 2383 1
2112 2383 0
2107 2384 0
2108 2384 0
2109 2384 0
2110 2384 0
2111 2384 0
2112 2384 1
1741 2385 1
1742 2385 0
1743 2385 0
1744 2385 0
1745 2385 0
1746 2385 0
1741 2386 0
1742 2386 1
1743 2386 0
1744 2386 0
1745 2386 0
1746 2386 0
1741 2387 0
1742 2387 0
1743 2387 1
1744 2387 0
1745 2387 0
1746 2387 0
1741 2388 0
1742 2388 0
1743 2388 0
1744 2388 1
1745 2388 0
1746 2388 0
1741 2389 0
1742 2389 0
1743 2389 0
1744 2389 0
1745 2389 1
1746 2389 0
1741 2390 0
1742 2390 0
1743 2390 0
1744 2390 0
1745 2390 0
1746 2390 1
799 2391 1
463 2392 0
464 2392 0
465 2392 0
466 2392 0
467 2392 0
468 2392 0
799 2392 0.023574741168151871
463 2393 -1
464 2393 0.045258900204798641
465 2393 -0
466 2393 -0.99668365524927938
467 2393 0.06775671470238516
468 2393 -0
799 2393 0
463 2394 -0.045206927042819985
464 2394 -0.9999988768215905
465 2394 -0
466 2394 -0.067601049744234989
467 2394 -0.99668141436676572
468 2394 -0
799 2394 0
463 2395 -0
464 2395 -0
465 2395 -1
466 2395 -0
467 2395 -0
468 2395 -0.99668365524927938
799 2395 0
798 2396 1
457 2397 0
458 2397 0
459 2397 0
460 2397 0
461 2397 0
462 2397 0
798 2397 0.023574741168151871
457 2398 -1
458 2398 0.045258900204798641
459 2398 -0
460 2398 -0.99668365524927938
461 2398 0.06775671470238516
462 2398 -0
798 2398 0
457 2399 -0.045206927042819985
458 2399 -0.9999988768215905
459 2399 -0
460 2399 -0.067601049744234989
461 2399 -0.99668141436676572
462 2399 -0
798 2399 0
457 2400 -0
458 2400 -0
459 2400 -1
460 2400 -0
461 2400 -0
462 2400 -0.99668365524927938
798 2400 0
2839 2401 1
2840 2401 0
2841 2401 0
2842 2401 0
2843 2401 0
2844 2401 0
2839 2402 0
2840 2402 1
2841 2402 0
2842 2402 0
2843 2402 0
2844 2402 0
2839 2403 0
2840 2403 0
2841 2403 1
2842 2403 0
2843 2403 0
2844 2403 0
2839 2404 0
2840 2404 0
2841 2404 0
2842 2404 1
2843 2404 0
2844 2404 0
2839 2405 0
2840 2405 0
2841 2405 0
2842 2405 0
2843 2405 1
2844 2405 0
2839 2406 0
2840 2406 0
2841 2406 0
2842 2406 0
2843 2406 0
2844 2406 1
2473 2407 1
2474 2407 0
2475 2407 0
2476 2407 0
2477 2407 0
2478 2407 0
2473 2408 0
2474 2408 1
2475 2408 0
2476 2408 0
2477 2408 0
2478 2408 0
2473 2409 0
2474 2409 0
2475 2409 1
2476 2409 0
2477 2409 0
2478 2409 0
2473 2410 0
2474 2410 0
2475 2410 0
2476 2410 1
2477 2410 0
2478 2410 0
2473 2411 0
2474 2411 0
2475 2411 0
2476 2411 0
2477 2411 1
2478 2411 0
2473 2412 0
2474 2412 0
2475 2412 0
2476 2412 0
2477 2412 0
2478 2412 1
1651 2413 1
1315 2414 0
1316 2414 0
1317 2414 0
1318 2414 0
1319 2414 0
1320 2414 0
1651 2414 0.023574741168151871
1315 2415 -1
1316 2415 0.045258900204798641
1317 2415 -0
1318 2415 -0.99668365524927938
1319 2415 0.06775671470238516
1320 2415 -0
1651 2415 0
1315 2416 -0.045206927042819985
1316 2416 -0.9999988768215905
1317 2416 -0
1318 2416 -0.067601049744234989
1319 2416 -0.99668141436676572
1320 2416 -0
1651 2416 0
1315 2417 -0
1316 2417 -0
1317 2417 -1
1318 2417 -0
1319 2417 -0
1320 2417 -0.99668365524927938
1651 2417 0
1650 2418 1
1309 2419 0
1310 2419 0
1311 2419 0
1312 2419 0
1313 2419 0
1314 2419 0
1650 2419 0.023574741168151871
1309 2420 -1
1310 2420 0.045258900204798641
1311 2420 -0
1312 2420 -0.99668365524927938
1313 2420 0.06775671470238516
1314 2420 -0
1650 2420 0
1309 2421 -0.045206927042819985
1310 2421 -0.9999988768215905
1311 2421 -0
1312 2421 -0.067601049744234989
1313 2421 -0.99668141436676572
1314 2421 -0
1650 2421 0
1309 2422 -0
1310 2422 -0
1311 2422 -1
1312 2422 -0
1313 2422 -0
1314 2422 -0.99668365524927938
1650 2422 0
2467 2423 1
2468 2423 0
2469 2423 0
2470 2423 0
2471 2423 0
2472 2423 0
2467 2424 0
2468 2424 1
2469 2424 0
2470 2424 0
2471 2424 0
2472 2424 0
2467 2425 0
2468 2425 0
2469 2425 1
2470 2425 0
2471 2425 0
2472 2425 0
2467 2426 0
2468 2426 0
2469 2426 0
2470 2426 1
2471 2426 0
2472 2426 0
2467 2427 0
2468 2427 0
2469 2427 0
2470 2427 0
2471 2427 1
2472 2427 0
2467 2428 0
2468 2428 0
2469 2428 0
2470 2428 0
2471 2428 0
2472 2428 1
2101 2429 1
2102 2429 0
2103 2429 0
2104 2429 0
2105 2429 0
2106 2429 0
2101 2430 0
2102 2430 1
2103 2430 0
2104 2430 0
2105 2430 0
2106 2430 0
2101 2431 0
2102 2431 0
2103 2431 1
2104 2431 0
2105 2431 0
2106 2431 0
2101 2432 0
2102 2432 0
2103 2432 0
2104 2432 1
2105 2432 0
2106 2432 0
2101 2433 0
2102 2433 0
2103 2433 0
2104 2433 0
2105 2433 1
2106 2433 0
2101 2434 0
2102 2434 0
2103 2434 0
2104 2434 0
2105 2434 0
2106 2434 1
1224 2435 1
883 2436 0
884 2436 0
885 2436 0
886 2436 0
887 2436 0
888 2436 0
1224 2436 0.023574741168151871
883 2437 -1
884 2437 0.045258900204798641
885 2437 -0
886 2437 -0.99668365524927938
887 2437 0.06775671470238516
888 2437 -0
1224 2437 0
883 2438 -0.045206927042819985
884 2438 -0.9999988768215905
885 2438 -0
886 2438 -0.067601049744234989
887 2438 -0.99668141436676572
888 2438 -0
1224 2438 0
883 2439 -0
884 2439 -0
885 2439 -1
886 2439 -0
887 2439 -0
888 2439 -0.99668365524927938
1224 2439 0
1223 2440 1
877 2441 0
878 2441 0
879 2441 0
880 2441 0
881 2441 0
882 2441 0
1223 2441 0.023574741168151871
877 2442 -1
878 2442 0.045258900204798641
879 2442 -0
880 2442 -0.99668365524927938
881 2442 0.06775671470238516
882 2442 -0
1223 2442 0
877 2443 -0.045206927042819985
878 2443 -0.9999988768215905
879 2443 -0
880 2443 -0.067601049744234989
881 2443 -0.99668141436676572
882 2443 -0
1223 2443 0
877 2444 -0
878 2444 -0
879 2444 -1
880 2444 -0
881 2444 -0
882 2444 -0.99668365524927938
1223 2444 0
2833 2445 1
2834 2445 0
2835 2445 0
2836 2445 0
2837 2445 0
2838 2445 0
2833 2446 0
2834 2446 1
2835 2446 0
2836 2446 0
2837 2446 0
2838 2446 0
2833 2447 0
2834 2447 0
2835 2447 1
2836 2447 0
2837 2447 0
2838 2447 0
2833 2448 0
2834 2448 0
2835 2448 0
2836 2448 1
2837 2448 0
2838 2448 0
2833 2449 0
2834 2449 0
2835 2449 0
2836 2449 0
2837 2449 1
2838 2449 0
2833 2450 0
2834 2450 0
2835 2450 0
2836 2450 0
2837 2450 0
2838 2450 1
1735 2451 1
1736 2451 0
1737 2451 0
1738 2451 0
1739 2451 0
1740 2451 0
1735 2452 0
1736 2452 1
1737 2452 0
1738 2452 0
1739 2452 0
1740 2452 0
1735 2453 0
1736 2453 0
1737 2453 1
1738 2453 0
1739 2453 0
1740 2453 0
1735 2454 0
1736 2454 0
1737 2454 0
1738 2454 1
1739 2454 0
1740 2454 0
1735 2455 0
1736 2455 0
1737 2455 0
1738 2455 0
1739 2455 1
1740 2455 0
1735 2456 0
1736 2456 0
1737 2456 0
1738 2456 0
1739 2456 0
1740 2456 1
372 2457 1
31 2458 0
32 2458 0
33 2458 0
34 2458 0
35 2458 0
36 2458 0
372 2458 0.023574741168151871
31 2459 -1
32 2459 0.045258900204798641
33 2459 -0
34 2459 -0.99668365524927938
35 2459 0.06775671470238516
36 2459 -0
372 2459 0
31 2460 -0.045206927042819985
32 2460 -0.9999988768215905
33 2460 -0
34 2460 -0.067601049744234989
35 2460 -0.99668141436676572
36 2460 -0
372 2460 0
31 2461 -0
32 2461 -0
33 2461 -1
34 2461 -0
35 2461 -0
36 2461 -0.99668365524927938
372 2461 0
371 2462 1
25 2463 0
26 2463 0
27 2463 0
28 2463 0
29 2463 0
30 2463 0
371 2463 0.023574741168151871
25 2464 -1
26 2464 0.045258900204798641
27 2464 -0
28 2464 -0.99668365524927938
29 2464 0.06775671470238516
30 2464 -0
371 2464 0
25 2465 -0.045206927042819985
26 2465 -0.9999988768215905
27 2465 -0
28 2465 -0.067601049744234989
29 2465 -0.99668141436676572
30 2465 -0
371 2465 0
25 2466 -0
26 2466 -0
27 2466 -1
28 2466 -0
29 2466 -0
30 2466 -0.99668365524927938
371 2466 0
2827 2467 1
2828 2467 0
2829 2467 0
2830 2467 0
2831 2467 0
2832 2467 0
2827 2468 0
2828 2468 1
2829 2468 0
2830 2468 0
2831 2468 0
2832 2468 0
2827 2469 0
2828 2469 0
2829 2469 1
2830 2469 0
2831 2469 0
2832 2469 0
2827 2470 0
2828 2470 0
2829 2470 0
2830 2470 1
2831 2470 0
2832 2470 0
2827 2471 0
2828 2471 0
2829 2471 0
2830 2471 0
2831 2471 1
2832 2471 0
2827 2472 0
2828 2472 0
2829 2472 0
2830 2472 0
2831 2472 0
2832 2472 1
2461 2473 1
2462 2473 0
2463 2473 0
2464 2473 0
2465 2473 0
2466 2473 0
2461 2474 0
2462 2474 1
2463 2474 0
2464 2474 0
2465 2474 0
2466 2474 0
2461 2475 0
2462 2475 0
2463 2475 1
2464 2475 0
2465 2475 0
2466 2475 0
2461 2476 0
2462 2476 0
2463 2476 0
2464 2476 1
2465 2476 0
2466 2476 0
2461 2477 0
2462 2477 0
2463 2477 0
2464 2477 0
2465 2477 1
2466 2477 0
2461 2478 0
2462 2478 0
2463 2478 0
2464 2478 0
2465 2478 0
2466 2478 1
1649 2479 1
1303 2480 0
1304 2480 0
1305 2480 0
1306 2480 0
1307 2480 0
1308 2480 0
1649 2480 0.023574741168151871
1303 2481 -1
1304 2481 0.045258900204798641
1305 2481 -0
1306 2481 -0.99668365524927938
1307 2481 0.06775671470238516
1308 2481 -0
1649 2481 0
1303 2482 -0.045206927042819985
1304 2482 -0.9999988768215905
1305 2482 -0
1306 2482 -0.067601049744234989
1307 2482 -0.99668141436676572
1308 2482 -0
1649 2482 0
1303 2483 -0
1304 2483 -0
1305 2483 -1
1306 2483 -0
1307 2483 -0
1308 2483 -0.99668365524927938
1649 2483 0
1648 2484 1
1297 2485 0
1298 2485 0
1299 2485 0
1300 2485 0
1301 2485 0
1302 2485 0
1648 2485 0.023574741168151871
1297 2486 -1
1298 2486 0.045258900204798641
1299 2486 -0
1300 2486 -0.99668365524927938
1301 2486 0.06775671470238516
1302 2486 -0
1648 2486 0
1297 2487 -0.045206927042819985
1298 2487 -0.9999988768215905
1299 2487 -0
1300 2487 -0.067601049744234989
1301 2487 -0.99668141436676572
1302 2487 -0
1648 2487 0
1297 2488 -0
1298 2488 -0
1299 2488 -1
1300 2488 -0
1301 2488 -0
1302 2488 -0.99668365524927938
1648 2488 0
2095 2489 1
2096 2489 0
2097 2489 0
2098 2489 0
2099 2489 0
2100 2489 0
2095 2490 0
2096 2490 1
2097 2490 0
2098 2490 0
2099 2490 0
2100 2490 0
2095 2491 0
2096 2491 0
2097 2491 1
2098 2491 0
2099 2491 0
2100 2491 0
2095 2492 0
2096 2492 0
2097 2492 0
2098 2492 1
2099 2492 0
2100 2492 0
2095 2493 0
2096 2493 0
2097 2493 0
2098 2493 0
2099 2493 1
2100 2493 0
2095 2494 0
2096 2494 0
2097 2494 0
2098 2494 0
2099 2494 0
2100 2494 1
1729 2495 1
1730 2495 0
1731 2495 0
1732 2495 0
1733 2495 0
1734 2495 0
1729 2496 0
1730 2496 1
1731 2496 0
1732 2496 0
1733 2496 0
1734 2496 0
1729 2497 0
1730 2497 0
1731 2497 1
1732 2497 0
1733 2497 0
1734 2497 0
1729 2498 0
1730 2498 0
1731 2498 0
1732 2498 1
1733 2498 0
1734 2498 0
1729 2499 0
1730 2499 0
1731 2499 0
1732 2499 0
1733 2499 1
1734 2499 0
1729 2500 0
1730 2500 0
1731 2500 0
1732 2500 0
1733 2500 0
1734 2500 1
797 2501 1
451 2502 0
452 2502 0
453 2502 0
454 2502 0
455 2502 0
456 2502 0
797 2502 0.023574741168151871
451 2503 -1
452 2503 0.045258900204798641
453 2503 -0
454 2503 -0.99668365524927938
455 2503 0.06775671470238516
456 2503 -0
797 2503 0
451 2504 -0.045206927042819985
452 2504 -0.9999988768215905
453 2504 -0
454 2504 -0.067601049744234989
455 2504 -0.99668141436676572
456 2504 -0
797 2504 0
451 2505 -0
452 2505 -0
453 2505 -1
454 2505 -0
455 2505 -0
456 2505 -0.99668365524927938
797 2505 0
796 2506 1
445 2507 0
446 2507 0
447 2507 0
448 2507 0
449 2507 0
450 2507 0
796 2507 0.023574741168151871
445 2508 -1
446 2508 0.045258900204798641
447 2508 -0
448 2508 -0.99668365524927938
449 2508 0.06775671470238516
450 2508 -0
796 2508 0
445 2509 -0.045206927042819985
446 2509 -0.9999988768215905
447 2509 -0
448 2509 -0.067601049744234989
449 2509 -0.99668141436676572
450 2509 -0
796 2509 0
445 2510 -0
446 2510 -0
447 2510 -1
448 2510 -0
449 2510 -0
450 2510 -0.99668365524927938
796 2510 0
2821 2511 1
2822 2511 0
2823 2511 0
2824 2511 0
2825 2511 0
2826 2511 0
2821 2512 0
2822 2512 1
2823 2512 0
2824 2512 0
2825 2512 0
2826 2512 0
2821 2513 0
2822 2513 0
2823 2513 1
2824 2513 0
2825 2513 0
2826 2513 0
2821 2514 0
2822 2514 0
2823 2514 0
2824 2514 1
2825 2514 0
2826 2514 0
2821 2515 0
2822 2515 0
2823 2515 0
2824 2515 0
2825 2515 1
2826 2515 0
2821 2516 0
2822 2516 0
2823 2516 0
2824 2516 0
2825 2516 0
2826 2516 1
1723 2517 1
1724 2517 0
1725 2517 0
1726 2517 0
1727 2517 0
1728 2517 0
1723 2518 0
1724 2518 1
1725 2518 0
1726 2518 0
1727 2518 0
1728 2518 0
1723 2519 0
1724 2519 0
1725 2519 1
1726 2519 0
1727 2519 0
1728 2519 0
1723 2520 0
1724 2520 0
1725 2520 0
1726 2520 1
1727 2520 0
1728 2520 0
1723 2521 0
1724 2521 0
1725 2521 0
1726 2521 0
1727 2521 1
1728 2521 0
1723 2522 0
1724 2522 0
1725 2522 0
1726 2522 0
1727 2522 0
1728 2522 1
370 2523 1
19 2524 0
20 2524 0
21 2524 0
22 2524 0
23 2524 0
24 2524 0
370 2524 0.023574741168151871
19 2525 -1
20 2525 0.045258900204798641
21 2525 -0
22 2525 -0.99668365524927938
23 2525 0.06775671470238516
24 2525 -0
370 2525 0
19 2526 -0.045206927042819985
20 2526 -0.9999988768215905
21 2526 -0
22 2526 -0.067601049744234989
23 2526 -0.99668141436676572
24 2526 -0
370 2526 0
19 2527 -0
20 2527 -0
21 2527 -1
22 2527 -0
23 2527 -0
24 2527 -0.99668365524927938
370 2527 0
369 2528 1
13 2529 0
14 2529 0
15 2529 0
16 2529 0
17 2529 0
18 2529 0
369 2529 0.023574741168151871
13 2530 -1
14 2530 0.045258900204798641
15 2530 -0
16 2530 -0.99668365524927938
17 2530 0.06775671470238516
18 2530 -0
369 2530 0
13 2531 -0.045206927042819985
14 2531 -0.9999988768215905
15 2531 -0
16 2531 -0.067601049744234989
17 2531 -0.99668141436676572
18 2531 -0
369 2531 0
13 2532 -0
14 2532 -0
15 2532 -1
16 2532 -0
17 2532 -0
18 2532 -0.99668365524927938
369 2532 0
2455 2533 1
2456 2533 0
2457 2533 0
2458 2533 0
2459 2533 0
2460 2533 0
2455 2534 0
2456 2534 1
2457 2534 0
2458 2534 0
2459 2534 0
2460 2534 0
2455 2535 0
2456 2535 0
2457 2535 1
2458 2535 0
2459 2535 0
2460 2535 0
2455 2536 0
2456 2536 0
2457 2536 0
2458 2536 1
2459 2536 0
2460 2536 0
2455 2537 0
2456 2537 0
2457 2537 0
2458 2537 0
2459 2537 1
2460 2537 0
2455 2538 0
2456 2538 0
2457 2538 0
2458 2538 0
2459 2538 0
2460 2538 1
2089 2539 1
2090 2539 0
2091 2539 0
2092 2539 0
2093 2539 0
2094 2539 0
2089 2540 0
2090 2540 1
2091 2540 0
2092 2540 0
2093 2540 0
2094 2540 0
2089 2541 0
2090 2541 0
2091 2541 1
2092 2541 0
2093 2541 0
2094 2541 0
2089 2542 0
2090 2542 0
2091 2542 0
2092 2542 1
2093 2542 0
2094 2542 0
2089 2543 0
2090 2543 0
2091 2543 0
2092 2543 0
2093 2543 1
2094 2543 0
2089 2544 0
2090 2544 0
2091 2544 0
2092 2544 0
2093 2544 0
2094 2544 1
1222 2545 1
871 2546 0
872 2546 0
873 2546 0
874 2546 0
875 2546 0
876 2546 0
1222 2546 0.023574741168151871
871 2547 -1
872 2547 0.045258900204798641
873 2547 -0
874 2547 -0.99668365524927938
875 2547 0.06775671470238516
876 2547 -0
1222 2547 0
871 2548 -0.045206927042819985
872 2548 -0.9999988768215905
873 2548 -0
874 2548 -0.067601049744234989
875 2548 -0.99668141436676572
876 2548 -0
1222 2548 0
871 2549 -0
872 2549 -0
873 2549 -1
874 2549 -0
875 2549 -0
876 2549 -0.99668365524927938
1222 2549 0
1221 2550 1
865 2551 0
866 2551 0
867 2551 0
868 2551 0
869 2551 0
870 2551 0
1221 2551 0.023574741168151871
865 2552 -1
866 2552 0.045258900204798641
867 2552 -0
868 2552 -0.99668365524927938
869 2552 0.06775671470238516
870 2552 -0
1221 2552 0
865 2553 -0.045206927042819985
866 2553 -0.9999988768215905
867 2553 -0
868 2553 -0.067601049744234989
869 2553 -0.99668141436676572
870 2553 -0
1221 2553 0
865 2554 -0
866 2554 -0
867 2554 -1
868 2554 -0
869 2554 -0
870 2554 -0.99668365524927938
1221 2554 0
2083 2555 1
2084 2555 0
2085 2555 0
2086 2555 0
2087 2555 0
2088 2555 0
2083 2556 0
2084 2556 1
2085 2556 0
2086 2556 0
2087 2556 0
2088 2556 0
2083 2557 0
2084 2557 0
2085 2557 1
2086 2557 0
2087 2557 0
2088 2557 0
2083 2558 0
2084 2558 0
2085 2558 0
2086 2558 1
2087 2558 0
2088 2558 0
2083 2559 0
2084 2559 0
2085 2559 0
2086 2559 0
2087 2559 1
2088 2559 0
2083 2560 0
2084 2560 0
2085 2560 0
2086 2560 0
2087 2560 0
2088 2560 1
1717 2561 1
1718 2561 0
1719 2561 0
1720 2561 0
1721 2561 0
1722 2561 0
1717 2562 0
1718 2562 1
1719 2562 0
1720 2562 0
1721 2562 0
1722 2562 0
1717 2563 0
1718 2563 0
1719 2563 1
1720 2563 0
1721 2563 0
1722 2563 0
1717 2564 0
1718 2564 0
1719 2564 0
1720 2564 1
1721 2564 0
1722 2564 0
1717 2565 0
1718 2565 0
1719 2565 0
1720 2565 0
1721 2565 1
1722 2565 0
1717 2566 0
1718 2566 0
1719 2566 0
1720 2566 0
1721 2566 0
1722 2566 1
795 2567 1
439 2568 0
440 2568 0
441 2568 0
442 2568 0
443 2568 0
444 2568 0
795 2568 0.023574741168151871
439 2569 -1
440 2569 0.045258900204798641
441 2569 -0
442 2569 -0.99668365524927938
443 2569 0.06775671470238516
444 2569 -0
795 2569 0
439 2570 -0.045206927042819985
440 2570 -0.9999988768215905
441 2570 -0
442 2570 -0.067601049744234989
443 2570 -0.99668141436676572
444 2570 -0
795 2570 0
439 2571 -0
440 2571 -0
441 2571 -1
442 2571 -0
443 2571 -0
444 2571 -0.99668365524927938
795 2571 0
794 2572 1
433 2573 0
434 2573 0
435 2573 0
436 2573 0
437 2573 0
438 2573 0
794 2573 0.023574741168151871
433 2574 -1
434 2574 0.045258900204798641
435 2574 -0
436 2574 -0.99668365524927938
437 2574 0.06775671470238516
438 2574 -0
794 2574 0
433 2575 -0.045206927042819985
434 2575 -0.9999988768215905
435 2575 -0
436 2575 -0.067601049744234989
437 2575 -0.99668141436676572
438 2575 -0
794 2575 0
433 2576 -0
434 2576 -0
435 2576 -1
436 2576 -0
437 2576 -0
438 2576 -0.99668365524927938
794 2576 0
2815 2577 1
2816 2577 0
2817 2577 0
2818 2577 0
2819 2577 0
2820 2577 0
2815 2578 0
2816 2578 1
2817 2578 0
2818 2578 0
2819 2578 0
2820 2578 0
2815 2579 0
2816 2579 0
2817 2579 1
2818 2579 0
2819 2579 0
2820 2579 0
2815 2580 0
2816 2580 0
2817 2580 0
2818 2580 1
2819 2580 0
2820 2580 0
2815 2581 0
2816 2581 0
2817 2581 0
2818 2581 0
2819 2581 1
2820 2581 0
2815 2582 0
2816 2582 0
2817 2582 0
2818 2582 0
2819 2582 0
2820 2582 1
2449 2583 1
2450 2583 0
2451 2583 0
2452 2583 0
2453 2583 0
2454 2583 0
2449 2584 0
2450 2584 1
2451 2584 0
2452 2584 0
2453 2584 0
2454 2584 0
2449 2585 0
2450 2585 0
2451 2585 1
2452 2585 0
2453 2585 0
2454 2585 0
2449 2586 0
2450 2586 0
2451 2586 0
2452 2586 1
2453 2586 0
2454 2586 0
2449 2587 0
2450 2587 0
2451 2587 0
2452 2587 0
2453 2587 1
2454 2587 0
2449 2588 0
2450 2588 0
2451 2588 0
2452 2588 0
2453 2588 0
2454 2588 1
1647 2589 1
1291 2590 0
1292 2590 0
1293 2590 0
1294 2590 0
1295 2590 0
1296 2590 0
1647 2590 0.023574741168151871
1291 2591 -1
1292 2591 0.045258900204798641
1293 2591 -0
1294 2591 -0.99668365524927938
1295 2591 0.06775671470238516
1296 2591 -0
1647 2591 0
1291 2592 -0.045206927042819985
1292 2592 -0.9999988768215905
1293 2592 -0
1294 2592 -0.067601049744234989
1295 2592 -0.99668141436676572
1296 2592 -0
1647 2592 0
1291 2593 -0
1292 2593 -0
1293 2593 -1
1294 2593 -0
1295 2593 -0
1296 2593 -0.99668365524927938
1647 2593 0
1646 2594 1
1285 2595 0
1286 2595 0
1287 2595 0
1288 2595 0
1289 2595 0
1290 2595 0
1646 2595 0.023574741168151871
1285 2596 -1
1286 2596 0.045258900204798641
1287 2596 -0
1288 2596 -0.99668365524927938
1289 2596 0.06775671470238516
1290 2596 -0
1646 2596 0
1285 2597 -0.045206927042819985
1286 2597 -0.9999988768215905
1287 2597 -0
1288 2597 -0.067601049744234989
1289 2597 -0.99668141436676572
1290 2597 -0
1646 2597 0
1285 2598 -0
1286 2598 -0
1287 2598 -1
1288 2598 -0
1289 2598 -0
1290 2598 -0.99668365524927938
1646 2598 0
2443 2599 1
2444 2599 0
2445 2599 0
2446 2599 0
2447 2599 0
2448 2599 0
2443 2600 0
2444 2600 1
2445 2600 0
2446 2600 0
2447 2600 0
2448 2600 0
2443 2601 0
2444 2601 0
2445 2601 1
2446 2601 0
2447 2601 0
2448 2601 0
2443 2602 0
2444 2602 0
2445 2602 0
2446 2602 1
2447 2602 0
2448 2602 0
2443 2603 0
2444 2603 0
2445 2603 0
2446 2603 0
2447 2603 1
2448 2603 0
2443 2604 0
2444 2604 0
2445 2604 0
2446 2604 0
2447 2604 0
2448 2604 1
2077 2605 1
2078 2605 0
2079 2605 0
2080 2605 0
2081 2605 0
2082 2605 0
2077 2606 0
2078 2606 1
2079 2606 0
2080 2606 0
2081 2606 0
2082 2606 0
2077 2607 0
2078 2607 0
2079 2607 1
2080 2607 0
2081 2607 0
2082 2607 0
2077 2608 0
2078 2608 0
2079 2608 0
2080 2608 1
2081 2608 0
2082 2608 0
2077 2609 0
2078 2609 0
2079 2609 0
2080 2609 0
2081 2609 1
2082 2609 0
2077 2610 0
2078 2610 0
2079 2610 0
2080 2610 0
2081 2610 0
2082 2610 1
1220 2611 1
859 2612 0
860 2612 0
861 2612 0
862 2612 0
863 2612 0
864 2612 0
1220 2612 0.023574741168151871
859 2613 -1
860 2613 0.045258900204798641
861 2613 -0
862 2613 -0.99668365524927938
863 2613 0.06775671470238516
864 2613 -0
1220 2613 0
859 2614 -0.045206927042819985
860 2614 -0.9999988768215905
861 2614 -0
862 2614 -0.067601049744234989
863 2614 -0.99668141436676572
864 2614 -0
1220 2614 0
859 2615 -0
860 2615 -0
861 2615 -1
862 2615 -0
863 2615 -0
864 2615 -0.99668365524927938
1220 2615 0
1219 2616 1
853 2617 0
854 2617 0
855 2617 0
856 2617 0
857 2617 0
858 2617 0
1219 2617 0.023574741168151871
853 2618 -1
854 2618 0.045258900204798641
855 2618 -0
856 2618 -0.99668365524927938
857 2618 0.06775671470238516
858 2618 -0
1219 2618 0
853 2619 -0.045206927042819985
854 2619 -0.9999988768215905
855 2619 -0
856 2619 -0.067601049744234989
857 2619 -0.99668141436676572
858 2619 -0
1219 2619 0
853 2620 -0
854 2620 -0
855 2620 -1
856 2620 -0
857 2620 -0
858 2620 -0.99668365524927938
1219 2620 0
2809 2621 1
2810 2621 0
2811 2621 0
2812 2621 0
2813 2621 0
2814 2621 0
2809 2622 0
2810 2622 1
2811 2622 0
2812 2622 0
2813 2622 0
2814 2622 0
2809 2623 0
2810 2623 0
2811 2623 1
2812 2623 0
2813 2623 0
2814 2623 0
2809 2624 0
2810 2624 0
2811 2624 0
2812 2624 1
2813 2624 0
2814 2624 0
2809 2625 0
2810 2625 0
2811 2625 0
2812 2625 0
2813 2625 1
2814 2625 0
2809 2626 0
2810 2626 0
2811 2626 0
2812 2626 0
2813 2626 0
2814 2626 1
1711 2627 1
1712 2627 0
1713 2627 0
1714 2627 0
1715 2627 0
1716 2627 0
1711 2628 0
1712 2628 1
1713 2628 0
1714 2628 0
1715 2628 0
1716 2628 0
1711 2629 0
1712 2629 0
1713 2629 1
1714 2629 0
1715 2629 0
1716 2629 0
1711 2630 0
1712 2630 0
1713 2630 0
1714 2630 1
1715 2630 0
1716 2630 0
1711 2631 0
1712 2631 0
1713 2631 0
1714 2631 0
1715 2631 1
1716 2631 0
1711 2632 0
1712 2632 0
1713 2632 0
1714 2632 0
1715 2632 0
1716 2632 1
368 2633 1
7 2634 0
8 2634 0
9 2634 0
10 2634 0
11 2634 0
12 2634 0
368 2634 0.023574741168151871
7 2635 -1
8 2635 0.045258900204798641
9 2635 -0
10 2635 -0.99668365524927938
11 2635 0.06775671470238516
12 2635 -0
368 2635 0
7 2636 -0.045206927042819985
8 2636 -0.9999988768215905
9 2636 -0
10 2636 -0.067601049744234989
11 2636 -0.99668141436676572
12 2636 -0
368 2636 0
7 2637 -0
8 2637 -0
9 2637 -1
10 2637 -0
11 2637 -0
12 2637 -0.99668365524927938
368 2637 0
367 2638 1
1 2639 0
2 2639 0
3 2639 0
4 2639 0
5 2639 0
6 2639 0
367 2639 0.023574741168151871
1 2640 -1
2 2640 0.045258900204798641
3 2640 -0
4 2640 -0.99668365524927938
5 2640 0.06775671470238516
6 2640 -0
367 2640 0
1 2641 -0.045206927042819985
2 2641 -0.9999988768215905
3 2641 -0
4 2641 -0.067601049744234989
5 2641 -0.99668141436676572
6 2641 -0
367 2641 0
1 2642 -0
2 2642 -0
3 2642 -1
4 2642 -0
5 2642 -0
6 2642 -0.99668365524927938
367 2642 0
2803 2643 1
2804 2643 0
2805 2643 0
2806 2643 0
2807 2643 0
2808 2643 0
2803 2644 0
2804 2644 1
2805 2644 0
2806 2644 0
2807 2644 0
2808 2644 0
2803 2645 0
2804 2645 0
2805 2645 1
2806 2645 0
2807 2645 0
2808 2645 0
2803 2646 0
2804 2646 0
2805 2646 0
2806 2646 1
2807 2646 0
2808 2646 0
2803 2647 0
2804 2647 0
2805 2647 0
2806 2647 0
2807 2647 1
2808 2647 0
2803 2648 0
2804 2648 0
2805 2648 0
2806 2648 0
2807 2648 0
2808 2648 1
2437 2649 1
2438 2649 0
2439 2649 0
2440 2649 0
2441 2649 0
2442 2649 0
2437 2650 0
2438 2650 1
2439 2650 0
2440 2650 0
2441 2650 0
2442 2650 0
2437 2651 0
2438 2651 0
2439 2651 1
2440 2651 0
2441 2651 0
2442 2651 0
2437 2652 0
2438 2652 0
2439 2652 0
2440 2652 1
2441 2652 0
2442 2652 0
2437 2653 0
2438 2653 0
2439 2653 0
2440 2653 0
2441 2653 1
2442 2653 0
2437 2654 0
2438 2654 0
2439 2654 0
2440 2654 0
2441 2654 0
2442 2654 1
1645 2655 1
1279 2656 0
1280 2656 0
1281 2656 0
1282 2656 0
1283 2656 0
1284 2656 0
1645 2656 0.023574741168151871
1279 2657 -1
1280 2657 0.045258900204798641
1281 2657 -0
1282 2657 -0.99668365524927938
1283 2657 0.06775671470238516
1284 2657 -0
1645 2657 0
1279 2658 -0.045206927042819985
1280 2658 -0.9999988768215905
1281 2658 -0
1282 2658 -0.067601049744234989
1283 2658 -0.99668141436676572
1284 2658 -0
1645 2658 0
1279 2659 -0
1280 2659 -0
1281 2659 -1
1282 2659 -0
1283 2659 -0
1284 2659 -0.99668365524927938
1645 2659 0
1279 2660 -0.007823644760745891
1280 2660 2.423897423217232e-06
1281 2660 -0
1282 2660 -5.3378648901974854e-05
1283 2660 3.6287962241593173e-06
1284 2660 -0
1639 2660 1.0000000000000002
1640 2660 0
1641 2660 0
1642 2660 0
1643 2660 0
1644 2660 0
2437 2660 0.32959379894780699
2438 2660 0
2439 2660 0
2440 2660 0
2441 2660 0
2442 2660 0
2803 2660 -0.32959379894780699
2804 2660 -0
2805 2660 -0
2806 2660 -0
2807 2660 -0
2808 2660 -0
1279 2661 -0
1280 2661 -0.0077790215580917114
1281 2661 -0
1282 2661 -0
1283 2661 -0
1284 2661 -0
1639 2661 0
1640 2661 1.0000000000000002
1641 2661 0
1642 2661 0
1643 2661 0
1644 2661 0
2437 2661 0
2438 2661 0.32959379894780699
2439 2661 0
2440 2661 0
2441 2661 0
2442 2661 0
2803 2661 -0
2804 2661 -0.32959379894780699
2805 2661 -0
2806 2661 -0
2807 2661 -0
2808 2661 -0
1279 2662 -0
1280 2662 -0
1281 2662 -0.00775223641418129
1282 2662 -0
1283 2662 -0
1284 2662 1.7792882967324915e-05
1639 2662 0
1640 2662 0
1641 2662 1.0000000000000002
1642 2662 0
1643 2662 0
1644 2662 0
2437 2662 0
2438 2662 0
2439 2662 0.32959379894780699
2440 2662 0
2441 2662 0
2442 2662 0
2803 2662 -0
2804 2662 -0
2805 2662 -0.32959379894780699
2806 2662 -0
2807 2662 -0
2808 2662 -0
1279 2663 -0.46584821359875017
1280 2663 0.031632939282617685
1281 2663 -0
1282 2663 -0.23188465463015032
1283 2663 0.031564344503426288
1284 2663 -0
1639 2663 0
1640 2663 0
1641 2663 0
1642 2663 1.0000000000000002
1643 2663 0
1644 2663 0
2437 2663 0
2438 2663 0
2439 2663 0
2440 2663 0.32959379894780699
2441 2663 0
2442 2663 0
2803 2663 -0
2804 2663 -0
2805 2663 -0
2806 2663 -0.32959379894780699
2807 2663 -0
2808 2663 -0
1279 2664 -0.031596613524153466
1280 2664 -0.46531126550720397
1281 2664 -0
1282 2664 -0.0314918282607521
1283 2664 -0.23081295344998415
1284 2664 -0
1639 2664 0
1640 2664 0
1641 2664 0
1642 2664 0
1643 2664 1.0000000000000002
1644 2664 0
2437 2664 0
2438 2664 0
2439 2664 0
2440 2664 0
2441 2664 0.32959379894780699
2442 2664 0
2803 2664 -0
2804 2664 -0
2805 2664 -0
2806 2664 -0
2807 2664 -0.32959379894780699
2808 2664 -0
1279 2665 -0
1280 2665 -0
1281 2665 -0.46584821359874962
1282 2665 -0
1283 2665 -0
1284 2665 -0.23188465463015001
1639 2665 0
1640 2665 0
1641 2665 0
1642 2665 0
1643 2665 0
1644 2665 1.0000000000000002
2437 2665 0
2438 2665 0
2439 2665 0
2440 2665 0
2441 2665 0
2442 2665 0.32959379894780699
2803 2665 -0
2804 2665 -0
2805 2665 -0
2806 2665 -0
2807 2665 -0
2808 2665 -0.32959379894780699
2071 2666 1
2072 2666 0
2073 2666 0
2074 2666 0
2075 2666 0
2076 2666 0
2071 2667 0
2072 2667 1
2073 2667 0
2074 2667 0
2075 2667 0
2076 2667 0
2071 2668 0
2072 2668 0
2073 2668 1
2074 2668 0
2075 2668 0
2076 2668 0
2071 2669 0
2072 2669 0
2073 2669 0
2074 2669 1
2075 2669 0
2076 2669 0
2071 2670 0
2072 2670 0
2073 2670 0
2074 2670 0
2075 2670 1
2076 2670 0
2071 2671 0
2072 2671 0
2073 2671 0
2074 2671 0
2075 2671 0
2076 2671 1
1705 2672 1
1706 2672 0
1707 2672 0
1708 2672 0
1709 2672 0
1710 2672 0
1705 2673 0
1706 2673 1
1707 2673 0
1708 2673 0
1709 2673 0
1710 2673 0
1705 2674 0
1706 2674 0
1707 2674 1
1708 2674 0
1709 2674 0
1710 2674 0
1705 2675 0
1706 2675 0
1707 2675 0
1708 2675 1
1709 2675 0
1710 2675 0
1705 2676 0
1706 2676 0
1707 2676 0
1708 2676 0
1709 2676 1
1710 2676 0
1705 2677 0
1706 2677 0
1707 2677 0
1708 2677 0
1709 2677 0
1710 2677 1
793 2678 1
427 2679 0
428 2679 0
429 2679 0
430 2679 0
431 2679 0
432 2679 0
793 2679 0.023574741168151871
427 2680 -1
428 2680 0.045258900204798641
429 2680 -0
430 2680 -0.99668365524927938
431 2680 0.06775671470238516
432 2680 -0
793 2680 0
427 2681 -0.045206927042819985
428 2681 -0.9999988768215905
429 2681 -0
430 2681 -0.067601049744234989
431 2681 -0.99668141436676572
432 2681 -0
793 2681 0
427 2682 -0
428 2682 -0
429 2682 -1
430 2682 -0
431 2682 -0
432 2682 -0.99668365524927938
793 2682 0
427 2683 -0.007823644760745891
428 2683 2.423897423217232e-06
429 2683 -0
430 2683 -5.3378648901974854e-05
431 2683 3.6287962241593173e-06
432 2683 -0
787 2683 1.0000000000000002
788 2683 0
789 2683 0
790 2683 0
791 2683 0
792 2683 0
1705 2683 0.32959379894780699
1706 2683 0
1707 2683 0
1708 2683 0
1709 2683 0
1710 2683 0
2071 2683 -0.32959379894780699
2072 2683 -0
2073 2683 -0
2074 2683 -0
2075 2683 -0
2076 2683 -0
427 2684 -0
428 2684 -0.0077790215580917114
429 2684 -0
430 2684 -0
431 2684 -0
432 2684 -0
787 2684 0
788 2684 1.0000000000000002
789 2684 0
790 2684 0
791 2684 0
792 2684 0
1705 2684 0
1706 2684 0.32959379894780699
1707 2684 0
1708 2684 0
1709 2684 0
1710 2684 0
2071 2684 -0
2072 2684 -0.32959379894780699
2073 2684 -0
2074 2684 -0
2075 2684 -0
2076 2684 -0
427 2685 -0
428 2685 -0
429 2685 -0.00775223641418129
430 2685 -0
431 2685 -0
432 2685 1.7792882967324915e-05
787 2685 0
788 2685 0
789 2685 1.0000000000000002
790 2685 0
791 2685 0
792 2685 0
1705 2685 0
1706 2685 0
1707 2685 0.32959379894780699
1708 2685 0
1709 2685 0
1710 2685 0
2071 2685 -0
2072 2685 -0
2073 2685 -0.32959379894780699
2074 2685 -0
2075 2685 -0
2076 2685 -0
427 2686 -0.46584821359875017
428 2686 0.031632939282617685
429 2686 -0
430 2686 -0.23188465463015032
431 2686 0.031564344503426288
432 2686 -0
787 2686 0
788 2686 0
789 2686 0
790 2686 1.0000000000000002
791 2686 0
792 2686 0
1705 2686 0
1706 2686 0
1707 2686 0
1708 2686 0.32959379894780699
1709 2686 0
1710 2686 0
2071 2686 -0
2072 2686 -0
2073 2686 -0
2074 2686 -0.32959379894780699
2075 2686 -0
2076 2686 -0
427 2687 -0.031596613524153466
428 2687 -0.46531126550720397
429 2687 -0
430 2687 -0.0314918282607521
431 2687 -0.23081295344998415
432 2687 -0
787 2687 0
788 2687 0
789 2687 0
790 2687 0
791 2687 1.0000000000000002
792 2687 0
1705 2687 0
1706 2687 0
1707 2687 0
1708 2687 0
1709 2687 0.32959379894780699
1710 2687 0
2071 2687 -0
2072 2687 -0
2073 2687 -0
2074 2687 -0
2075 2687 -0.32959379894780699
2076 2687 -0
427 2688 -0
428 2688 -0
429 2688 -0.46584821359874962
430 2688 -0
431 2688 -0
432 2688 -0.23188465463015001
787 2688 0
788 2688 0
789 2688 0
790 2688 0
791 2688 0
792 2688 1.0000000000000002
1705 2688 0
1706 2688 0
1707 2688 0
1708 2688 0
1709 2688 0
1710 2688 0.32959379894780699
2071 2688 -0
2072 2688 -0
2073 2688 -0
2074 2688 -0
2075 2688 -0
2076 2688 -0.32959379894780699
1 2689 -0.007823644760745891
2 2689 2.423897423217232e-06
3 2689 -0
4 2689 -5.3378648901974854e-05
5 2689 3.6287962241593173e-06
6 2689 -0
361 2689 1.0000000000000002
362 2689 0
363 2689 0
364 2689 0
365 2689 0
366 2689 0
1705 2689 -0.32959379894780699
1706 2689 -0
1707 2689 -0
1708 2689 -0
1709 2689 -0
1710 2689 -0
2803 2689 0.32959379894780699
2804 2689 0
2805 2689 0
2806 2689 0
2807 2689 0
2808 2689 0
1 2690 -0
2 2690 -0.0077790215580917114
3 2690 -0
4 2690 -0
5 2690 -0
6 2690 -0
361 2690 0
362 2690 1.0000000000000002
363 2690 0
364 2690 0
365 2690 0
366 2690 0
1705 2690 -0
1706 2690 -0.32959379894780699
1707 2690 -0
1708 2690 -0
1709 2690 -0
1710 2690 -0
2803 2690 0
2804 2690 0.32959379894780699
2805 2690 0
2806 2690 0
2807 2690 0
2808 2690 0
1 2691 -0
2 2691 -0
3 2691 -0.00775223641418129
4 2691 -0
5 2691 -0
6 2691 1.7792882967324915e-05
361 2691 0
362 2691 0
363 2691 1.0000000000000002
364 2691 0
365 2691 0
366 2691 0
1705 2691 -0
1706 2691 -0
1707 2691 -0.32959379894780699
1708 2691 -0
1709 2691 -0
1710 2691 -0
2803 2691 0
2804 2691 0
2805 2691 0.32959379894780699
2806 2691 0
2807 2691 0
2808 2691 0
1 2692 -0.46584821359875017
2 2692 0.031632939282617685
3 2692 -0
4 2692 -0.23188465463015032
5 2692 0.031564344503426288
6 2692 -0
361 2692 0
362 2692 0
363 2692 0
364 2692 1.0000000000000002
365 2692 0
366 2692 0
1705 2692 -0
1706 2692 -0
1707 2692 -0
1708 2692 -0.32959379894780699
1709 2692 -0
1710 2692 -0
2803 2692 0
2804 2692 0
2805 2692 0
2806 2692 0.32959379894780699
2807 2692 0
2808 2692 0
1 2693 -0.031596613524153466
2 2693 -0.46531126550720397
3 2693 -0
4 2693 -0.0314918282607521
5 2693 -0.23081295344998415
6 2693 -0
361 2693 0
362 2693 0
363 2693 0
364 2693 0
365 2693 1.0000000000000002
366 2693 0
1705 2693 -0
1706 2693 -0
1707 2693 -0
1708 2693 -0
1709 2693 -0.32959379894780699
1710 2693 -0
2803 2693 0
2804 2693 0
2805 2693 0
2806 2693 0
2807 2693 0.32959379894780699
2808 2693 0
1 2694 -0
2 2694 -0
3 2694 -0.46584821359874962
4 2694 -0
5 2694 -0
6 2694 -0.23188465463015001
361 2694 0
362 2694 0
363 2694 0
364 2694 0
365 2694 0
366 2694 1.0000000000000002
1705 2694 -0
1706 2694 -0
1707 2694 -0
1708 2694 -0
1709 2694 -0
1710 2694 -0.32959379894780699
2803 2694 0
2804 2694 0
2805 2694 0
2806 2694 0
2807 2694 0
2808 2694 0.32959379894780699
1 2695 0.01662412773633716
2 2695 0
3 2695 0
4 2695 0
5 2695 0
6 2695 0
7 2695 -0.016738711515653665
8 2695 5.1859358331731552e-06
9 2695 -0
10 2695 -0.00011420378000142444
11 2695 7.763820444667679e-06
12 2695 -0
1711 2695 -0.70516692496269695
1712 2695 -0
1713 2695 -0
1714 2695 -0
1715 2695 -0
1716 2695 -0
2809 2695 0.70516692496269695
2810 2695 0
2811 2695 0
2812 2695 0
2813 2695 0
2814 2695 0
1 2696 0
2 2696 0.016643240039254284
3 2696 0
4 2696 0
5 2696 0
6 2696 0
7 2696 -0
8 2696 -0.016643240039254253
9 2696 -0
10 2696 -0
11 2696 -0
12 2696 -0
1711 2696 -0
1712 2696 -0.70516692496269695
1713 2696 -0
1714 2696 -0
1715 2696 -0
1716 2696 -0
2809 2696 0
2810 2696 0.70516692496269695
2811 2696 0
2812 2696 0
2813 2696 0
2814 2696 0
1 2697 0
2 2697 0
3 2697 0.016624127736337181
4 2697 0
5 2697 0
6 2697 0
7 2697 -0
8 2697 -0
9 2697 -0.016585933143231667
10 2697 -0
11 2697 -0
12 2697 3.8067926667141391e-05
1711 2697 -0
1712 2697 -0
1713 2697 -0.70516692496269695
1714 2697 -0
1715 2697 -0
1716 2697 -0
2809 2697 0
2810 2697 0
2811 2697 0.70516692496269695
2812 2697 0
2813 2697 0
2814 2697 0
1 2698 0
2 2698 0
3 2698 0
4 2698 0.49726039206134737
5 2698 0
6 2698 0
7 2698 -0.99668365524927938
8 2698 0.067678768813813697
9 2698 -0
10 2698 -0.49611791657971721
11 2698 0.067532010077255816
12 2698 -0
1711 2698 -0
1712 2698 -0
1713 2698 -0
1714 2698 -0.70516692496269695
1715 2698 -0
1716 2698 -0
2809 2698 0
2810 2698 0
2811 2698 0
2812 2698 0.70516692496269695
2813 2698 0
2814 2698 0
1 2699 0
2 2699 0
3 2699 0
4 2699 0
5 2699 0.49840543371991375
6 2699 0
7 2699 -0.067601049744234934
8 2699 -0.99553485319114277
9 2699 -0
10 2699 -0.067376861357772475
11 2699 -0.49382500867881207
12 2699 -0
1711 2699 -0
1712 2699 -0
1713 2699 -0
1714 2699 -0
1715 2699 -0.70516692496269695
1716 2699 -0
2809 2699 0
2810 2699 0
2811 2699 0
2812 2699 0
2813 2699 0.70516692496269695
2814 2699 0
1 2700 0
2 2700 0
3 2700 0
4 2700 0
5 2700 0
6 2700 0.49726039206134764
7 2700 -0
8 2700 -0
9 2700 -0.99668365524927816
10 2700 -0
11 2700 -0
12 2700 -0.49611791657971638
1711 2700 -0
1712 2700 -0
1713 2700 -0
1714 2700 -0
1715 2700 -0
1716 2700 -0.70516692496269695
2809 2700 0
2810 2700 0
2811 2700 0
2812 2700 0
2813 2700 0
2814 2700 0.70516692496269695
853 2701 -0.007823644760745891
854 2701 2.423897423217232e-06
855 2701 -0
856 2701 -5.3378648901974854e-05
857 2701 3.6287962241593173e-06
858 2701 -0
1213 2701 1.0000000000000002
1214 2701 0
1215 2701 0
1216 2701 0
1217 2701 0
1218 2701 0
2071 2701 0.32959379894780699
2072 2701 0
2073 2701 0
2074 2701 0
2075 2701 0
2076 2701 0
2437 2701 -0.32959379894780699
2438 2701 -0
2439 2701 -0
2440 2701 -0
2441 2701 -0
2442 2701 -0
853 2702 -0
854 2702 -0.0077790215580917114
855 2702 -0
856 2702 -0
857 2702 -0
858 2702 -0
1213 2702 0
1214 2702 1.0000000000000002
1215 2702 0
1216 2702 0
1217 2702 0
1218 2702 0
2071 2702 0
2072 2702 0.32959379894780699
2073 2702 0
2074 2702 0
2075 2702 0
2076 2702 0
2437 2702 -0
2438 2702 -0.32959379894780699
2439 2702 -0
2440 2702 -0
2441 2702 -0
2442 2702 -0
853 2703 -0
854 2703 -0
855 2703 -0.00775223641418129
856 2703 -0
857 2703 -0
858 2703 1.7792882967324915e-05
1213 2703 0
1214 2703 0
1215 2703 1.0000000000000002
1216 2703 0
1217 2703 0
1218 2703 0
2071 2703 0
2072 2703 0
2073 2703 0.32959379894780699
2074 2703 0
2075 2703 0
2076 2703 0
2437 2703 -0
2438 2703 -0
2439 2703 -0.32959379894780699
2440 2703 -0
2441 2703 -0
2442 2703 -0
853 2704 -0.46584821359875017
854 2704 0.031632939282617685
855 2704 -0
856 2704 -0.23188465463015032
857 2704 0.031564344503426288
858 2704 -0
1213 2704 0
1214 2704 0
1215 2704 0
1216 2704 1.0000000000000002
1217 2704 0
1218 2704 0
2071 2704 0
2072 2704 0
2073 2704 0
2074 2704 0.32959379894780699
2075 2704 0
2076 2704 0
2437 2704 -0
2438 2704 -0
2439 2704 -0
2440 2704 -0.32959379894780699
2441 2704 -0
2442 2704 -0
853 2705 -0.031596613524153466
854 2705 -0.46531126550720397
855 2705 -0
856 2705 -0.0314918282607521
857 2705 -0.23081295344998415
858 2705 -0
1213 2705 0
1214 2705 0
1215 2705 0
1216 2705 0
1217 2705 1.0000000000000002
1218 2705 0
2071 2705 0
2072 2705 0
2073 2705 0
2074 2705 0
2075 2705 0.32959379894780699
2076 2705 0
2437 2705 -0
2438 2705 -0
2439 2705 -0
2440 2705 -0
2441 2705 -0.32959379894780699
2442 2705 -0
853 2706 -0
854 2706 -0
855 2706 -0.46584821359874962
856 2706 -0
857 2706 -0
858 2706 -0.23188465463015001
1213 2706 0
1214 2706 0
1215 2706 0
1216 2706 0
1217 2706 0
1218 2706 1.0000000000000002
2071 2706 0
2072 2706 0
2073 2706 0
2074 2706 0
2075 2706 0
2076 2706 0.32959379894780699
2437 2706 -0
2438 2706 -0
2439 2706 -0
2440 2706 -0
2441 2706 -0
2442 2706 -0.32959379894780699
853 2707 0.01662412773633716
854 2707 0
855 2707 0
856 2707 0
857 2707 0
858 2707 0
859 2707 -0.016738711515653665
860 2707 5.1859358331731552e-06
861 2707 -0
862 2707 -0.00011420378000142444
863 2707 7.763820444667679e-06
864 2707 -0
2077 2707 0.70516692496269695
2078 2707 0
2079 2707 0
2080 2707 0
2081 2707 0
2082 2707 0
2443 2707 -0.70516692496269695
2444 2707 -0
2445 2707 -0
2446 2707 -0
2447 2707 -0
2448 2707 -0
853 2708 0
854 2708 0.016643240039254284
855 2708 0
856 2708 0
857 2708 0
858 2708 0
859 2708 -0
860 2708 -0.016643240039254253
861 2708 -0
862 2708 -0
863 2708 -0
864 2708 -0
2077 2708 0
2078 2708 0.70516692496269695
2079 2708 0
2080 2708 0
2081 2708 0
2082 2708 0
2443 2708 -0
2444 2708 -0.70516692496269695
2445 2708 -0
2446 2708 -0
2447 2708 -0
2448 2708 -0
853 2709 0
854 2709 0
855 2709 0.016624127736337181
856 2709 0
857 2709 0
858 2709 0
859 2709 -0
860 2709 -0
861 2709 -0.016585933143231667
862 2709 -0
863 2709 -0
864 2709 3.8067926667141391e-05
2077 2709 0
2078 2709 0
2079 2709 0.70516692496269695
2080 2709 0
2081 2709 0
2082 2709 0
2443 2709 -0
2444 2709 -0
2445 2709 -0.70516692496269695
2446 2709 -0
2447 2709 -0
2448 2709 -0
853 2710 0
854 2710 0
855 2710 0
856 2710 0.49726039206134737
857 2710 0
858 2710 0
859 2710 -0.99668365524927938
860 2710 0.067678768813813697
861 2710 -0
862 2710 -0.49611791657971721
863 2710 0.067532010077255816
864 2710 -0
2077 2710 0
2078 2710 0
2079 2710 0
2080 2710 0.70516692496269695
2081 2710 0
2082 2710 0
2443 2710 -0
2444 2710 -0
2445 2710 -0
2446 2710 -0.70516692496269695
2447 2710 -0
2448 2710 -0
853 2711 0
854 2711 0
855 2711 0
856 2711 0
857 2711 0.49840543371991375
858 2711 0
859 2711 -0.067601049744234934
860 2711 -0.99553485319114277
861 2711 -0
862 2711 -0.067376861357772475
863 2711 -0.49382500867881207
864 2711 -0
2077 2711 0
2078 2711 0
2079 2711 0
2080 2711 0
2081 2711 0.70516692496269695
2082 2711 0
2443 2711 -0
2444 2711 -0
2445 2711 -0
2446 2711 -0
2447 2711 -0.70516692496269695
2448 2711 -0
853 2712 0
854 2712 0
855 2712 0
856 2712 0
857 2712 0
858 2712 0.49726039206134764
859 2712 -0
860 2712 -0
861 2712 -0.99668365524927816
862 2712 -0
863 2712 -0
864 2712 -0.49611791657971638
2077 2712 0
2078 2712 0
2079 2712 0
2080 2712 0
2081 2712 0
2082 2712 0.70516692496269695
2443 2712 -0
2444 2712 -0
2445 2712 -0
2446 2712 -0
2447 2712 -0
2448 2712 -0.70516692496269695
1279 2713 0.01662412773633716
1280 2713 0
1281 2713 0
1282 2713 0
1283 2713 0
1284 2713 0
1285 2713 -0.016738711515653665
1286 2713 5.1859358331731552e-06
1287 2713 -0
1288 2713 -0.00011420378000142444
1289 2713 7.763820444667679e-06
1290 2713 -0
2443 2713 0.70516692496269695
2444 2713 0
2445 2713 0
2446 2713 0
2447 2713 0
2448 2713 0
2809 2713 -0.70516692496269695
2810 2713 -0
2811 2713 -0
2812 2713 -0
2813 2713 -0
2814 2713 -0
1279 2714 0
1280 2714 0.016643240039254284
1281 2714 0
1282 2714 0
1283 2714 0
1284 2714 0
1285 2714 -0
1286 2714 -0.016643240039254253
1287 2714 -0
1288 2714 -0
1289 2714 -0
1290 2714 -0
2443 2714 0
2444 2714 0.70516692496269695
2445 2714 0
2446 2714 0
2447 2714 0
2448 2714 0
2809 2714 -0
2810 2714 -0.70516692496269695
2811 2714 -0
2812 2714 -0
2813 2714 -0
2814 2714 -0
1279 2715 0
1280 2715 0
1281 2715 0.016624127736337181
1282 2715 0
1283 2715 0
1284 2715 0
1285 2715 -0
1286 2715 -0
1287 2715 -0.016585933143231667
1288 2715 -0
1289 2715 -0
1290 2715 3.8067926667141391e-05
2443 2715 0
2444 2715 0
2445 2715 0.70516692496269695
2446 2715 0
2447 2715 0
2448 2715 0
2809 2715 -0
2810 2715 -0
2811 2715 -0.70516692496269695
2812 2715 -0
2813 2715 -0
2814 2715 -0
1279 2716 0
1280 2716 0
1281 2716 0
1282 2716 0.49726039206134737
1283 2716 0
1284 2716 0
1285 2716 -0.99668365524927938
1286 2716 0.067678768813813697
1287 2716 -0
1288 2716 -0.49611791657971721
1289 2716 0.067532010077255816
1290 2716 -0
2443 2716 0
2444 2716 0
2445 2716 0
2446 2716 0.70516692496269695
2447 2716 0
2448 2716 0
2809 2716 -0
2810 2716 -0
2811 2716 -0
2812 2716 -0.70516692496269695
2813 2716 -0
2814 2716 -0
1279 2717 0
1280 2717 0
1281 2717 0
1282 2717 0
1283 2717 0.49840543371991375
1284 2717 0
1285 2717 -0.067601049744234934
1286 2717 -0.99553485319114277
1287 2717 -0
1288 2717 -0.067376861357772475
1289 2717 -0.49382500867881207
1290 2717 -0
2443 2717 0
2444 2717 0
2445 2717 0
2446 2717 0
2447 2717 0.70516692496269695
2448 2717 0
2809 2717 -0
2810 2717 -0
2811 2717 -0
2812 2717 -0
2813 2717 -0.70516692496269695
2814 2717 -0
1279 2718 0
1280 2718 0
1281 2718 0
1282 2718 0
1283 2718 0
1284 2718 0.49726039206134764
1285 2718 -0
1286 2718 -0
1287 2718 -0.99668365524927816
1288 2718 -0
1289 2718 -0
1290 2718 -0.49611791657971638
2443 2718 0
2444 2718 0
2445 2718 0
2446 2718 0
2447 2718 0
2448 2718 0.70516692496269695
2809 2718 -0
2810 2718 -0
2811 2718 -0
2812 2718 -0
2813 2718 -0
2814 2718 -0.70516692496269695
1285 2719 0.01662412773633716
1286 2719 0
1287 2719 0
1288 2719 0
1289 2719 0
1290 2719 0
1291 2719 -0.016738711515653665
1292 2719 5.1859358331731552e-06
1293 2719 -0
1294 2719 -0.00011420378000142444
1295 2719 7.763820444667679e-06
1296 2719 -0
2449 2719 0.70516692496269695
2450 2719 0
2451 2719 0
2452 2719 0
2453 2719 0
2454 2719 0
2815 2719 -0.70516692496269695
2816 2719 -0
2817 2719 -0
2818 2719 -0
2819 2719 -0
2820 2719 -0
1285 2720 0
1286 2720 0.016643240039254284
1287 2720 0
1288 2720 0
1289 2720 0
1290 2720 0
1291 2720 -0
1292 2720 -0.016643240039254253
1293 2720 -0
1294 2720 -0
1295 2720 -0
1296 2720 -0
2449 2720 0
2450 2720 0.70516692496269695
2451 2720 0
2452 2720 0
2453 2720 0
2454 2720 0
2815 2720 -0
2816 2720 -0.70516692496269695
2817 2720 -0
2818 2720 -0
2819 2720 -0
2820 2720 -0
1285 2721 0
1286 2721 0
1287 2721 0.016624127736337181
1288 2721 0
1289 2721 0
1290 2721 0
1291 2721 -0
1292 2721 -0
1293 2721 -0.016585933143231667
1294 2721 -0
1295 2721 -0
1296 2721 3.8067926667141391e-05
2449 2721 0
2450 2721 0
2451 2721 0.70516692496269695
2452 2721 0
2453 2721 0
2454 2721 0
2815 2721 -0
2816 2721 -0
2817 2721 -0.70516692496269695
2818 2721 -0
2819 2721 -0
2820 2721 -0
1285 2722 0
1286 2722 0
1287 2722 0
1288 2722 0.49726039206134737
1289 2722 0
1290 2722 0
1291 2722 -0.99668365524927938
1292 2722 0.067678768813813697
1293 2722 -0
1294 2722 -0.49611791657971721
1295 2722 0.067532010077255816
1296 2722 -0
2449 2722 0
2450 2722 0
2451 2722 0
2452 2722 0.70516692496269695
2453 2722 0
2454 2722 0
2815 2722 -0
2816 2722 -0
2817 2722 -0
2818 2722 -0.70516692496269695
2819 2722 -0
2820 2722 -0
1285 2723 0
1286 2723 0
1287 2723 0
1288 2723 0
1289 2723 0.49840543371991375
1290 2723 0
1291 2723 -0.067601049744234934
1292 2723 -0.99553485319114277
1293 2723 -0
1294 2723 -0.067376861357772475
1295 2723 -0.49382500867881207
1296 2723 -0
2449 2723 0
2450 2723 0
2451 2723 0
2452 2723 0
2453 2723 0.70516692496269695
2454 2723 0
2815 2723 -0
2816 2723 -0
2817 2723 -0
2818 2723 -0
2819 2723 -0.70516692496269695
2820 2723 -0
1285 2724 0
1286 2724 0
1287 2724 0
1288 2724 0
1289 2724 0
1290 2724 0.49726039206134764
1291 2724 -0
1292 2724 -0
1293 2724 -0.99668365524927816
1294 2724 -0
1295 2724 -0
1296 2724 -0.49611791657971638
2449 2724 0
2450 2724 0
2451 2724 0
2452 2724 0
2453 2724 0
2454 2724 0.70516692496269695
2815 2724 -0
2816 2724 -0
2817 2724 -0
2818 2724 -0
2819 2724 -0
2820 2724 -0.70516692496269695
427 2725 0.01662412773633716
428 2725 0
429 2725 0
430 2725 0
431 2725 0
432 2725 0
433 2725 -0.016738711515653665
434 2725 5.1859358331731552e-06
435 2725 -0
436 2725 -0.00011420378000142444
437 2725 7.763820444667679e-06
438 2725 -0
1711 2725 0.70516692496269695
1712 2725 0
1713 2725 0
1714 2725 0
1715 2725 0
1716 2725 0
2077 2725 -0.70516692496269695
2078 2725 -0
2079 2725 -0
2080 2725 -0
2081 2725 -0
2082 2725 -0
427 2726 0
428 2726 0.016643240039254284
429 2726 0
430 2726 0
431 2726 0
432 2726 0
433 2726 -0
434 2726 -0.016643240039254253
435 2726 -0
436 2726 -0
437 2726 -0
438 2726 -0
1711 2726 0
1712 2726 0.70516692496269695
1713 2726 0
1714 2726 0
1715 2726 0
1716 2726 0
2077 2726 -0
2078 2726 -0.70516692496269695
2079 2726 -0
2080 2726 -0
2081 2726 -0
2082 2726 -0
427 2727 0
428 2727 0
429 2727 0.016624127736337181
430 2727 0
431 2727 0
432 2727 0
433 2727 -0
434 2727 -0
435 2727 -0.016585933143231667
436 2727 -0
437 2727 -0
438 2727 3.8067926667141391e-05
1711 2727 0
1712 2727 0
1713 2727 0.70516692496269695
1714 2727 0
1715 2727 0
1716 2727 0
2077 2727 -0
2078 2727 -0
2079 2727 -0.70516692496269695
2080 2727 -0
2081 2727 -0
2082 2727 -0
427 2728 0
428 2728 0
429 2728 0
430 2728 0.49726039206134737
431 2728 0
432 2728 0
433 2728 -0.99668365524927938
434 2728 0.067678768813813697
435 2728 -0
436 2728 -0.49611791657971721
437 2728 0.067532010077255816
438 2728 -0
1711 2728 0
1712 2728 0
1713 2728 0
1714 2728 0.70516692496269695
1715 2728 0
1716 2728 0
2077 2728 -0
2078 2728 -0
2079 2728 -0
2080 2728 -0.70516692496269695
2081 2728 -0
2082 2728 -0
427 2729 0
428 2729 0
429 2729 0
430 2729 0
431 2729 0.49840543371991375
432 2729 0
433 2729 -0.067601049744234934
434 2729 -0.99553485319114277
435 2729 -0
436 2729 -0.067376861357772475
437 2729 -0.49382500867881207
438 2729 -0
1711 2729 0
1712 2729 0
1713 2729 0
1714 2729 0
1715 2729 0.70516692496269695
1716 2729 0
2077 2729 -0
2078 2729 -0
2079 2729 -0
2080 2729 -0
2081 2729 -0.70516692496269695
2082 2729 -0
427 2730 0
428 2730 0
429 2730 0
430 2730 0
431 2730 0
432 2730 0.49726039206134764
433 2730 -0
434 2730 -0
435 2730 -0.99668365524927816
436 2730 -0
437 2730 -0
438 2730 -0.49611791657971638
1711 2730 0
1712 2730 0
1713 2730 0
1714 2730 0
1715 2730 0
1716 2730 0.70516692496269695
2077 2730 -0
2078 2730 -0
2079 2730 -0
2080 2730 -0
2081 2730 -0
2082 2730 -0.70516692496269695
433 2731 0.01662412773633716
434 2731 0
435 2731 0
436 2731 0
437 2731 0
438 2731 0
439 2731 -0.016738711515653665
440 2731 5.1859358331731552e-06
441 2731 -0
442 2731 -0.00011420378000142444
443 2731 7.763820444667679e-06
444 2731 -0
1717 2731 0.70516692496269695
1718 2731 0
1719 2731 0
1720 2731 0
1721 2731 0
1722 2731 0
2083 2731 -0.70516692496269695
2084 2731 -0
2085 2731 -0
2086 2731 -0
2087 2731 -0
2088 2731 -0
433 2732 0
434 2732 0.016643240039254284
435 2732 0
436 2732 0
437 2732 0
438 2732 0
439 2732 -0
440 2732 -0.016643240039254253
441 2732 -0
442 2732 -0
443 2732 -0
444 2732 -0
1717 2732 0
1718 2732 0.70516692496269695
1719 2732 0
1720 2732 0
1721 2732 0
1722 2732 0
2083 2732 -0
2084 2732 -0.70516692496269695
2085 2732 -0
2086 2732 -0
2087 2732 -0
2088 2732 -0
433 2733 0
434 2733 0
435 2733 0.016624127736337181
436 2733 0
437 2733 0
438 2733 0
439 2733 -0
440 2733 -0
441 2733 -0.016585933143231667
442 2733 -0
443 2733 -0
444 2733 3.8067926667141391e-05
1717 2733 0
1718 2733 0
1719 2733 0.70516692496269695
1720 2733 0
1721 2733 0
1722 2733 0
2083 2733 -0
2084 2733 -0
2085 2733 -0.70516692496269695
2086 2733 -0
2087 2733 -0
2088 2733 -0
433 2734 0
434 2734 0
435 2734 0
436 2734 0.49726039206134737
437 2734 0
438 2734 0
439 2734 -0.99668365524927938
440 2734 0.067678768813813697
441 2734 -0
442 2734 -0.49611791657971721
443 2734 0.067532010077255816
444 2734 -0
1717 2734 0
1718 2734 0
1719 2734 0
1720 2734 0.70516692496269695
1721 2734 0
1722 2734 0
2083 2734 -0
2084 2734 -0
2085 2734 -0
2086 2734 -0.70516692496269695
2087 2734 -0
2088 2734 -0
433 2735 0
434 2735 0
435 2735 0
436 2735 0
437 2735 0.49840543371991375
438 2735 0
439 2735 -0.067601049744234934
440 2735 -0.99553485319114277
441 2735 -0
442 2735 -0.067376861357772475
443 2735 -0.49382500867881207
444 2735 -0
1717 2735 0
1718 2735 0
1719 2735 0
1720 2735 0
1721 2735 0.70516692496269695
1722 2735 0
2083 2735 -0
2084 2735 -0
2085 2735 -0
2086 2735 -0
2087 2735 -0.70516692496269695
2088 2735 -0
433 2736 0
434 2736 0
435 2736 0
436 2736 0
437 2736 0
438 2736 0.49726039206134764
439 2736 -0
440 2736 -0
441 2736 -0.99668365524927816
442 2736 -0
443 2736 -0
444 2736 -0.49611791657971638
1717 2736 0
1718 2736 0
1719 2736 0
1720 2736 0
1721 2736 0
1722 2736 0.70516692496269695
2083 2736 -0
2084 2736 -0
2085 2736 -0
2086 2736 -0
2087 2736 -0
2088 2736 -0.70516692496269695
859 2737 0.01662412773633716
860 2737 0
861 2737 0
862 2737 0
863 2737 0
864 2737 0
865 2737 -0.016738711515653665
866 2737 5.1859358331731552e-06
867 2737 -0
868 2737 -0.00011420378000142444
869 2737 7.763820444667679e-06
870 2737 -0
2083 2737 0.70516692496269695
2084 2737 0
2085 2737 0
2086 2737 0
2087 2737 0
2088 2737 0
2449 2737 -0.70516692496269695
2450 2737 -0
2451 2737 -0
2452 2737 -0
2453 2737 -0
2454 2737 -0
859 2738 0
860 2738 0.016643240039254284
861 2738 0
862 2738 0
863 2738 0
864 2738 0
865 2738 -0
866 2738 -0.016643240039254253
867 2738 -0
868 2738 -0
869 2738 -0
870 2738 -0
2083 2738 0
2084 2738 0.70516692496269695
2085 2738 0
2086 2738 0
2087 2738 0
2088 2738 0
2449 2738 -0
2450 2738 -0.70516692496269695
2451 2738 -0
2452 2738 -0
2453 2738 -0
2454 2738 -0
859 2739 0
860 2739 0
861 2739 0.016624127736337181
862 2739 0
863 2739 0
864 2739 0
865 2739 -0
866 2739 -0
867 2739 -0.016585933143231667
868 2739 -0
869 2739 -0
870 2739 3.8067926667141391e-05
2083 2739 0
2084 2739 0
2085 2739 0.70516692496269695
2086 2739 0
2087 2739 0
2088 2739 0
2449 2739 -0
2450 2739 -0
2451 2739 -0.70516692496269695
2452 2739 -0
2453 2739 -0
2454 2739 -0
859 2740 0
860 2740 0
861 2740 0
862 2740 0.49726039206134737
863 2740 0
864 2740 0
865 2740 -0.99668365524927938
866 2740 0.067678768813813697
867 2740 -0
868 2740 -0.49611791657971721
869 2740 0.067532010077255816
870 2740 -0
2083 2740 0
2084 2740 0
2085 2740 0
2086 2740 0.70516692496269695
2087 2740 0
2088 2740 0
2449 2740 -0
2450 2740 -0
2451 2740 -0
2452 2740 -0.70516692496269695
2453 2740 -0
2454 2740 -0
859 2741 0
860 2741 0
861 2741 0
862 2741 0
863 2741 0.49840543371991375
864 2741 0
865 2741 -0.067601049744234934
866 2741 -0.99553485319114277
867 2741 -0
868 2741 -0.067376861357772475
869 2741 -0.49382500867881207
870 2741 -0
2083 2741 0
2084 2741 0
2085 2741 0
2086 2741 0
2087 2741 0.70516692496269695
2088 2741 0
2449 2741 -0
2450 2741 -0
2451 2741 -0
2452 2741 -0
2453 2741 -0.70516692496269695
2454 2741 -0
859 2742 0
860 2742 0
861 2742 0
862 2742 0
863 2742 0
864 2742 0.49726039206134764
865 2742 -0
866 2742 -0
867 2742 -0.99668365524927816
868 2742 -0
869 2742 -0
870 2742 -0.49611791657971638
2083 2742 0
2084 2742 0
2085 2742 0
2086 2742 0
2087 2742 0
2088 2742 0.70516692496269695
2449 2742 -0
2450 2742 -0
2451 2742 -0
2452 2742 -0
2453 2742 -0
2454 2742 -0.70516692496269695
865 2743 0.01662412773633716
866 2743 0
867 2743 0
868 2743 0
869 2743 0
870 2743 0
871 2743 -0.016738711515653665
872 2743 5.1859358331731552e-06
873 2743 -0
874 2743 -0.00011420378000142444
875 2743 7.763820444667679e-06
876 2743 -0
2089 2743 0.70516692496269695
2090 2743 0
2091 2743 0
2092 2743 0
2093 2743 0
2094 2743 0
2455 2743 -0.70516692496269695
2456 2743 -0
2457 2743 -0
2458 2743 -0
2459 2743 -0
2460 2743 -0
865 2744 0
866 2744 0.016643240039254284
867 2744 0
868 2744 0
869 2744 0
870 2744 0
871 2744 -0
872 2744 -0.016643240039254253
873 2744 -0
874 2744 -0
875 2744 -0
876 2744 -0
2089 2744 0
2090 2744 0.70516692496269695
2091 2744 0
2092 2744 0
2093 2744 0
2094 2744 0
2455 2744 -0
2456 2744 -0.70516692496269695
2457 2744 -0
2458 2744 -0
2459 2744 -0
2460 2744 -0
865 2745 0
866 2745 0
867 2745 0.016624127736337181
868 2745 0
869 2745 0
870 2745 0
871 2745 -0
872 2745 -0
873 2745 -0.016585933143231667
874 2745 -0
875 2745 -0
876 2745 3.8067926667141391e-05
2089 2745 0
2090 2745 0
2091 2745 0.70516692496269695
2092 2745 0
2093 2745 0
2094 2745 0
2455 2745 -0
2456 2745 -0
2457 2745 -0.70516692496269695
2458 2745 -0
2459 2745 -0
2460 2745 -0
865 2746 0
866 2746 0
867 2746 0
868 2746 0.49726039206134737
869 2746 0
870 2746 0
871 2746 -0.99668365524927938
872 2746 0.067678768813813697
873 2746 -0
874 2746 -0.49611791657971721
875 2746 0.067532010077255816
876 2746 -0
2089 2746 0
2090 2746 0
2091 2746 0
2092 2746 0.70516692496269695
2093 2746 0
2094 2746 0
2455 2746 -0
2456 2746 -0
2457 2746 -0
2458 2746 -0.70516692496269695
2459 2746 -0
2460 2746 -0
865 2747 0
866 2747 0
867 2747 0
868 2747 0
869 2747 0.49840543371991375
870 2747 0
871 2747 -0.067601049744234934
872 2747 -0.99553485319114277
873 2747 -0
874 2747 -0.067376861357772475
875 2747 -0.49382500867881207
876 2747 -0
2089 2747 0
2090 2747 0
2091 2747 0
2092 2747 0
2093 2747 0.70516692496269695
2094 2747 0
2455 2747 -0
2456 2747 -0
2457 2747 -0
2458 2747 -0
2459 2747 -0.70516692496269695
2460 2747 -0
865 2748 0
866 2748 0
867 2748 0
868 2748 0
869 2748 0
870 2748 0.49726039206134764
871 2748 -0
872 2748 -0
873 2748 -0.99668365524927816
874 2748 -0
875 2748 -0
876 2748 -0.49611791657971638
2089 2748 0
2090 2748 0
2091 2748 0
2092 2748 0
2093 2748 0
2094 2748 0.70516692496269695
2455 2748 -0
2456 2748 -0
2457 2748 -0
2458 2748 -0
2459 2748 -0
2460 2748 -0.70516692496269695
7 2749 0.01662412773633716
8 2749 0
9 2749 0
10 2749 0
11 2749 0
12 2749 0
13 2749 -0.016738711515653665
14 2749 5.1859358331731552e-06
15 2749 -0
16 2749 -0.00011420378000142444
17 2749 7.763820444667679e-06
18 2749 -0
1717 2749 -0.70516692496269695
1718 2749 -0
1719 2749 -0
1720 2749 -0
1721 2749 -0
1722 2749 -0
2815 2749 0.70516692496269695
2816 2749 0
2817 2749 0
2818 2749 0
2819 2749 0
2820 2749 0
7 2750 0
8 2750 0.016643240039254284
9 2750 0
10 2750 0
11 2750 0
12 2750 0
13 2750 -0
14 2750 -0.016643240039254253
15 2750 -0
16 2750 -0
17 2750 -0
18 2750 -0
1717 2750 -0
1718 2750 -0.70516692496269695
1719 2750 -0
1720 2750 -0
1721 2750 -0
1722 2750 -0
2815 2750 0
2816 2750 0.70516692496269695
2817 2750 0
2818 2750 0
2819 2750 0
2820 2750 0
7 2751 0
8 2751 0
9 2751 0.016624127736337181
10 2751 0
11 2751 0
12 2751 0
13 2751 -0
14 2751 -0
15 2751 -0.016585933143231667
16 2751 -0
17 2751 -0
18 2751 3.8067926667141391e-05
1717 2751 -0
1718 2751 -0
1719 2751 -0.70516692496269695
1720 2751 -0
1721 2751 -0
1722 2751 -0
2815 2751 0
2816 2751 0
2817 2751 0.70516692496269695
2818 2751 0
2819 2751 0
2820 2751 0
7 2752 0
8 2752 0
9 2752 0
10 2752 0.49726039206134737
11 2752 0
12 2752 0
13 2752 -0.99668365524927938
14 2752 0.067678768813813697
15 2752 -0
16 2752 -0.49611791657971721
17 2752 0.067532010077255816
18 2752 -0
1717 2752 -0
1718 2752 -0
1719 2752 -0
1720 2752 -0.70516692496269695
1721 2752 -0
1722 2752 -0
2815 2752 0
2816 2752 0
2817 2752 0
2818 2752 0.70516692496269695
2819 2752 0
2820 2752 0
7 2753 0
8 2753 0
9 2753 0
10 2753 0
11 2753 0.49840543371991375
12 2753 0
13 2753 -0.067601049744234934
14 2753 -0.99553485319114277
15 2753 -0
16 2753 -0.067376861357772475
17 2753 -0.49382500867881207
18 2753 -0
1717 2753 -0
1718 2753 -0
1719 2753 -0
1720 2753 -0
1721 2753 -0.70516692496269695
1722 2753 -0
2815 2753 0
2816 2753 0
2817 2753 0
2818 2753 0
2819 2753 0.70516692496269695
2820 2753 0
7 2754 0
8 2754 0
9 2754 0
10 2754 0
11 2754 0
12 2754 0.49726039206134764
13 2754 -0
14 2754 -0
15 2754 -0.99668365524927816
16 2754 -0
17 2754 -0
18 2754 -0.49611791657971638
1717 2754 -0
1718 2754 -0
1719 2754 -0
1720 2754 -0
1721 2754 -0
1722 2754 -0.70516692496269695
2815 2754 0
2816 2754 0
2817 2754 0
2818 2754 0
2819 2754 0
2820 2754 0.70516692496269695
13 2755 0.01662412773633716
14 2755 0
15 2755 0
16 2755 0
17 2755 0
18 2755 0
19 2755 -0.016738711515653665
20 2755 5.1859358331731552e-06
21 2755 -0
22 2755 -0.00011420378000142444
23 2755 7.763820444667679e-06
24 2755 -0
1723 2755 -0.70516692496269695
1724 2755 -0
1725 2755 -0
1726 2755 -0
1727 2755 -0
1728 2755 -0
2821 2755 0.70516692496269695
2822 2755 0
2823 2755 0
2824 2755 0
2825 2755 0
2826 2755 0
13 2756 0
14 2756 0.016643240039254284
15 2756 0
16 2756 0
17 2756 0
18 2756 0
19 2756 -0
20 2756 -0.016643240039254253
21 2756 -0
22 2756 -0
23 2756 -0
24 2756 -0
1723 2756 -0
1724 2756 -0.70516692496269695
1725 2756 -0
1726 2756 -0
1727 2756 -0
1728 2756 -0
2821 2756 0
2822 2756 0.70516692496269695
2823 2756 0
2824 2756 0
2825 2756 0
2826 2756 0
13 2757 0
14 2757 0
15 2757 0.016624127736337181
16 2757 0
17 2757 0
18 2757 0
19 2757 -0
20 2757 -0
21 2757 -0.016585933143231667
22 2757 -0
23 2757 -0
24 2757 3.8067926667141391e-05
1723 2757 -0
1724 2757 -0
1725 2757 -0.70516692496269695
1726 2757 -0
1727 2757 -0
1728 2757 -0
2821 2757 0
2822 2757 0
2823 2757 0.70516692496269695
2824 2757 0
2825 2757 0
2826 2757 0
13 2758 0
14 2758 0
15 2758 0
16 2758 0.49726039206134737
17 2758 0
18 2758 0
19 2758 -0.99668365524927938
20 2758 0.067678768813813697
21 2758 -0
22 2758 -0.49611791657971721
23 2758 0.067532010077255816
24 2758 -0
1723 2758 -0
1724 2758 -0
1725 2758 -0
1726 2758 -0.70516692496269695
1727 2758 -0
1728 2758 -0
2821 2758 0
2822 2758 0
2823 2758 0
2824 2758 0.70516692496269695
2825 2758 0
2826 2758 0
13 2759 0
14 2759 0
15 2759 0
16 2759 0
17 2759 0.49840543371991375
18 2759 0
19 2759 -0.067601049744234934
20 2759 -0.99553485319114277
21 2759 -0
22 2759 -0.067376861357772475
23 2759 -0.49382500867881207
24 2759 -0
1723 2759 -0
1724 2759 -0
1725 2759 -0
1726 2759 -0
1727 2759 -0.70516692496269695
1728 2759 -0
2821 2759 0
2822 2759 0
2823 2759 0
2824 2759 0
2825 2759 0.70516692496269695
2826 2759 0
13 2760 0
14 2760 0
15 2760 0
16 2760 0
17 2760 0
18 2760 0.49726039206134764
19 2760 -0
20 2760 -0
21 2760 -0.99668365524927816
22 2760 -0
23 2760 -0
24 2760 -0.49611791657971638
1723 2760 -0
1724 2760 -0
1725 2760 -0
1726 2760 -0
1727 2760 -0
1728 2760 -0.70516692496269695
2821 2760 0
2822 2760 0
2823 2760 0
2824 2760 0
2825 2760 0
2826 2760 0.70516692496269695
439 2761 0.01662412773633716
440 2761 0
441 2761 0
442 2761 0
443 2761 0
444 2761 0
445 2761 -0.016738711515653665
446 2761 5.1859358331731552e-06
447 2761 -0
448 2761 -0.00011420378000142444
449 2761 7.763820444667679e-06
450 2761 -0
1723 2761 0.70516692496269695
1724 2761 0
1725 2761 0
1726 2761 0
1727 2761 0
1728 2761 0
2089 2761 -0.70516692496269695
2090 2761 -0
2091 2761 -0
2092 2761 -0
2093 2761 -0
2094 2761 -0
439 2762 0
440 2762 0.016643240039254284
441 2762 0
442 2762 0
443 2762 0
444 2762 0
445 2762 -0
446 2762 -0.016643240039254253
447 2762 -0
448 2762 -0
449 2762 -0
450 2762 -0
1723 2762 0
1724 2762 0.70516692496269695
1725 2762 0
1726 2762 0
1727 2762 0
1728 2762 0
2089 2762 -0
2090 2762 -0.70516692496269695
2091 2762 -0
2092 2762 -0
2093 2762 -0
2094 2762 -0
439 2763 0
440 2763 0
441 2763 0.016624127736337181
442 2763 0
443 2763 0
444 2763 0
445 2763 -0
446 2763 -0
447 2763 -0.016585933143231667
448 2763 -0
449 2763 -0
450 2763 3.8067926667141391e-05
1723 2763 0
1724 2763 0
1725 2763 0.70516692496269695
1726 2763 0
1727 2763 0
1728 2763 0
2089 2763 -0
2090 2763 -0
2091 2763 -0.70516692496269695
2092 2763 -0
2093 2763 -0
2094 2763 -0
439 2764 0
440 2764 0
441 2764 0
442 2764 0.49726039206134737
443 2764 0
444 2764 0
445 2764 -0.99668365524927938
446 2764 0.067678768813813697
447 2764 -0
448 2764 -0.49611791657971721
449 2764 0.067532010077255816
450 2764 -0
1723 2764 0
1724 2764 0
1725 2764 0
1726 2764 0.70516692496269695
1727 2764 0
1728 2764 0
2089 2764 -0
2090 2764 -0
2091 2764 -0
2092 2764 -0.70516692496269695
2093 2764 -0
2094 2764 -0
439 2765 0
440 2765 0
441 2765 0
442 2765 0
443 2765 0.49840543371991375
444 2765 0
445 2765 -0.067601049744234934
446 2765 -0.99553485319114277
447 2765 -0
448 2765 -0.067376861357772475
449 2765 -0.49382500867881207
450 2765 -0
1723 2765 0
1724 2765 0
1725 2765 0
1726 2765 0
1727 2765 0.70516692496269695
1728 2765 0
2089 2765 -0
2090 2765 -0
2091 2765 -0
2092 2765 -0
2093 2765 -0.70516692496269695
2094 2765 -0
439 2766 0
440 2766 0
441 2766 0
442 2766 0
443 2766 0
444 2766 0.49726039206134764
445 2766 -0
446 2766 -0
447 2766 -0.99668365524927816
448 2766 -0
449 2766 -0
450 2766 -0.49611791657971638
1723 2766 0
1724 2766 0
1725 2766 0
1726 2766 0
1727 2766 0
1728 2766 0.70516692496269695
2089 2766 -0
2090 2766 -0
2091 2766 -0
2092 2766 -0
2093 2766 -0
2094 2766 -0.70516692496269695
445 2767 0.01662412773633716
446 2767 0
447 2767 0
448 2767 0
449 2767 0
450 2767 0
451 2767 -0.016738711515653665
452 2767 5.1859358331731552e-06
453 2767 -0
454 2767 -0.00011420378000142444
455 2767 7.763820444667679e-06
456 2767 -0
1729 2767 0.70516692496269695
1730 2767 0
1731 2767 0
1732 2767 0
1733 2767 0
1734 2767 0
2095 2767 -0.70516692496269695
2096 2767 -0
2097 2767 -0
2098 2767 -0
2099 2767 -0
2100 2767 -0
445 2768 0
446 2768 0.016643240039254284
447 2768 0
448 2768 0
449 2768 0
450 2768 0
451 2768 -0
452 2768 -0.016643240039254253
453 2768 -0
454 2768 -0
455 2768 -0
456 2768 -0
1729 2768 0
1730 2768 0.70516692496269695
1731 2768 0
1732 2768 0
1733 2768 0
1734 2768 0
2095 2768 -0
2096 2768 -0.70516692496269695
2097 2768 -0
2098 2768 -0
2099 2768 -0
2100 2768 -0
445 2769 0
446 2769 0
447 2769 0.016624127736337181
448 2769 0
449 2769 0
450 2769 0
451 2769 -0
452 2769 -0
453 2769 -0.016585933143231667
454 2769 -0
455 2769 -0
456 2769 3.8067926667141391e-05
1729 2769 0
1730 2769 0
1731 2769 0.70516692496269695
1732 2769 0
1733 2769 0
1734 2769 0
2095 2769 -0
2096 2769 -0
2097 2769 -0.70516692496269695
2098 2769 -0
2099 2769 -0
2100 2769 -0
445 2770 0
446 2770 0
447 2770 0
448 2770 0.49726039206134737
449 2770 0
450 2770 0
451 2770 -0.99668365524927938
452 2770 0.067678768813813697
453 2770 -0
454 2770 -0.49611791657971721
455 2770 0.067532010077255816
456 2770 -0
1729 2770 0
1730 2770 0
1731 2770 0
1732 2770 0.70516692496269695
1733 2770 0
1734 2770 0
2095 2770 -0
2096 2770 -0
2097 2770 -0
2098 2770 -0.70516692496269695
2099 2770 -0
2100 2770 -0
445 2771 0
446 2771 0
447 2771 0
448 2771 0
449 2771 0.49840543371991375
450 2771 0
451 2771 -0.067601049744234934
452 2771 -0.99553485319114277
453 2771 -0
454 2771 -0.067376861357772475
455 2771 -0.49382500867881207
456 2771 -0
1729 2771 0
1730 2771 0
1731 2771 0
1732 2771 0
1733 2771 0.70516692496269695
1734 2771 0
2095 2771 -0
2096 2771 -0
2097 2771 -0
2098 2771 -0
2099 2771 -0.70516692496269695
2100 2771 -0
445 2772 0
446 2772 0
447 2772 0
448 2772 0
449 2772 0
450 2772 0.49726039206134764
451 2772 -0
452 2772 -0
453 2772 -0.99668365524927816
454 2772 -0
455 2772 -0
456 2772 -0.49611791657971638
1729 2772 0
1730 2772 0
1731 2772 0
1732 2772 0
1733 2772 0
1734 2772 0.70516692496269695
2095 2772 -0
2096 2772 -0
2097 2772 -0
2098 2772 -0
2099 2772 -0
2100 2772 -0.70516692496269695
1291 2773 0.01662412773633716
1292 2773 0
1293 2773 0
1294 2773 0
1295 2773 0
1296 2773 0
1297 2773 -0.016738711515653665
1298 2773 5.1859358331731552e-06
1299 2773 -0
1300 2773 -0.00011420378000142444
1301 2773 7.763820444667679e-06
1302 2773 -0
2455 2773 0.70516692496269695
2456 2773 0
2457 2773 0
2458 2773 0
2459 2773 0
2460 2773 0
2821 2773 -0.70516692496269695
2822 2773 -0
2823 2773 -0
2824 2773 -0
2825 2773 -0
2826 2773 -0
1291 2774 0
1292 2774 0.016643240039254284
1293 2774 0
1294 2774 0
1295 2774 0
1296 2774 0
1297 2774 -0
1298 2774 -0.016643240039254253
1299 2774 -0
1300 2774 -0
1301 2774 -0
1302 2774 -0
2455 2774 0
2456 2774 0.70516692496269695
2457 2774 0
2458 2774 0
2459 2774 0
2460 2774 0
2821 2774 -0
2822 2774 -0.70516692496269695
2823 2774 -0
2824 2774 -0
2825 2774 -0
2826 2774 -0
1291 2775 0
1292 2775 0
1293 2775 0.016624127736337181
1294 2775 0
1295 2775 0
1296 2775 0
1297 2775 -0
1298 2775 -0
1299 2775 -0.016585933143231667
1300 2775 -0
1301 2775 -0
1302 2775 3.8067926667141391e-05
2455 2775 0
2456 2775 0
2457 2775 0.70516692496269695
2458 2775 0
2459 2775 0
2460 2775 0
2821 2775 -0
2822 2775 -0
2823 2775 -0.70516692496269695
2824 2775 -0
2825 2775 -0
2826 2775 -0
1291 2776 0
1292 2776 0
1293 2776 0
1294 2776 0.49726039206134737
1295 2776 0
1296 2776 0
1297 2776 -0.99668365524927938
1298 2776 0.067678768813813697
1299 2776 -0
1300 2776 -0.49611791657971721
1301 2776 0.067532010077255816
1302 2776 -0
2455 2776 0
2456 2776 0
2457 2776 0
2458 2776 0.70516692496269695
2459 2776 0
2460 2776 0
2821 2776 -0
2822 2776 -0
2823 2776 -0
2824 2776 -0.70516692496269695
2825 2776 -0
2826 2776 -0
1291 2777 0
1292 2777 0
1293 2777 0
1294 2777 0
1295 2777 0.49840543371991375
1296 2777 0
1297 2777 -0.067601049744234934
1298 2777 -0.99553485319114277
1299 2777 -0
1300 2777 -0.067376861357772475
1301 2777 -0.49382500867881207
1302 2777 -0
2455 2777 0
2456 2777 0
2457 2777 0
2458 2777 0
2459 2777 0.70516692496269695
2460 2777 0
2821 2777 -0
2822 2777 -0
2823 2777 -0
2824 2777 -0
2825 2777 -0.70516692496269695
2826 2777 -0
1291 2778 0
1292 2778 0
1293 2778 0
1294 2778 0
1295 2778 0
1296 2778 0.49726039206134764
1297 2778 -0
1298 2778 -0
1299 2778 -0.99668365524927816
1300 2778 -0
1301 2778 -0
1302 2778 -0.49611791657971638
2455 2778 0
2456 2778 0
2457 2778 0
2458 2778 0
2459 2778 0
2460 2778 0.70516692496269695
2821 2778 -0
2822 2778 -0
2823 2778 -0
2824 2778 -0
2825 2778 -0
2826 2778 -0.70516692496269695
1297 2779 0.01662412773633716
1298 2779 0
1299 2779 0
1300 2779 0
1301 2779 0
1302 2779 0
1303 2779 -0.016738711515653665
1304 2779 5.1859358331731552e-06
1305 2779 -0
1306 2779 -0.00011420378000142444
1307 2779 7.763820444667679e-06
1308 2779 -0
2461 2779 0.70516692496269695
2462 2779 0
2463 2779 0
2464 2779 0
2465 2779 0
2466 2779 0
2827 2779 -0.70516692496269695
2828 2779 -0
2829 2779 -0
2830 2779 -0
2831 2779 -0
2832 2779 -0
1297 2780 0
1298 2780 0.016643240039254284
1299 2780 0
1300 2780 0
1301 2780 0
1302 2780 0
1303 2780 -0
1304 2780 -0.016643240039254253
1305 2780 -0
1306 2780 -0
1307 2780 -0
1308 2780 -0
2461 2780 0
2462 2780 0.70516692496269695
2463 2780 0
2464 2780 0
2465 2780 0
2466 2780 0
2827 2780 -0
2828 2780 -0.70516692496269695
2829 2780 -0
2830 2780 -0
2831 2780 -0
2832 2780 -0
1297 2781 0
1298 2781 0
1299 2781 0.016624127736337181
1300 2781 0
1301 2781 0
1302 2781 0
1303 2781 -0
1304 2781 -0
1305 2781 -0.016585933143231667
1306 2781 -0
1307 2781 -0
1308 2781 3.8067926667141391e-05
2461 2781 0
2462 2781 0
2463 2781 0.70516692496269695
2464 2781 0
2465 2781 0
2466 2781 0
2827 2781 -0
2828 2781 -0
2829 2781 -0.70516692496269695
2830 2781 -0
2831 2781 -0
2832 2781 -0
1297 2782 0
1298 2782 0
1299 2782 0
1300 2782 0.49726039206134737
1301 2782 0
1302 2782 0
1303 2782 -0.99668365524927938
1304 2782 0.067678768813813697
1305 2782 -0
1306 2782 -0.49611791657971721
1307 2782 0.067532010077255816
1308 2782 -0
2461 2782 0
2462 2782 0
2463 2782 0
2464 2782 0.70516692496269695
2465 2782 0
2466 2782 0
2827 2782 -0
2828 2782 -0
2829 2782 -0
2830 2782 -0.70516692496269695
2831 2782 -0
2832 2782 -0
1297 2783 0
1298 2783 0
1299 2783 0
1300 2783 0
1301 2783 0.49840543371991375
1302 2783 0
1303 2783 -0.067601049744234934
1304 2783 -0.99553485319114277
1305 2783 -0
1306 2783 -0.067376861357772475
1307 2783 -0.49382500867881207
1308 2783 -0
2461 2783 0
2462 2783 0
2463 2783 0
2464 2783 0
2465 2783 0.70516692496269695
2466 2783 0
2827 2783 -0
2828 2783 -0
2829 2783 -0
2830 2783 -0
2831 2783 -0.70516692496269695
2832 2783 -0
1297 2784 0
1298 2784 0
1299 2784 0
1300 2784 0
1301 2784 0
1302 2784 0.49726039206134764
1303 2784 -0
1304 2784 -0
1305 2784 -0.99668365524927816
1306 2784 -0
1307 2784 -0
1308 2784 -0.49611791657971638
2461 2784 0
2462 2784 0
2463 2784 0
2464 2784 0
2465 2784 0
2466 2784 0.70516692496269695
2827 2784 -0
2828 2784 -0
2829 2784 -0
2830 2784 -0
2831 2784 -0
2832 2784 -0.70516692496269695
19 2785 0.01662412773633716
20 2785 0
21 2785 0
22 2785 0
23 2785 0
24 2785 0
25 2785 -0.016738711515653665
26 2785 5.1859358331731552e-06
27 2785 -0
28 2785 -0.00011420378000142444
29 2785 7.763820444667679e-06
30 2785 -0
1729 2785 -0.70516692496269695
1730 2785 -0
1731 2785 -0
1732 2785 -0
1733 2785 -0
1734 2785 -0
2827 2785 0.70516692496269695
2828 2785 0
2829 2785 0
2830 2785 0
2831 2785 0
2832 2785 0
19 2786 0
20 2786 0.016643240039254284
21 2786 0
22 2786 0
23 2786 0
24 2786 0
25 2786 -0
26 2786 -0.016643240039254253
27 2786 -0
28 2786 -0
29 2786 -0
30 2786 -0
1729 2786 -0
1730 2786 -0.70516692496269695
1731 2786 -0
1732 2786 -0
1733 2786 -0
1734 2786 -0
2827 2786 0
2828 2786 0.70516692496269695
2829 2786 0
2830 2786 0
2831 2786 0
2832 2786 0
19 2787 0
20 2787 0
21 2787 0.016624127736337181
22 2787 0
23 2787 0
24 2787 0
25 2787 -0
26 2787 -0
27 2787 -0.016585933143231667
28 2787 -0
29 2787 -0
30 2787 3.8067926667141391e-05
1729 2787 -0
1730 2787 -0
1731 2787 -0.70516692496269695
1732 2787 -0
1733 2787 -0
1734 2787 -0
2827 2787 0
2828 2787 0
2829 2787 0.70516692496269695
2830 2787 0
2831 2787 0
2832 2787 0
19 2788 0
20 2788 0
21 2788 0
22 2788 0.49726039206134737
23 2788 0
24 2788 0
25 2788 -0.99668365524927938
26 2788 0.067678768813813697
27 2788 -0
28 2788 -0.49611791657971721
29 2788 0.067532010077255816
30 2788 -0
1729 2788 -0
1730 2788 -0
1731 2788 -0
1732 2788 -0.70516692496269695
1733 2788 -0
1734 2788 -0
2827 2788 0
2828 2788 0
2829 2788 0
2830 2788 0.70516692496269695
2831 2788 0
2832 2788 0
19 2789 0
20 2789 0
21 2789 0
22 2789 0
23 2789 0.49840543371991375
24 2789 0
25 2789 -0.067601049744234934
26 2789 -0.99553485319114277
27 2789 -0
28 2789 -0.067376861357772475
29 2789 -0.49382500867881207
30 2789 -0
1729 2789 -0
1730 2789 -0
1731 2789 -0
1732 2789 -0
1733 2789 -0.70516692496269695
1734 2789 -0
2827 2789 0
2828 2789 0
2829 2789 0
2830 2789 0
2831 2789 0.70516692496269695
2832 2789 0
19 2790 0
20 2790 0
21 2790 0
22 2790 0
23 2790 0
24 2790 0.49726039206134764
25 2790 -0
26 2790 -0
27 2790 -0.99668365524927816
28 2790 -0
29 2790 -0
30 2790 -0.49611791657971638
1729 2790 -0
1730 2790 -0
1731 2790 -0
1732 2790 -0
1733 2790 -0
1734 2790 -0.70516692496269695
2827 2790 0
2828 2790 0
2829 2790 0
2830 2790 0
2831 2790 0
2832 2790 0.70516692496269695
25 2791 0.01662412773633716
26 2791 0
27 2791 0
28 2791 0
29 2791 0
30 2791 0
31 2791 -0.016738711515653665
32 2791 5.1859358331731552e-06
33 2791 -0
34 2791 -0.00011420378000142444
35 2791 7.763820444667679e-06
36 2791 -0
1735 2791 -0.70516692496269695
1736 2791 -0
1737 2791 -0
1738 2791 -0
1739 2791 -0
1740 2791 -0
2833 2791 0.70516692496269695
2834 2791 0
2835 2791 0
2836 2791 0
2837 2791 0
2838 2791 0
25 2792 0
26 2792 0.016643240039254284
27 2792 0
28 2792 0
29 2792 0
30 2792 0
31 2792 -0
32 2792 -0.016643240039254253
33 2792 -0
34 2792 -0
35 2792 -0
36 2792 -0
1735 2792 -0
1736 2792 -0.70516692496269695
1737 2792 -0
1738 2792 -0
1739 2792 -0
1740 2792 -0
2833 2792 0
2834 2792 0.70516692496269695
2835 2792 0
2836 2792 0
2837 2792 0
2838 2792 0
25 2793 0
26 2793 0
27 2793 0.016624127736337181
28 2793 0
29 2793 0
30 2793 0
31 2793 -0
32 2793 -0
33 2793 -0.016585933143231667
34 2793 -0
35 2793 -0
36 2793 3.8067926667141391e-05
1735 2793 -0
1736 2793 -0
1737 2793 -0.70516692496269695
1738 2793 -0
1739 2793 -0
1740 2793 -0
2833 2793 0
2834 2793 0
2835 2793 0.70516692496269695
2836 2793 0
2837 2793 0
2838 2793 0
25 2794 0
26 2794 0
27 2794 0
28 2794 0.49726039206134737
29 2794 0
30 2794 0
31 2794 -0.99668365524927938
32 2794 0.067678768813813697
33 2794 -0
34 2794 -0.49611791657971721
35 2794 0.067532010077255816
36 2794 -0
1735 2794 -0
1736 2794 -0
1737 2794 -0
1738 2794 -0.70516692496269695
1739 2794 -0
1740 2794 -0
2833 2794 0
2834 2794 0
2835 2794 0
2836 2794 0.70516692496269695
2837 2794 0
2838 2794 0
25 2795 0
26 2795 0
27 2795 0
28 2795 0
29 2795 0.49840543371991375
30 2795 0
31 2795 -0.067601049744234934
32 2795 -0.99553485319114277
33 2795 -0
34 2795 -0.067376861357772475
35 2795 -0.49382500867881207
36 2795 -0
1735 2795 -0
1736 2795 -0
1737 2795 -0
1738 2795 -0
1739 2795 -0.70516692496269695
1740 2795 -0
2833 2795 0
2834 2795 0
2835 2795 0
2836 2795 0
2837 2795 0.70516692496269695
2838 2795 0
25 2796 0
26 2796 0
27 2796 0
28 2796 0
29 2796 0
30 2796 0.49726039206134764
31 2796 -0
32 2796 -0
33 2796 -0.99668365524927816
34 2796 -0
35 2796 -0
36 2796 -0.49611791657971638
1735 2796 -0
1736 2796 -0
1737 2796 -0
1738 2796 -0
1739 2796 -0
1740 2796 -0.70516692496269695
2833 2796 0
2834 2796 0
2835 2796 0
2836 2796 0
2837 2796 0
2838 2796 0.70516692496269695
871 2797 0.01662412773633716
872 2797 0
873 2797 0
874 2797 0
875 2797 0
876 2797 0
877 2797 -0.016738711515653665
878 2797 5.1859358331731552e-06
879 2797 -0
880 2797 -0.00011420378000142444
881 2797 7.763820444667679e-06
882 2797 -0
2095 2797 0.70516692496269695
2096 2797 0
2097 2797 0
2098 2797 0
2099 2797 0
2100 2797 0
2461 2797 -0.70516692496269695
2462 2797 -0
2463 2797 -0
2464 2797 -0
2465 2797 -0
2466 2797 -0
871 2798 0
872 2798 0.016643240039254284
873 2798 0
874 2798 0
875 2798 0
876 2798 0
877 2798 -0
878 2798 -0.016643240039254253
879 2798 -0
880 2798 -0
881 2798 -0
882 2798 -0
2095 2798 0
2096 2798 0.70516692496269695
2097 2798 0
2098 2798 0
2099 2798 0
2100 2798 0
2461 2798 -0
2462 2798 -0.70516692496269695
2463 2798 -0
2464 2798 -0
2465 2798 -0
2466 2798 -0
871 2799 0
872 2799 0
873 2799 0.016624127736337181
874 2799 0
875 2799 0
876 2799 0
877 2799 -0
878 2799 -0
879 2799 -0.016585933143231667
880 2799 -0
881 2799 -0
882 2799 3.8067926667141391e-05
2095 2799 0
2096 2799 0
2097 2799 0.70516692496269695
2098 2799 0
2099 2799 0
2100 2799 0
2461 2799 -0
2462 2799 -0
2463 2799 -0.70516692496269695
2464 2799 -0
2465 2799 -0
2466 2799 -0
871 2800 0
872 2800 0
873 2800 0
874 2800 0.49726039206134737
875 2800 0
876 2800 0
877 2800 -0.99668365524927938
878 2800 0.067678768813813697
879 2800 -0
880 2800 -0.49611791657971721
881 2800 0.067532010077255816
882 2800 -0
2095 2800 0
2096 2800 0
2097 2800 0
2098 2800 0.70516692496269695
2099 2800 0
2100 2800 0
2461 2800 -0
2462 2800 -0
2463 2800 -0
2464 2800 -0.70516692496269695
2465 2800 -0
2466 2800 -0
871 2801 0
872 2801 0
873 2801 0
874 2801 0
875 2801 0.49840543371991375
876 2801 0
877 2801 -0.067601049744234934
878 2801 -0.99553485319114277
879 2801 -0
880 2801 -0.067376861357772475
881 2801 -0.49382500867881207
882 2801 -0
2095 2801 0
2096 2801 0
2097 2801 0
2098 2801 0
2099 2801 0.70516692496269695
2100 2801 0
2461 2801 -0
2462 2801 -0
2463 2801 -0
2464 2801 -0
2465 2801 -0.70516692496269695
2466 2801 -0
871 2802 0
872 2802 0
873 2802 0
874 2802 0
875 2802 0
876 2802 0.49726039206134764
877 2802 -0
878 2802 -0
879 2802 -0.99668365524927816
880 2802 -0
881 2802 -0
882 2802 -0.49611791657971638
2095 2802 0
2096 2802 0
2097 2802 0
2098 2802 0
2099 2802 0
2100 2802 0.70516692496269695
2461 2802 -0
2462 2802 -0
2463 2802 -0
2464 2802 -0
2465 2802 -0
2466 2802 -0.70516692496269695
877 2803 0.01662412773633716
878 2803 0
879 2803 0
880 2803 0
881 2803 0
882 2803 0
883 2803 -0.016738711515653665
884 2803 5.1859358331731552e-06
885 2803 -0
886 2803 -0.00011420378000142444
887 2803 7.763820444667679e-06
888 2803 -0
2101 2803 0.70516692496269695
2102 2803 0
2103 2803 0
2104 2803 0
2105 2803 0
2106 2803 0
2467 2803 -0.70516692496269695
2468 2803 -0
2469 2803 -0
2470 2803 -0
2471 2803 -0
2472 2803 -0
877 2804 0
878 2804 0.016643240039254284
879 2804 0
880 2804 0
881 2804 0
882 2804 0
883 2804 -0
884 2804 -0.016643240039254253
885 2804 -0
886 2804 -0
887 2804 -0
888 2804 -0
2101 2804 0
2102 2804 0.70516692496269695
2103 2804 0
2104 2804 0
2105 2804 0
2106 2804 0
2467 2804 -0
2468 2804 -0.70516692496269695
2469 2804 -0
2470 2804 -0
2471 2804 -0
2472 2804 -0
877 2805 0
878 2805 0
879 2805 0.016624127736337181
880 2805 0
881 2805 0
882 2805 0
883 2805 -0
884 2805 -0
885 2805 -0.016585933143231667
886 2805 -0
887 2805 -0
888 2805 3.8067926667141391e-05
2101 2805 0
2102 2805 0
2103 2805 0.70516692496269695
2104 2805 0
2105 2805 0
2106 2805 0
2467 2805 -0
2468 2805 -0
2469 2805 -0.70516692496269695
2470 2805 -0
2471 2805 -0
2472 2805 -0
877 2806 0
878 2806 0
879 2806 0
880 2806 0.49726039206134737
881 2806 0
882 2806 0
883 2806 -0.99668365524927938
884 2806 0.067678768813813697
885 2806 -0
886 2806 -0.49611791657971721
887 2806 0.067532010077255816
888 2806 -0
2101 2806 0
2102 2806 0
2103 2806 0
2104 2806 0.70516692496269695
2105 2806 0
2106 2806 0
2467 2806 -0
2468 2806 -0
2469 2806 -0
2470 2806 -0.70516692496269695
2471 2806 -0
2472 2806 -0
877 2807 0
878 2807 0
879 2807 0
880 2807 0
881 2807 0.49840543371991375
882 2807 0
883 2807 -0.067601049744234934
884 2807 -0.99553485319114277
885 2807 -0
886 2807 -0.067376861357772475
887 2807 -0.49382500867881207
888 2807 -0
2101 2807 0
2102 2807 0
2103 2807 0
2104 2807 0
2105 2807 0.70516692496269695
2106 2807 0
2467 2807 -0
2468 2807 -0
2469 2807 -0
2470 2807 -0
2471 2807 -0.70516692496269695
2472 2807 -0
877 2808 0
878 2808 0
879 2808 0
880 2808 0
881 2808 0
882 2808 0.49726039206134764
883 2808 -0
884 2808 -0
885 2808 -0.99668365524927816
886 2808 -0
887 2808 -0
888 2808 -0.49611791657971638
2101 2808 0
2102 2808 0
2103 2808 0
2104 2808 0
2105 2808 0
2106 2808 0.70516692496269695
2467 2808 -0
2468 2808 -0
2469 2808 -0
2470 2808 -0
2471 2808 -0
2472 2808 -0.70516692496269695
1303 2809 0.01662412773633716
1304 2809 0
1305 2809 0
1306 2809 0
1307 2809 0
1308 2809 0
1309 2809 -0.016738711515653665
1310 2809 5.1859358331731552e-06
1311 2809 -0
1312 2809 -0.00011420378000142444
1313 2809 7.763820444667679e-06
1314 2809 -0
2467 2809 0.70516692496269695
2468 2809 0
2469 2809 0
2470 2809 0
2471 2809 0
2472 2809 0
2833 2809 -0.70516692496269695
2834 2809 -0
2835 2809 -0
2836 2809 -0
2837 2809 -0
2838 2809 -0
1303 2810 0
1304 2810 0.016643240039254284
1305 2810 0
1306 2810 0
1307 2810 0
1308 2810 0
1309 2810 -0
1310 2810 -0.016643240039254253
1311 2810 -0
1312 2810 -0
1313 2810 -0
1314 2810 -0
2467 2810 0
2468 2810 0.70516692496269695
2469 2810 0
2470 2810 0
2471 2810 0
2472 2810 0
2833 2810 -0
2834 2810 -0.70516692496269695
2835 2810 -0
2836 2810 -0
2837 2810 -0
2838 2810 -0
1303 2811 0
1304 2811 0
1305 2811 0.016624127736337181
1306 2811 0
1307 2811 0
1308 2811 0
1309 2811 -0
1310 2811 -0
1311 2811 -0.016585933143231667
1312 2811 -0
1313 2811 -0
1314 2811 3.8067926667141391e-05
2467 2811 0
2468 2811 0
2469 2811 0.70516692496269695
2470 2811 0
2471 2811 0
2472 2811 0
2833 2811 -0
2834 2811 -0
2835 2811 -0.70516692496269695
2836 2811 -0
2837 2811 -0
2838 2811 -0
1303 2812 0
1304 2812 0
1305 2812 0
1306 2812 0.49726039206134737
1307 2812 0
1308 2812 0
1309 2812 -0.99668365524927938
1310 2812 0.067678768813813697
1311 2812 -0
1312 2812 -0.49611791657971721
1313 2812 0.067532010077255816
1314 2812 -0
2467 2812 0
2468 2812 0
2469 2812 0
2470 2812 0.70516692496269695
2471 2812 0
2472 2812 0
2833 2812 -0
2834 2812 -0
2835 2812 -0
2836 2812 -0.70516692496269695
2837 2812 -0
2838 2812 -0
1303 2813 0
1304 2813 0
1305 2813 0
1306 2813 0
1307 2813 0.49840543371991375
1308 2813 0
1309 2813 -0.067601049744234934
1310 2813 -0.99553485319114277
1311 2813 -0
1312 2813 -0.067376861357772475
1313 2813 -0.49382500867881207
1314 2813 -0
2467 2813 0
2468 2813 0
2469 2813 0
2470 2813 0
2471 2813 0.70516692496269695
2472 2813 0
2833 2813 -0
2834 2813 -0
2835 2813 -0
2836 2813 -0
2837 2813 -0.70516692496269695
2838 2813 -0
1303 2814 0
1304 2814 0
1305 2814 0
1306 2814 0
1307 2814 0
1308 2814 0.49726039206134764
1309 2814 -0
1310 2814 -0
1311 2814 -0.99668365524927816
1312 2814 -0
1313 2814 -0
1314 2814 -0.49611791657971638
2467 2814 0
2468 2814 0
2469 2814 0
2470 2814 0
2471 2814 0
2472 2814 0.70516692496269695
2833 2814 -0
2834 2814 -0
2835 2814 -0
2836 2814 -0
2837 2814 -0
2838 2814 -0.70516692496269695
1309 2815 0.01662412773633716
1310 2815 0
1311 2815 0
1312 2815 0
1313 2815 0
1314 2815 0
1315 2815 -0.016738711515653665
1316 2815 5.1859358331731552e-06
1317 2815 -0
1318 2815 -0.00011420378000142444
1319 2815 7.763820444667679e-06
1320 2815 -0
2473 2815 0.70516692496269695
2474 2815 0
2475 2815 0
2476 2815 0
2477 2815 0
2478 2815 0
2839 2815 -0.70516692496269695
2840 2815 -0
2841 2815 -0
2842 2815 -0
2843 2815 -0
2844 2815 -0
1309 2816 0
1310 2816 0.016643240039254284
1311 2816 0
1312 2816 0
1313 2816 0
1314 2816 0
1315 2816 -0
1316 2816 -0.016643240039254253
1317 2816 -0
1318 2816 -0
1319 2816 -0
1320 2816 -0
2473 2816 0
2474 2816 0.70516692496269695
2475 2816 0
2476 2816 0
2477 2816 0
2478 2816 0
2839 2816 -0
2840 2816 -0.70516692496269695
2841 2816 -0
2842 2816 -0
2843 2816 -0
2844 2816 -0
1309 2817 0
1310 2817 0
1311 2817 0.016624127736337181
1312 2817 0
1313 2817 0
1314 2817 0
1315 2817 -0
1316 2817 -0
1317 2817 -0.016585933143231667
1318 2817 -0
1319 2817 -0
1320 2817 3.8067926667141391e-05
2473 2817 0
2474 2817 0
2475 2817 0.70516692496269695
2476 2817 0
2477 2817 0
2478 2817 0
2839 2817 -0
2840 2817 -0
2841 2817 -0.70516692496269695
2842 2817 -0
2843 2817 -0
2844 2817 -0
1309 2818 0
1310 2818 0
1311 2818 0
1312 2818 0.49726039206134737
1313 2818 0
1314 2818 0
1315 2818 -0.99668365524927938
1316 2818 0.067678768813813697
1317 2818 -0
1318 2818 -0.49611791657971721
1319 2818 0.067532010077255816
1320 2818 -0
2473 2818 0
2474 2818 0
2475 2818 0
2476 2818 0.70516692496269695
2477 2818 0
2478 2818 0
2839 2818 -0
2840 2818 -0
2841 2818 -0
2842 2818 -0.70516692496269695
2843 2818 -0
2844 2818 -0
1309 2819 0
1310 2819 0
1311 2819 0
1312 2819 0
1313 2819 0.49840543371991375
1314 2819 0
1315 2819 -0.067601049744234934
1316 2819 -0.99553485319114277
1317 2819 -0
1318 2819 -0.067376861357772475
1319 2819 -0.49382500867881207
1320 2819 -0
2473 2819 0
2474 2819 0
2475 2819 0
2476 2819 0
2477 2819 0.70516692496269695
2478 2819 0
2839 2819 -0
2840 2819 -0
2841 2819 -0
2842 2819 -0
2843 2819 -0.70516692496269695
2844 2819 -0
1309 2820 0
1310 2820 0
1311 2820 0
1312 2820 0
1313 2820 0
1314 2820 0.49726039206134764
1315 2820 -0
1316 2820 -0
1317 2820 -0.99668365524927816
1318 2820 -0
1319 2820 -0
1320 2820 -0.49611791657971638
2473 2820 0
2474 2820 0
2475 2820 0
2476 2820 0
2477 2820 0
2478 2820 0.70516692496269695
2839 2820 -0
2840 2820 -0
2841 2820 -0
2842 2820 -0
2843 2820 -0
2844 2820 -0.70516692496269695
451 2821 0.01662412773633716
452 2821 0
453 2821 0
454 2821 0
455 2821 0
456 2821 0
457 2821 -0.016738711515653665
458 2821 5.1859358331731552e-06
459 2821 -0
460 2821 -0.00011420378000142444
461 2821 7.763820444667679e-06
462 2821 -0
1735 2821 0.70516692496269695
1736 2821 0
1737 2821 0
1738 2821 0
1739 2821 0
1740 2821 0
2101 2821 -0.70516692496269695
2102 2821 -0
2103 2821 -0
2104 2821 -0
2105 2821 -0
2106 2821 -0
451 2822 0
452 2822 0.016643240039254284
453 2822 0
454 2822 0
455 2822 0
456 2822 0
457 2822 -0
458 2822 -0.016643240039254253
459 2822 -0
460 2822 -0
461 2822 -0
462 2822 -0
1735 2822 0
1736 2822 0.70516692496269695
1737 2822 0
1738 2822 0
1739 2822 0
1740 2822 0
2101 2822 -0
2102 2822 -0.70516692496269695
2103 2822 -0
2104 2822 -0
2105 2822 -0
2106 2822 -0
451 2823 0
452 2823 0
453 2823 0.016624127736337181
454 2823 0
455 2823 0
456 2823 0
457 2823 -0
458 2823 -0
459 2823 -0.016585933143231667
460 2823 -0
461 2823 -0
462 2823 3.8067926667141391e-05
1735 2823 0
1736 2823 0
1737 2823 0.70516692496269695
1738 2823 0
1739 2823 0
1740 2823 0
2101 2823 -0
2102 2823 -0
2103 2823 -0.70516692496269695
2104 2823 -0
2105 2823 -0
2106 2823 -0
451 2824 0
452 2824 0
453 2824 0
454 2824 0.49726039206134737
455 2824 0
456 2824 0
457 2824 -0.99668365524927938
458 2824 0.067678768813813697
459 2824 -0
460 2824 -0.49611791657971721
461 2824 0.067532010077255816
462 2824 -0
1735 2824 0
1736 2824 0
1737 2824 0
1738 2824 0.70516692496269695
1739 2824 0
1740 2824 0
2101 2824 -0
2102 2824 -0
2103 2824 -0
2104 2824 -0.70516692496269695
2105 2824 -0
2106 2824 -0
451 2825 0
452 2825 0
453 2825 0
454 2825 0
455 2825 0.49840543371991375
456 2825 0
457 2825 -0.067601049744234934
458 2825 -0.99553485319114277
459 2825 -0
460 2825 -0.067376861357772475
461 2825 -0.49382500867881207
462 2825 -0
1735 2825 0
1736 2825 0
1737 2825 0
1738 2825 0
1739 2825 0.70516692496269695
1740 2825 0
2101 2825 -0
2102 2825 -0
2103 2825 -0
2104 2825 -0
2105 2825 -0.70516692496269695
2106 2825 -0
451 2826 0
452 2826 0
453 2826 0
454 2826 0
455 2826 0
456 2826 0.49726039206134764
457 2826 -0
458 2826 -0
459 2826 -0.99668365524927816
460 2826 -0
461 2826 -0
462 2826 -0.49611791657971638
1735 2826 0
1736 2826 0
1737 2826 0
1738 2826 0
1739 2826 0
1740 2826 0.70516692496269695
2101 2826 -0
2102 2826 -0
2103 2826 -0
2104 2826 -0
2105 2826 -0
2106 2826 -0.70516692496269695
457 2827 0.01662412773633716
458 2827 0
459 2827 0
460 2827 0
461 2827 0
462 2827 0
463 2827 -0.016738711515653665
464 2827 5.1859358331731552e-06
465 2827 -0
466 2827 -0.00011420378000142444
467 2827 7.763820444667679e-06
468 2827 -0
1741 2827 0.70516692496269695
1742 2827 0
1743 2827 0
1744 2827 0
1745 2827 0
1746 2827 0
2107 2827 -0.70516692496269695
2108 2827 -0
2109 2827 -0
2110 2827 -0
2111 2827 -0
2112 2827 -0
457 2828 0
458 2828 0.016643240039254284
459 2828 0
460 2828 0
461 2828 0
462 2828 0
463 2828 -0
464 2828 -0.016643240039254253
465 2828 -0
466 2828 -0
467 2828 -0
468 2828 -0
1741 2828 0
1742 2828 0.70516692496269695
1743 2828 0
1744 2828 0
1745 2828 0
1746 2828 0
2107 2828 -0
2108 2828 -0.70516692496269695
2109 2828 -0
2110 2828 -0
2111 2828 -0
2112 2828 -0
457 2829 0
458 2829 0
459 2829 0.016624127736337181
460 2829 0
461 2829 0
462 2829 0
463 2829 -0
464 2829 -0
465 2829 -0.016585933143231667
466 2829 -0
467 2829 -0
468 2829 3.8067926667141391e-05
1741 2829 0
1742 2829 0
1743 2829 0.70516692496269695
1744 2829 0
1745 2829 0
1746 2829 0
2107 2829 -0
2108 2829 -0
2109 2829 -0.70516692496269695
2110 2829 -0
2111 2829 -0
2112 2829 -0
457 2830 0
458 2830 0
459 2830 0
460 2830 0.49726039206134737
461 2830 0
462 2830 0
463 2830 -0.99668365524927938
464 2830 0.067678768813813697
465 2830 -0
466 2830 -0.49611791657971721
467 2830 0.067532010077255816
468 2830 -0
1741 2830 0
1742 2830 0
1743 2830 0
1744 2830 0.70516692496269695
1745 2830 0
1746 2830 0
2107 2830 -0
2108 2830 -0
2109 2830 -0
2110 2830 -0.70516692496269695
2111 2830 -0
2112 2830 -0
457 2831 0
458 2831 0
459 2831 0
460 2831 0
461 2831 0.49840543371991375
462 2831 0
463 2831 -0.067601049744234934
464 2831 -0.99553485319114277
465 2831 -0
466 2831 -0.067376861357772475
467 2831 -0.49382500867881207
468 2831 -0
1741 2831 0
1742 2831 0
1743 2831 0
1744 2831 0
1745 2831 0.70516692496269695
1746 2831 0
2107 2831 -0
2108 2831 -0
2109 2831 -0
2110 2831 -0
2111 2831 -0.70516692496269695
2112 2831 -0
457 2832 0
458 2832 0
459 2832 0
460 2832 0
461 2832 0
462 2832 0.49726039206134764
463 2832 -0
464 2832 -0
465 2832 -0.99668365524927816
466 2832 -0
467 2832 -0
468 2832 -0.49611791657971638
1741 2832 0
1742 2832 0
1743 2832 0
1744 2832 0
1745 2832 0
1746 2832 0.70516692496269695
2107 2832 -0
2108 2832 -0
2109 2832 -0
2110 2832 -0
2111 2832 -0
2112 2832 -0.70516692496269695
883 2833 0.01662412773633716
884 2833 0
885 2833 0
886 2833 0
887 2833 0
888 2833 0
889 2833 -0.016738711515653665
890 2833 5.1859358331731552e-06
891 2833 -0
892 2833 -0.00011420378000142444
893 2833 7.763820444667679e-06
894 2833 -0
2107 2833 0.70516692496269695
2108 2833 0
2109 2833 0
2110 2833 0
2111 2833 0
2112 2833 0
2473 2833 -0.70516692496269695
2474 2833 -0
2475 2833 -0
2476 2833 -0
2477 2833 -0
2478 2833 -0
883 2834 0
884 2834 0.016643240039254284
885 2834 0
886 2834 0
887 2834 0
888 2834 0
889 2834 -0
890 2834 -0.016643240039254253
891 2834 -0
892 2834 -0
893 2834 -0
894 2834 -0
2107 2834 0
2108 2834 0.70516692496269695
2109 2834 0
2110 2834 0
2111 2834 0
2112 2834 0
2473 2834 -0
2474 2834 -0.70516692496269695
2475 2834 -0
2476 2834 -0
2477 2834 -0
2478 2834 -0
883 2835 0
884 2835 0
885 2835 0.016624127736337181
886 2835 0
887 2835 0
888 2835 0
889 2835 -0
890 2835 -0
891 2835 -0.016585933143231667
892 2835 -0
893 2835 -0
894 2835 3.8067926667141391e-05
2107 2835 0
2108 2835 0
2109 2835 0.70516692496269695
2110 2835 0
2111 2835 0
2112 2835 0
2473 2835 -0
2474 2835 -0
2475 2835 -0.70516692496269695
2476 2835 -0
2477 2835 -0
2478 2835 -0
883 2836 0
884 2836 0
885 2836 0
886 2836 0.49726039206134737
887 2836 0
888 2836 0
889 2836 -0.99668365524927938
890 2836 0.067678768813813697
891 2836 -0
892 2836 -0.49611791657971721
893 2836 0.067532010077255816
894 2836 -0
2107 2836 0
2108 2836 0
2109 2836 0
2110 2836 0.70516692496269695
2111 2836 0
2112 2836 0
2473 2836 -0
2474 2836 -0
2475 2836 -0
2476 2836 -0.70516692496269695
2477 2836 -0
2478 2836 -0
883 2837 0
884 2837 0
885 2837 0
886 2837 0
887 2837 0.49840543371991375
888 2837 0
889 2837 -0.067601049744234934
890 2837 -0.99553485319114277
891 2837 -0
892 2837 -0.067376861357772475
893 2837 -0.49382500867881207
894 2837 -0
2107 2837 0
2108 2837 0
2109 2837 0
2110 2837 0
2111 2837 0.70516692496269695
2112 2837 0
2473 2837 -0
2474 2837 -0
2475 2837 -0
2476 2837 -0
2477 2837 -0.70516692496269695
2478 2837 -0
883 2838 0
884 2838 0
885 2838 0
886 2838 0
887 2838 0
888 2838 0.49726039206134764
889 2838 -0
890 2838 -0
891 2838 -0.99668365524927816
892 2838 -0
893 2838 -0
894 2838 -0.49611791657971638
2107 2838 0
2108 2838 0
2109 2838 0
2110 2838 0
2111 2838 0
2112 2838 0.70516692496269695
2473 2838 -0
2474 2838 -0
2475 2838 -0
2476 2838 -0
2477 2838 -0
2478 2838 -0.70516692496269695
889 2839 0.01662412773633716
890 2839 0
891 2839 0
892 2839 0
893 2839 0
894 2839 0
895 2839 -0.016738711515653665
896 2839 5.1859358331731552e-06
897 2839 -0
898 2839 -0.00011420378000142444
899 2839 7.763820444667679e-06
900 2839 -0
2113 2839 0.70516692496269695
2114 2839 0
2115 2839 0
2116 2839 0
2117 2839 0
2118 2839 0
2479 2839 -0.70516692496269695
2480 2839 -0
2481 2839 -0
2482 2839 -0
2483 2839 -0
2484 2839 -0
889 2840 0
890 2840 0.016643240039254284
891 2840 0
892 2840 0
893 2840 0
894 2840 0
895 2840 -0
896 2840 -0.016643240039254253
897 2840 -0
898 2840 -0
899 2840 -0
900 2840 -0
2113 2840 0
2114 2840 0.70516692496269695
2115 2840 0
2116 2840 0
2117 2840 0
2118 2840 0
2479 2840 -0
2480 2840 -0.70516692496269695
2481 2840 -0
2482 2840 -0
2483 2840 -0
2484 2840 -0
889 2841 0
890 2841 0
891 2841 0.016624127736337181
892 2841 0
893 2841 0
894 2841 0
895 2841 -0
896 2841 -0
897 2841 -0.016585933143231667
898 2841 -0
899 2841 -0
900 2841 3.8067926667141391e-05
2113 2841 0
2114 2841 0
2115 2841 0.70516692496269695
2116 2841 0
2117 2841 0
2118 2841 0
2479 2841 -0
2480 2841 -0
2481 2841 -0.70516692496269695
2482 2841 -0
2483 2841 -0
2484 2841 -0
889 2842 0
890 2842 0
891 2842 0
892 2842 0.49726039206134737
893 2842 0
894 2842 0
895 2842 -0.99668365524927938
896 2842 0.067678768813813697
897 2842 -0
898 2842 -0.49611791657971721
899 2842 0.067532010077255816
900 2842 -0
2113 2842 0
2114 2842 0
2115 2842 0
2116 2842 0.70516692496269695
2117 2842 0
2118 2842 0
2479 2842 -0
2480 2842 -0
2481 2842 -0
2482 2842 -0.70516692496269695
2483 2842 -0
2484 2842 -0
889 2843 0
890 2843 0
891 2843 0
892 2843 0
893 2843 0.49840543371991375
894 2843 0
895 2843 -0.067601049744234934
896 2843 -0.99553485319114277
897 2843 -0
898 2843 -0.067376861357772475
899 2843 -0.49382500867881207
900 2843 -0
2113 2843 0
2114 2843 0
2115 2843 0
2116 2843 0
2117 2843 0.70516692496269695
2118 2843 0
2479 2843 -0
2480 2843 -0
2481 2843 -0
2482 2843 -0
2483 2843 -0.70516692496269695
2484 2843 -0
889 2844 0
890 2844 0
891 2844 0
892 2844 0
893 2844 0
894 2844 0.49726039206134764
895 2844 -0
896 2844 -0
897 2844 -0.99668365524927816
898 2844 -0
899 2844 -0
900 2844 -0.49611791657971638
2113 2844 0
2114 2844 0
2115 2844 0
2116 2844 0
2117 2844 0
2118 2844 0.70516692496269695
2479 2844 -0
2480 2844 -0
2481 2844 -0
2482 2844 -0
2483 2844 -0
2484 2844 -0.70516692496269695
31 2845 0.01662412773633716
32 2845 0
33 2845 0
34 2845 0
35 2845 0
36 2845 0
37 2845 -0.016738711515653665
38 2845 5.1859358331731552e-06
39 2845 -0
40 2845 -0.00011420378000142444
41 2845 7.763820444667679e-06
42 2845 -0
1741 2845 -0.70516692496269695
1742 2845 -0
1743 2845 -0
1744 2845 -0
1745 2845 -0
1746 2845 -0
2839 2845 0.70516692496269695
2840 2845 0
2841 2845 0
2842 2845 0
2843 2845 0
2844 2845 0
31 2846 0
32 2846 0.016643240039254284
33 2846 0
34 2846 0
35 2846 0
36 2846 0
37 2846 -0
38 2846 -0.016643240039254253
39 2846 -0
40 2846 -0
41 2846 -0
42 2846 -0
1741 2846 -0
1742 2846 -0.70516692496269695
1743 2846 -0
1744 2846 -0
1745 2846 -0
1746 2846 -0
2839 2846 0
2840 2846 0.70516692496269695
2841 2846 0
2842 2846 0
2843 2846 0
2844 2846 0
31 2847 0
32 2847 0
33 2847 0.016624127736337181
34 2847 0
35 2847 0
36 2847 0
37 2847 -0
38 2847 -0
39 2847 -0.016585933143231667
40 2847 -0
41 2847 -0
42 2847 3.8067926667141391e-05
1741 2847 -0
1742 2847 -0
1743 2847 -0.70516692496269695
1744 2847 -0
1745 2847 -0
1746 2847 -0
2839 2847 0
2840 2847 0
2841 2847 0.70516692496269695
2842 2847 0
2843 2847 0
2844 2847 0
31 2848 0
32 2848 0
33 2848 0
34 2848 0.49726039206134737
35 2848 0
36 2848 0
37 2848 -0.99668365524927938
38 2848 0.067678768813813697
39 2848 -0
40 2848 -0.49611791657971721
41 2848 0.067532010077255816
42 2848 -0
1741 2848 -0
1742 2848 -0
1743 2848 -0
1744 2848 -0.70516692496269695
1745 2848 -0
1746 2848 -0
2839 2848 0
2840 2848 0
2841 2848 0
2842 2848 0.70516692496269695
2843 2848 0
2844 2848 0
31 2849 0
32 2849 0
33 2849 0
34 2849 0
35 2849 0.49840543371991375
36 2849 0
37 2849 -0.067601049744234934
38 2849 -0.99553485319114277
39 2849 -0
40 2849 -0.067376861357772475
41 2849 -0.49382500867881207
42 2849 -0
1741 2849 -0
1742 2849 -0
1743 2849 -0
1744 2849 -0
1745 2849 -0.70516692496269695
1746 2849 -0
2839 2849 0
2840 2849 0
2841 2849 0
2842 2849 0
2843 2849 0.70516692496269695
2844 2849 0
31 2850 0
32 2850 0
33 2850 0
34 2850 0
35 2850 0
36 2850 0.49726039206134764
37 2850 -0
38 2850 -0
39 2850 -0.99668365524927816
40 2850 -0
41 2850 -0
42 2850 -0.49611791657971638
1741 2850 -0
1742 2850 -0
1743 2850 -0
1744 2850 -0
1745 2850 -0
1746 2850 -0.70516692496269695
2839 2850 0
2840 2850 0
2841 2850 0
2842 2850 0
2843 2850 0
2844 2850 0.70516692496269695
37 2851 0.01662412773633716
38 2851 0
39 2851 0
40 2851 0
41 2851 0
42 2851 0
43 2851 -0.016738711515653665
44 2851 5.1859358331731552e-06
45 2851 -0
46 2851 -0.00011420378000142444
47 2851 7.763820444667679e-06
48 2851 -0
1747 2851 -0.70516692496269695
1748 2851 -0
1749 2851 -0
1750 2851 -0
1751 2851 -0
1752 2851 -0
2845 2851 0.70516692496269695
2846 2851 0
2847 2851 0
2848 2851 0
2849 2851 0
2850 2851 0
37 2852 0
38 2852 0.016643240039254284
39 2852 0
40 2852 0
41 2852 0
42 2852 0
43 2852 -0
44 2852 -0.016643240039254253
45 2852 -0
46 2852 -0
47 2852 -0
48 2852 -0
1747 2852 -0
1748 2852 -0.70516692496269695
1749 2852 -0
1750 2852 -0
1751 2852 -0
1752 2852 -0
2845 2852 0
2846 2852 0.70516692496269695
2847 2852 0
2848 2852 0
2849 2852 0
2850 2852 0
37 2853 0
38 2853 0
39 2853 0.016624127736337181
40 2853 0
41 2853 0
42 2853 0
43 2853 -0
44 2853 -0
45 2853 -0.016585933143231667
46 2853 -0
47 2853 -0
48 2853 3.8067926667141391e-05
1747 2853 -0
1748 2853 -0
1749 2853 -0.70516692496269695
1750 2853 -0
1751 2853 -0
1752 2853 -0
2845 2853 0
2846 2853 0
2847 2853 0.70516692496269695
2848 2853 0
2849 2853 0
2850 2853 0
37 2854 0
38 2854 0
39 2854 0
40 2854 0.49726039206134737
41 2854 0
42 2854 0
43 2854 -0.99668365524927938
44 2854 0.067678768813813697
45 2854 -0
46 2854 -0.49611791657971721
47 2854 0.067532010077255816
48 2854 -0
1747 2854 -0
1748 2854 -0
1749 2854 -0
1750 2854 -0.70516692496269695
1751 2854 -0
1752 2854 -0
2845 2854 0
2846 2854 0
2847 2854 0
2848 2854 0.70516692496269695
2849 2854 0
2850 2854 0
37 2855 0
38 2855 0
39 2855 0
40 2855 0
41 2855 0.49840543371991375
42 2855 0
43 2855 -0.067601049744234934
44 2855 -0.99553485319114277
45 2855 -0
46 2855 -0.067376861357772475
47 2855 -0.49382500867881207
48 2855 -0
1747 2855 -0
1748 2855 -0
1749 2855 -0
1750 2855 -0
1751 2855 -0.70516692496269695
1752 2855 -0
2845 2855 0
2846 2855 0
2847 2855 0
2848 2855 0
2849 2855 0.70516692496269695
2850 2855 0
37 2856 0
38 2856 0
39 2856 0
40 2856 0
41 2856 0
42 2856 0.49726039206134764
43 2856 -0
44 2856 -0
45 2856 -0.99668365524927816
46 2856 -0
47 2856 -0
48 2856 -0.49611791657971638
1747 2856 -0
1748 2856 -0
1749 2856 -0
1750 2856 -0
1751 2856 -0
1752 2856 -0.70516692496269695
2845 2856 0
2846 2856 0
2847 2856 0
2848 2856 0
2849 2856 0
2850 2856 0.70516692496269695
463 2857 0.01662412773633716
464 2857 0
465 2857 0
466 2857 0
467 2857 0
468 2857 0
469 2857 -0.016738711515653665
470 2857 5.1859358331731552e-06
471 2857 -0
472 2857 -0.00011420378000142444
473 2857 7.763820444667679e-06
474 2857 -0
1747 2857 0.70516692496269695
1748 2857 0
1749 2857 0
1750 2857 0
1751 2857 0
1752 2857 0
2113 2857 -0.70516692496269695
2114 2857 -0
2115 2857 -0
2116 2857 -0
2117 2857 -0
2118 2857 -0
463 2858 0
464 2858 0.016643240039254284
465 2858 0
466 2858 0
467 2858 0
468 2858 0
469 2858 -0
470 2858 -0.016643240039254253
471 2858 -0
472 2858 -0
473 2858 -0
474 2858 -0
1747 2858 0
1748 2858 0.70516692496269695
1749 2858 0
1750 2858 0
1751 2858 0
1752 2858 0
2113 2858 -0
2114 2858 -0.70516692496269695
2115 2858 -0
2116 2858 -0
2117 2858 -0
2118 2858 -0
463 2859 0
464 2859 0
465 2859 0.016624127736337181
466 2859 0
467 2859 0
468 2859 0
469 2859 -0
470 2859 -0
471 2859 -0.016585933143231667
472 2859 -0
473 2859 -0
474 2859 3.8067926667141391e-05
1747 2859 0
1748 2859 0
1749 2859 0.70516692496269695
1750 2859 0
1751 2859 0
1752 2859 0
2113 2859 -0
2114 2859 -0
2115 2859 -0.70516692496269695
2116 2859 -0
2117 2859 -0
2118 2859 -0
463 2860 0
464 2860 0
465 2860 0
466 2860 0.49726039206134737
467 2860 0
468 2860 0
469 2860 -0.99668365524927938
470 2860 0.067678768813813697
471 2860 -0
472 2860 -0.49611791657971721
473 2860 0.067532010077255816
474 2860 -0
1747 2860 0
1748 2860 0
1749 2860 0
1750 2860 0.70516692496269695
1751 2860 0
1752 2860 0
2113 2860 -0
2114 2860 -0
2115 2860 -0
2116 2860 -0.70516692496269695
2117 2860 -0
2118 2860 -0
463 2861 0
464 2861 0
465 2861 0
466 2861 0
467 2861 0.49840543371991375
468 2861 0
469 2861 -0.067601049744234934
470 2861 -0.99553485319114277
471 2861 -0
472 2861 -0.067376861357772475
473 2861 -0.49382500867881207
474 2861 -0
1747 2861 0
1748 2861 0
1749 2861 0
1750 2861 0
1751 2861 0.70516692496269695
1752 2861 0
2113 2861 -0
2114 2861 -0
2115 2861 -0
2116 2861 -0
2117 2861 -0.70516692496269695
2118 2861 -0
463 2862 0
464 2862 0
465 2862 0
466 2862 0
467 2862 0
468 2862 0.49726039206134764
469 2862 -0
470 2862 -0
471 2862 -0.99668365524927816
472 2862 -0
473 2862 -0
474 2862 -0.49611791657971638
1747 2862 0
1748 2862 0
1749 2862 0
1750 2862 0
1751 2862 0
1752 2862 0.70516692496269695
2113 2862 -0
2114 2862 -0
2115 2862 -0
2116 2862 -0
2117 2862 -0
2118 2862 -0.70516692496269695
469 2863 0.01662412773633716
470 2863 0
471 2863 0
472 2863 0
473 2863 0
474 2863 0
475 2863 -0.016738711515653665
476 2863 5.1859358331731552e-06
477 2863 -0
478 2863 -0.00011420378000142444
479 2863 7.763820444667679e-06
480 2863 -0
1753 2863 0.70516692496269695
1754 2863 0
1755 2863 0
1756 2863 0
1757 2863 0
1758 2863 0
2119 2863 -0.70516692496269695
2120 2863 -0
2121 2863 -0
2122 2863 -0
2123 2863 -0
2124 2863 -0
469 2864 0
470 2864 0.016643240039254284
471 2864 0
472 2864 0
473 2864 0
474 2864 0
475 2864 -0
476 2864 -0.016643240039254253
477 2864 -0
478 2864 -0
479 2864 -0
480 2864 -0
1753 2864 0
1754 2864 0.70516692496269695
1755 2864 0
1756 2864 0
1757 2864 0
1758 2864 0
2119 2864 -0
2120 2864 -0.70516692496269695
2121 2864 -0
2122 2864 -0
2123 2864 -0
2124 2864 -0
469 2865 0
470 2865 0
471 2865 0.016624127736337181
472 2865 0
473 2865 0
474 2865 0
475 2865 -0
476 2865 -0
477 2865 -0.016585933143231667
478 2865 -0
479 2865 -0
480 2865 3.8067926667141391e-05
1753 2865 0
1754 2865 0
1755 2865 0.70516692496269695
1756 2865 0
1757 2865 0
1758 2865 0
2119 2865 -0
2120 2865 -0
2121 2865 -0.70516692496269695
2122 2865 -0
2123 2865 -0
2124 2865 -0
469 2866 0
470 2866 0
471 2866 0
472 2866 0.49726039206134737
473 2866 0
474 2866 0
475 2866 -0.99668365524927938
476 2866 0.067678768813813697
477 2866 -0
478 2866 -0.49611791657971721
479 2866 0.067532010077255816
480 2866 -0
1753 2866 0
1754 2866 0
1755 2866 0
1756 2866 0.70516692496269695
1757 2866 0
1758 2866 0
2119 2866 -0
2120 2866 -0
2121 2866 -0
2122 2866 -0.70516692496269695
2123 2866 -0
2124 2866 -0
469 2867 0
470 2867 0
471 2867 0
472 2867 0
473 2867 0.49840543371991375
474 2867 0
475 2867 -0.067601049744234934
476 2867 -0.99553485319114277
477 2867 -0
478 2867 -0.067376861357772475
479 2867 -0.49382500867881207
480 2867 -0
1753 2867 0
1754 2867 0
1755 2867 0
1756 2867 0
1757 2867 0.70516692496269695
1758 2867 0
2119 2867 -0
2120 2867 -0
2121 2867 -0
2122 2867 -0
2123 2867 -0.70516692496269695
2124 2867 -0
469 2868 0
470 2868 0
471 2868 0
472 2868 0
473 2868 0
474 2868 0.49726039206134764
475 2868 -0
476 2868 -0
477 2868 -0.99668365524927816
478 2868 -0
479 2868 -0
480 2868 -0.49611791657971638
1753 2868 0
1754 2868 0
1755 2868 0
1756 2868 0
1757 2868 0
1758 2868 0.70516692496269695
2119 2868 -0
2120 2868 -0
2121 2868 -0
2122 2868 -0
2123 2868 -0
2124 2868 -0.70516692496269695
1315 2869 0.01662412773633716
1316 2869 0
1317 2869 0
1318 2869 0
1319 2869 0
1320 2869 0
1321 2869 -0.016738711515653665
1322 2869 5.1859358331731552e-06
1323 2869 -0
1324 2869 -0.00011420378000142444
1325 2869 7.763820444667679e-06
1326 2869 -0
2479 2869 0.70516692496269695
2480 2869 0
2481 2869 0
2482 2869 0
2483 2869 0
2484 2869 0
2845 2869 -0.70516692496269695
2846 2869 -0
2847 2869 -0
2848 2869 -0
2849 2869 -0
2850 2869 -0
1315 2870 0
1316 2870 0.016643240039254284
1317 2870 0
1318 2870 0
1319 2870 0
1320 2870 0
1321 2870 -0
1322 2870 -0.016643240039254253
1323 2870 -0
1324 2870 -0
1325 2870 -0
1326 2870 -0
2479 2870 0
2480 2870 0.70516692496269695
2481 2870 0
2482 2870 0
2483 2870 0
2484 2870 0
2845 2870 -0
2846 2870 -0.70516692496269695
2847 2870 -0
2848 2870 -0
2849 2870 -0
2850 2870 -0
1315 2871 0
1316 2871 0
1317 2871 0.016624127736337181
1318 2871 0
1319 2871 0
1320 2871 0
1321 2871 -0
1322 2871 -0
1323 2871 -0.016585933143231667
1324 2871 -0
1325 2871 -0
1326 2871 3.8067926667141391e-05
2479 2871 0
2480 2871 0
2481 2871 0.70516692496269695
2482 2871 0
2483 2871 0
2484 2871 0
2845 2871 -0
2846 2871 -0
2847 2871 -0.70516692496269695
2848 2871 -0
2849 2871 -0
2850 2871 -0
1315 2872 0
1316 2872 0
1317 2872 0
1318 2872 0.49726039206134737
1319 2872 0
1320 2872 0
1321 2872 -0.99668365524927938
1322 2872 0.067678768813813697
1323 2872 -0
1324 2872 -0.49611791657971721
1325 2872 0.067532010077255816
1326 2872 -0
2479 2872 0
2480 2872 0
2481 2872 0
2482 2872 0.70516692496269695
2483 2872 0
2484 2872 0
2845 2872 -0
2846 2872 -0
2847 2872 -0
2848 2872 -0.70516692496269695
2849 2872 -0
2850 2872 -0
1315 2873 0
1316 2873 0
1317 2873 0
1318 2873 0
1319 2873 0.49840543371991375
1320 2873 0
1321 2873 -0.067601049744234934
1322 2873 -0.99553485319114277
1323 2873 -0
1324 2873 -0.067376861357772475
1325 2873 -0.49382500867881207
1326 2873 -0
2479 2873 0
2480 2873 0
2481 2873 0
2482 2873 0
2483 2873 0.70516692496269695
2484 2873 0
2845 2873 -0
2846 2873 -0
2847 2873 -0
2848 2873 -0
2849 2873 -0.70516692496269695
2850 2873 -0
1315 2874 0
1316 2874 0
1317 2874 0
1318 2874 0
1319 2874 0
1320 2874 0.49726039206134764
1321 2874 -0
1322 2874 -0
1323 2874 -0.99668365524927816
1324 2874 -0
1325 2874 -0
1326 2874 -0.49611791657971638
2479 2874 0
2480 2874 0
2481 2874 0
2482 2874 0
2483 2874 0
2484 2874 0.70516692496269695
2845 2874 -0
2846 2874 -0
2847 2874 -0
2848 2874 -0
2849 2874 -0
2850 2874 -0.70516692496269695
1321 2875 0.01662412773633716
1322 2875 0
1323 2875 0
1324 2875 0
1325 2875 0
1326 2875 0
1327 2875 -0.016738711515653665
1328 2875 5.1859358331731552e-06
1329 2875 -0
1330 2875 -0.00011420378000142444
1331 2875 7.763820444667679e-06
1332 2875 -0
2485 2875 0.70516692496269695
2486 2875 0
2487 2875 0
2488 2875 0
2489 2875 0
2490 2875 0
2851 2875 -0.70516692496269695
2852 2875 -0
2853 2875 -0
2854 2875 -0
2855 2875 -0
2856 2875 -0
1321 2876 0
1322 2876 0.016643240039254284
1323 2876 0
1324 2876 0
1325 2876 0
1326 2876 0
1327 2876 -0
1328 2876 -0.016643240039254253
1329 2876 -0
1330 2876 -0
1331 2876 -0
1332 2876 -0
2485 2876 0
2486 2876 0.70516692496269695
2487 2876 0
2488 2876 0
2489 2876 0
2490 2876 0
2851 2876 -0
2852 2876 -0.70516692496269695
2853 2876 -0
2854 2876 -0
2855 2876 -0
2856 2876 -0
1321 2877 0
1322 2877 0
1323 2877 0.016624127736337181
1324 2877 0
1325 2877 0
1326 2877 0
1327 2877 -0
1328 2877 -0
1329 2877 -0.016585933143231667
1330 2877 -0
1331 2877 -0
1332 2877 3.8067926667141391e-05
2485 2877 0
2486 2877 0
2487 2877 0.70516692496269695
2488 2877 0
2489 2877 0
2490 2877 0
2851 2877 -0
2852 2877 -0
2853 2877 -0.70516692496269695
2854 2877 -0
2855 2877 -0
2856 2877 -0
1321 2878 0
1322 2878 0
1323 2878 0
1324 2878 0.49726039206134737
1325 2878 0
1326 2878 0
1327 2878 -0.99668365524927938
1328 2878 0.067678768813813697
1329 2878 -0
1330 2878 -0.49611791657971721
1331 2878 0.067532010077255816
1332 2878 -0
2485 2878 0
2486 2878 0
2487 2878 0
2488 2878 0.70516692496269695
2489 2878 0
2490 2878 0
2851 2878 -0
2852 2878 -0
2853 2878 -0
2854 2878 -0.70516692496269695
2855 2878 -0
2856 2878 -0
1321 2879 0
1322 2879 0
1323 2879 0
1324 2879 0
1325 2879 0.49840543371991375
1326 2879 0
1327 2879 -0.067601049744234934
1328 2879 -0.99553485319114277
1329 2879 -0
1330 2879 -0.067376861357772475
1331 2879 -0.49382500867881207
1332 2879 -0
2485 2879 0
2486 2879 0
2487 2879 0
2488 2879 0
2489 2879 0.70516692496269695
2490 2879 0
2851 2879 -0
2852 2879 -0
2853 2879 -0
2854 2879 -0
2855 2879 -0.70516692496269695
2856 2879 -0
1321 2880 0
1322 2880 0
1323 2880 0
1324 2880 0
1325 2880 0
1326 2880 0.49726039206134764
1327 2880 -0
1328 2880 -0
1329 2880 -0.99668365524927816
1330 2880 -0
1331 2880 -0
1332 2880 -0.49611791657971638
2485 2880 0
2486 2880 0
2487 2880 0
2488 2880 0
2489 2880 0
2490 2880 0.70516692496269695
2851 2880 -0
2852 2880 -0
2853 2880 -0
2854 2880 -0
2855 2880 -0
2856 2880 -0.70516692496269695
43 2881 0.01662412773633716
44 2881 0
45 2881 0
46 2881 0
47 2881 0
48 2881 0
49 2881 -0.016738711515653665
50 2881 5.1859358331731552e-06
51 2881 -0
52 2881 -0.00011420378000142444
53 2881 7.763820444667679e-06
54 2881 -0
1753 2881 -0.70516692496269695
1754 2881 -0
1755 2881 -0
1756 2881 -0
1757 2881 -0
1758 2881 -0
2851 2881 0.70516692496269695
2852 2881 0
2853 2881 0
2854 2881 0
2855 2881 0
2856 2881 0
43 2882 0
44 2882 0.016643240039254284
45 2882 0
46 2882 0
47 2882 0
48 2882 0
49 2882 -0
50 2882 -0.016643240039254253
51 2882 -0
52 2882 -0
53 2882 -0
54 2882 -0
1753 2882 -0
1754 2882 -0.70516692496269695
1755 2882 -0
1756 2882 -0
1757 2882 -0
1758 2882 -0
2851 2882 0
2852 2882 0.70516692496269695
2853 2882 0
2854 2882 0
2855 2882 0
2856 2882 0
43 2883 0
44 2883 0
45 2883 0.016624127736337181
46 2883 0
47 2883 0
48 2883 0
49 2883 -0
50 2883 -0
51 2883 -0.016585933143231667
52 2883 -0
53 2883 -0
54 2883 3.8067926667141391e-05
1753 2883 -0
1754 2883 -0
1755 2883 -0.70516692496269695
1756 2883 -0
1757 2883 -0
1758 2883 -0
2851 2883 0
2852 2883 0
2853 2883 0.70516692496269695
2854 2883 0
2855 2883 0
2856 2883 0
43 2884 0
44 2884 0
45 2884 0
46 2884 0.49726039206134737
47 2884 0
48 2884 0
49 2884 -0.99668365524927938
50 2884 0.067678768813813697
51 2884 -0
52 2884 -0.49611791657971721
53 2884 0.067532010077255816
54 2884 -0
1753 2884 -0
1754 2884 -0
1755 2884 -0
1756 2884 -0.70516692496269695
1757 2884 -0
1758 2884 -0
2851 2884 0
2852 2884 0
2853 2884 0
2854 2884 0.70516692496269695
2855 2884 0
2856 2884 0
43 2885 0
44 2885 0
45 2885 0
46 2885 0
47 2885 0.49840543371991375
48 2885 0
49 2885 -0.067601049744234934
50 2885 -0.99553485319114277
51 2885 -0
52 2885 -0.067376861357772475
53 2885 -0.49382500867881207
54 2885 -0
1753 2885 -0
1754 2885 -0
1755 2885 -0
1756 2885 -0
1757 2885 -0.70516692496269695
1758 2885 -0
2851 2885 0
2852 2885 0
2853 2885 0
2854 2885 0
2855 2885 0.70516692496269695
2856 2885 0
43 2886 0
44 2886 0
45 2886 0
46 2886 0
47 2886 0
48 2886 0.49726039206134764
49 2886 -0
50 2886 -0
51 2886 -0.99668365524927816
52 2886 -0
53 2886 -0
54 2886 -0.49611791657971638
1753 2886 -0
1754 2886 -0
1755 2886 -0
1756 2886 -0
1757 2886 -0
1758 2886 -0.70516692496269695
2851 2886 0
2852 2886 0
2853 2886 0
2854 2886 0
2855 2886 0
2856 2886 0.70516692496269695
49 2887 0.01662412773633716
50 2887 0
51 2887 0
52 2887 0
53 2887 0
54 2887 0
55 2887 -0.016738711515653665
56 2887 5.1859358331731552e-06
57 2887 -0
58 2887 -0.00011420378000142444
59 2887 7.763820444667679e-06
60 2887 -0
1759 2887 -0.70516692496269695
1760 2887 -0
1761 2887 -0
1762 2887 -0
1763 2887 -0
1764 2887 -0
2857 2887 0.70516692496269695
2858 2887 0
2859 2887 0
2860 2887 0
2861 2887 0
2862 2887 0
49 2888 0
50 2888 0.016643240039254284
51 2888 0
52 2888 0
53 2888 0
54 2888 0
55 2888 -0
56 2888 -0.016643240039254253
57 2888 -0
58 2888 -0
59 2888 -0
60 2888 -0
1759 2888 -0
1760 2888 -0.70516692496269695
1761 2888 -0
1762 2888 -0
1763 2888 -0
1764 2888 -0
2857 2888 0
2858 2888 0.70516692496269695
2859 2888 0
2860 2888 0
2861 2888 0
2862 2888 0
49 2889 0
50 2889 0
51 2889 0.016624127736337181
52 2889 0
53 2889 0
54 2889 0
55 2889 -0
56 2889 -0
57 2889 -0.016585933143231667
58 2889 -0
59 2889 -0
60 2889 3.8067926667141391e-05
1759 2889 -0
1760 2889 -0
1761 2889 -0.70516692496269695
1762 2889 -0
1763 2889 -0
1764 2889 -0
2857 2889 0
2858 2889 0
2859 2889 0.70516692496269695
2860 2889 0
2861 2889 0
2862 2889 0
49 2890 0
50 2890 0
51 2890 0
52 2890 0.49726039206134737
53 2890 0
54 2890 0
55 2890 -0.99668365524927938
56 2890 0.067678768813813697
57 2890 -0
58 2890 -0.49611791657971721
59 2890 0.067532010077255816
60 2890 -0
1759 2890 -0
1760 2890 -0
1761 2890 -0
1762 2890 -0.70516692496269695
1763 2890 -0
1764 2890 -0
2857 2890 0
2858 2890 0
2859 2890 0
2860 2890 0.70516692496269695
2861 2890 0
2862 2890 0
49 2891 0
50 2891 0
51 2891 0
52 2891 0
53 2891 0.49840543371991375
54 2891 0
55 2891 -0.067601049744234934
56 2891 -0.99553485319114277
57 2891 -0
58 2891 -0.067376861357772475
59 2891 -0.49382500867881207
60 2891 -0
1759 2891 -0
1760 2891 -0
1761 2891 -0
1762 2891 -0
1763 2891 -0.70516692496269695
1764 2891 -0
2857 2891 0
2858 2891 0
2859 2891 0
2860 2891 0
2861 2891 0.70516692496269695
2862 2891 0
49 2892 0
50 2892 0
51 2892 0
52 2892 0
53 2892 0
54 2892 0.49726039206134764
55 2892 -0
56 2892 -0
57 2892 -0.99668365524927816
58 2892 -0
59 2892 -0
60 2892 -0.49611791657971638
1759 2892 -0
1760 2892 -0
1761 2892 -0
1762 2892 -0
1763 2892 -0
1764 2892 -0.70516692496269695
2857 2892 0
2858 2892 0
2859 2892 0
2860 2892 0
2861 2892 0
2862 2892 0.70516692496269695
895 2893 0.01662412773633716
896 2893 0
897 2893 0
898 2893 0
899 2893 0
900 2893 0
901 2893 -0.016738711515653665
902 2893 5.1859358331731552e-06
903 2893 -0
904 2893 -0.00011420378000142444
905 2893 7.763820444667679e-06
906 2893 -0
2119 2893 0.70516692496269695
2120 2893 0
2121 2893 0
2122 2893 0
2123 2893 0
2124 2893 0
2485 2893 -0.70516692496269695
2486 2893 -0
2487 2893 -0
2488 2893 -0
2489 2893 -0
2490 2893 -0
895 2894 0
896 2894 0.016643240039254284
897 2894 0
898 2894 0
899 2894 0
900 2894 0
901 2894 -0
902 2894 -0.016643240039254253
903 2894 -0
904 2894 -0
905 2894 -0
906 2894 -0
2119 2894 0
2120 2894 0.70516692496269695
2121 2894 0
2122 2894 0
2123 2894 0
2124 2894 0
2485 2894 -0
2486 2894 -0.70516692496269695
2487 2894 -0
2488 2894 -0
2489 2894 -0
2490 2894 -0
895 2895 0
896 2895 0
897 2895 0.016624127736337181
898 2895 0
899 2895 0
900 2895 0
901 2895 -0
902 2895 -0
903 2895 -0.016585933143231667
904 2895 -0
905 2895 -0
906 2895 3.8067926667141391e-05
2119 2895 0
2120 2895 0
2121 2895 0.70516692496269695
2122 2895 0
2123 2895 0
2124 2895 0
2485 2895 -0
2486 2895 -0
2487 2895 -0.70516692496269695
2488 2895 -0
2489 2895 -0
2490 2895 -0
895 2896 0
896 2896 0
897 2896 0
898 2896 0.49726039206134737
899 2896 0
900 2896 0
901 2896 -0.99668365524927938
902 2896 0.067678768813813697
903 2896 -0
904 2896 -0.49611791657971721
905 2896 0.067532010077255816
906 2896 -0
2119 2896 0
2120 2896 0
2121 2896 0
2122 2896 0.70516692496269695
2123 2896 0
2124 2896 0
2485 2896 -0
2486 2896 -0
2487 2896 -0
2488 2896 -0.70516692496269695
2489 2896 -0
2490 2896 -0
895 2897 0
896 2897 0
897 2897 0
898 2897 0
899 2897 0.49840543371991375
900 2897 0
901 2897 -0.067601049744234934
902 2897 -0.99553485319114277
903 2897 -0
904 2897 -0.067376861357772475
905 2897 -0.49382500867881207
906 2897 -0
2119 2897 0
2120 2897 0
2121 2897 0
2122 2897 0
2123 2897 0.70516692496269695
2124 2897 0
2485 2897 -0
2486 2897 -0
2487 2897 -0
2488 2897 -0
2489 2897 -0.70516692496269695
2490 2897 -0
895 2898 0
896 2898 0
897 2898 0
898 2898 0
899 2898 0
900 2898 0.49726039206134764
901 2898 -0
902 2898 -0
903 2898 -0.99668365524927816
904 2898 -0
905 2898 -0
906 2898 -0.49611791657971638
2119 2898 0
2120 2898 0
2121 2898 0
2122 2898 0
2123 2898 0
2124 2898 0.70516692496269695
2485 2898 -0
2486 2898 -0
2487 2898 -0
2488 2898 -0
2489 2898 -0
2490 2898 -0.70516692496269695
901 2899 0.01662412773633716
902 2899 0
903 2899 0
904 2899 0
905 2899 0
906 2899 0
907 2899 -0.016738711515653665
908 2899 5.1859358331731552e-06
909 2899 -0
910 2899 -0.00011420378000142444
911 2899 7.763820444667679e-06
912 2899 -0
2125 2899 0.70516692496269695
2126 2899 0
2127 2899 0
2128 2899 0
2129 2899 0
2130 2899 0
2491 2899 -0.70516692496269695
2492 2899 -0
2493 2899 -0
2494 2899 -0
2495 2899 -0
2496 2899 -0
901 2900 0
902 2900 0.016643240039254284
903 2900 0
904 2900 0
905 2900 0
906 2900 0
907 2900 -0
908 2900 -0.016643240039254253
909 2900 -0
910 2900 -0
911 2900 -0
912 2900 -0
2125 2900 0
2126 2900 0.70516692496269695
2127 2900 0
2128 2900 0
2129 2900 0
2130 2900 0
2491 2900 -0
2492 2900 -0.70516692496269695
2493 2900 -0
2494 2900 -0
2495 2900 -0
2496 2900 -0
901 2901 0
902 2901 0
903 2901 0.016624127736337181
904 2901 0
905 2901 0
906 2901 0
907 2901 -0
908 2901 -0
909 2901 -0.016585933143231667
910 2901 -0
911 2901 -0
912 2901 3.8067926667141391e-05
2125 2901 0
2126 2901 0
2127 2901 0.70516692496269695
2128 2901 0
2129 2901 0
2130 2901 0
2491 2901 -0
2492 2901 -0
2493 2901 -0.70516692496269695
2494 2901 -0
2495 2901 -0
2496 2901 -0
901 2902 0
902 2902 0
903 2902 0
904 2902 0.49726039206134737
905 2902 0
906 2902 0
907 2902 -0.99668365524927938
908 2902 0.067678768813813697
909 2902 -0
910 2902 -0.49611791657971721
911 2902 0.067532010077255816
912 2902 -0
2125 2902 0
2126 2902 0
2127 2902 0
2128 2902 0.70516692496269695
2129 2902 0
2130 2902 0
2491 2902 -0
2492 2902 -0
2493 2902 -0
2494 2902 -0.70516692496269695
2495 2902 -0
2496 2902 -0
901 2903 0
902 2903 0
903 2903 0
904 2903 0
905 2903 0.49840543371991375
906 2903 0
907 2903 -0.067601049744234934
908 2903 -0.99553485319114277
909 2903 -0
910 2903 -0.067376861357772475
911 2903 -0.49382500867881207
912 2903 -0
2125 2903 0
2126 2903 0
2127 2903 0
2128 2903 0
2129 2903 0.70516692496269695
2130 2903 0
2491 2903 -0
2492 2903 -0
2493 2903 -0
2494 2903 -0
2495 2903 -0.70516692496269695
2496 2903 -0
901 2904 0
902 2904 0
903 2904 0
904 2904 0
905 2904 0
906 2904 0.49726039206134764
907 2904 -0
908 2904 -0
909 2904 -0.99668365524927816
910 2904 -0
911 2904 -0
912 2904 -0.49611791657971638
2125 2904 0
2126 2904 0
2127 2904 0
2128 2904 0
2129 2904 0
2130 2904 0.70516692496269695
2491 2904 -0
2492 2904 -0
2493 2904 -0
2494 2904 -0
2495 2904 -0
2496 2904 -0.70516692496269695
1327 2905 0.01662412773633716
1328 2905 0
1329 2905 0
1330 2905 0
1331 2905 0
1332 2905 0
1333 2905 -0.016738711515653665
1334 2905 5.1859358331731552e-06
1335 2905 -0
1336 2905 -0.00011420378000142444
1337 2905 7.763820444667679e-06
1338 2905 -0
2491 2905 0.70516692496269695
2492 2905 0
2493 2905 0
2494 2905 0
2495 2905 0
2496 2905 0
2857 2905 -0.70516692496269695
2858 2905 -0
2859 2905 -0
2860 2905 -0
2861 2905 -0
2862 2905 -0
1327 2906 0
1328 2906 0.016643240039254284
1329 2906 0
1330 2906 0
1331 2906 0
1332 2906 0
1333 2906 -0
1334 2906 -0.016643240039254253
1335 2906 -0
1336 2906 -0
1337 2906 -0
1338 2906 -0
2491 2906 0
2492 2906 0.70516692496269695
2493 2906 0
2494 2906 0
2495 2906 0
2496 2906 0
2857 2906 -0
2858 2906 -0.70516692496269695
2859 2906 -0
2860 2906 -0
2861 2906 -0
2862 2906 -0
1327 2907 0
1328 2907 0
1329 2907 0.016624127736337181
1330 2907 0
1331 2907 0
1332 2907 0
1333 2907 -0
1334 2907 -0
1335 2907 -0.016585933143231667
1336 2907 -0
1337 2907 -0
1338 2907 3.8067926667141391e-05
2491 2907 0
2492 2907 0
2493 2907 0.70516692496269695
2494 2907 0
2495 2907 0
2496 2907 0
2857 2907 -0
2858 2907 -0
2859 2907 -0.70516692496269695
2860 2907 -0
2861 2907 -0
2862 2907 -0
1327 2908 0
1328 2908 0
1329 2908 0
1330 2908 0.49726039206134737
1331 2908 0
1332 2908 0
1333 2908 -0.99668365524927938
1334 2908 0.067678768813813697
1335 2908 -0
1336 2908 -0.49611791657971721
1337 2908 0.067532010077255816
1338 2908 -0
2491 2908 0
2492 2908 0
2493 2908 0
2494 2908 0.70516692496269695
2495 2908 0
2496 2908 0
2857 2908 -0
2858 2908 -0
2859 2908 -0
2860 2908 -0.70516692496269695
2861 2908 -0
2862 2908 -0
1327 2909 0
1328 2909 0
1329 2909 0
1330 2909 0
1331 2909 0.49840543371991375
1332 2909 0
1333 2909 -0.067601049744234934
1334 2909 -0.99553485319114277
1335 2909 -0
1336 2909 -0.067376861357772475
1337 2909 -0.49382500867881207
1338 2909 -0
2491 2909 0
2492 2909 0
2493 2909 0
2494 2909 0
2495 2909 0.70516692496269695
2496 2909 0
2857 2909 -0
2858 2909 -0
2859 2909 -0
2860 2909 -0
2861 2909 -0.70516692496269695
2862 2909 -0
1327 2910 0
1328 2910 0
1329 2910 0
1330 2910 0
1331 2910 0
1332 2910 0.49726039206134764
1333 2910 -0
1334 2910 -0
1335 2910 -0.99668365524927816
1336 2910 -0
1337 2910 -0
1338 2910 -0.49611791657971638
2491 2910 0
2492 2910 0
2493 2910 0
2494 2910 0
2495 2910 0
2496 2910 0.70516692496269695
2857 2910 -0
2858 2910 -0
2859 2910 -0
2860 2910 -0
2861 2910 -0
2862 2910 -0.70516692496269695
1333 2911 0.01662412773633716
1334 2911 0
1335 2911 0
1336 2911 0
1337 2911 0
1338 2911 0
1339 2911 -0.016738711515653665
1340 2911 5.1859358331731552e-06
1341 2911 -0
1342 2911 -0.00011420378000142444
1343 2911 7.763820444667679e-06
1344 2911 -0
2497 2911 0.70516692496269695
2498 2911 0
2499 2911 0
2500 2911 0
2501 2911 0
2502 2911 0
2863 2911 -0.70516692496269695
2864 2911 -0
2865 2911 -0
2866 2911 -0
2867 2911 -0
2868 2911 -0
1333 2912 0
1334 2912 0.016643240039254284
1335 2912 0
1336 2912 0
1337 2912 0
1338 2912 0
1339 2912 -0
1340 2912 -0.016643240039254253
1341 2912 -0
1342 2912 -0
1343 2912 -0
1344 2912 -0
2497 2912 0
2498 2912 0.70516692496269695
2499 2912 0
2500 2912 0
2501 2912 0
2502 2912 0
2863 2912 -0
2864 2912 -0.70516692496269695
2865 2912 -0
2866 2912 -0
2867 2912 -0
2868 2912 -0
1333 2913 0
1334 2913 0
1335 2913 0.016624127736337181
1336 2913 0
1337 2913 0
1338 2913 0
1339 2913 -0
1340 2913 -0
1341 2913 -0.016585933143231667
1342 2913 -0
1343 2913 -0
1344 2913 3.8067926667141391e-05
2497 2913 0
2498 2913 0
2499 2913 0.70516692496269695
2500 2913 0
2501 2913 0
2502 2913 0
2863 2913 -0
2864 2913 -0
2865 2913 -0.70516692496269695
2866 2913 -0
2867 2913 -0
2868 2913 -0
1333 2914 0
1334 2914 0
1335 2914 0
1336 2914 0.49726039206134737
1337 2914 0
1338 2914 0
1339 2914 -0.99668365524927938
1340 2914 0.067678768813813697
1341 2914 -0
1342 2914 -0.49611791657971721
1343 2914 0.067532010077255816
1344 2914 -0
2497 2914 0
2498 2914 0
2499 2914 0
2500 2914 0.70516692496269695
2501 2914 0
2502 2914 0
2863 2914 -0
2864 2914 -0
2865 2914 -0
2866 2914 -0.70516692496269695
2867 2914 -0
2868 2914 -0
1333 2915 0
1334 2915 0
1335 2915 0
1336 2915 0
1337 2915 0.49840543371991375
1338 2915 0
1339 2915 -0.067601049744234934
1340 2915 -0.99553485319114277
1341 2915 -0
1342 2915 -0.067376861357772475
1343 2915 -0.49382500867881207
1344 2915 -0
2497 2915 0
2498 2915 0
2499 2915 0
2500 2915 0
2501 2915 0.70516692496269695
2502 2915 0
2863 2915 -0
2864 2915 -0
2865 2915 -0
2866 2915 -0
2867 2915 -0.70516692496269695
2868 2915 -0
1333 2916 0
1334 2916 0
1335 2916 0
1336 2916 0
1337 2916 0
1338 2916 0.49726039206134764
1339 2916 -0
1340 2916 -0
1341 2916 -0.99668365524927816
1342 2916 -0
1343 2916 -0
1344 2916 -0.49611791657971638
2497 2916 0
2498 2916 0
2499 2916 0
2500 2916 0
2501 2916 0
2502 2916 0.70516692496269695
2863 2916 -0
2864 2916 -0
2865 2916 -0
2866 2916 -0
2867 2916 -0
2868 2916 -0.70516692496269695
475 2917 0.01662412773633716
476 2917 0
477 2917 0
478 2917 0
479 2917 0
480 2917 0
481 2917 -0.016738711515653665
482 2917 5.1859358331731552e-06
483 2917 -0
484 2917 -0.00011420378000142444
485 2917 7.763820444667679e-06
486 2917 -0
1759 2917 0.70516692496269695
1760 2917 0
1761 2917 0
1762 2917 0
1763 2917 0
1764 2917 0
2125 2917 -0.70516692496269695
2126 2917 -0
2127 2917 -0
2128 2917 -0
2129 2917 -0
2130 2917 -0
475 2918 0
476 2918 0.016643240039254284
477 2918 0
478 2918 0
479 2918 0
480 2918 0
481 2918 -0
482 2918 -0.016643240039254253
483 2918 -0
484 2918 -0
485 2918 -0
486 2918 -0
1759 2918 0
1760 2918 0.70516692496269695
1761 2918 0
1762 2918 0
1763 2918 0
1764 2918 0
2125 2918 -0
2126 2918 -0.70516692496269695
2127 2918 -0
2128 2918 -0
2129 2918 -0
2130 2918 -0
475 2919 0
476 2919 0
477 2919 0.016624127736337181
478 2919 0
479 2919 0
480 2919 0
481 2919 -0
482 2919 -0
483 2919 -0.016585933143231667
484 2919 -0
485 2919 -0
486 2919 3.8067926667141391e-05
1759 2919 0
1760 2919 0
1761 2919 0.70516692496269695
1762 2919 0
1763 2919 0
1764 2919 0
2125 2919 -0
2126 2919 -0
2127 2919 -0.70516692496269695
2128 2919 -0
2129 2919 -0
2130 2919 -0
475 2920 0
476 2920 0
477 2920 0
478 2920 0.49726039206134737
479 2920 0
480 2920 0
481 2920 -0.99668365524927938
482 2920 0.067678768813813697
483 2920 -0
484 2920 -0.49611791657971721
485 2920 0.067532010077255816
486 2920 -0
1759 2920 0
1760 2920 0
1761 2920 0
1762 2920 0.70516692496269695
1763 2920 0
1764 2920 0
2125 2920 -0
2126 2920 -0
2127 2920 -0
2128 2920 -0.70516692496269695
2129 2920 -0
2130 2920 -0
475 2921 0
476 2921 0
477 2921 0
478 2921 0
479 2921 0.49840543371991375
480 2921 0
481 2921 -0.067601049744234934
482 2921 -0.99553485319114277
483 2921 -0
484 2921 -0.067376861357772475
485 2921 -0.49382500867881207
486 2921 -0
1759 2921 0
1760 2921 0
1761 2921 0
1762 2921 0
1763 2921 0.70516692496269695
1764 2921 0
2125 2921 -0
2126 2921 -0
2127 2921 -0
2128 2921 -0
2129 2921 -0.70516692496269695
2130 2921 -0
475 2922 0
476 2922 0
477 2922 0
478 2922 0
479 2922 0
480 2922 0.49726039206134764
481 2922 -0
482 2922 -0
483 2922 -0.99668365524927816
484 2922 -0
485 2922 -0
486 2922 -0.49611791657971638
1759 2922 0
1760 2922 0
1761 2922 0
1762 2922 0
1763 2922 0
1764 2922 0.70516692496269695
2125 2922 -0
2126 2922 -0
2127 2922 -0
2128 2922 -0
2129 2922 -0
2130 2922 -0.70516692496269695
481 2923 0.01662412773633716
482 2923 0
483 2923 0
484 2923 0
485 2923 0
486 2923 0
487 2923 -0.016738711515653665
488 2923 5.1859358331731552e-06
489 2923 -0
490 2923 -0.00011420378000142444
491 2923 7.763820444667679e-06
492 2923 -0
1765 2923 0.70516692496269695
1766 2923 0
1767 2923 0
1768 2923 0
1769 2923 0
1770 2923 0
2131 2923 -0.70516692496269695
2132 2923 -0
2133 2923 -0
2134 2923 -0
2135 2923 -0
2136 2923 -0
481 2924 0
482 2924 0.016643240039254284
483 2924 0
484 2924 0
485 2924 0
486 2924 0
487 2924 -0
488 2924 -0.016643240039254253
489 2924 -0
490 2924 -0
491 2924 -0
492 2924 -0
1765 2924 0
1766 2924 0.70516692496269695
1767 2924 0
1768 2924 0
1769 2924 0
1770 2924 0
2131 2924 -0
2132 2924 -0.70516692496269695
2133 2924 -0
2134 2924 -0
2135 2924 -0
2136 2924 -0
481 2925 0
482 2925 0
483 2925 0.016624127736337181
484 2925 0
485 2925 0
486 2925 0
487 2925 -0
488 2925 -0
489 2925 -0.016585933143231667
490 2925 -0
491 2925 -0
492 2925 3.8067926667141391e-05
1765 2925 0
1766 2925 0
1767 2925 0.70516692496269695
1768 2925 0
1769 2925 0
1770 2925 0
2131 2925 -0
2132 2925 -0
2133 2925 -0.70516692496269695
2134 2925 -0
2135 2925 -0
2136 2925 -0
481 2926 0
482 2926 0
483 2926 0
484 2926 0.49726039206134737
485 2926 0
486 2926 0
487 2926 -0.99668365524927938
488 2926 0.067678768813813697
489 2926 -0
490 2926 -0.49611791657971721
491 2926 0.067532010077255816
492 2926 -0
1765 2926 0
1766 2926 0
1767 2926 0
1768 2926 0.70516692496269695
1769 2926 0
1770 2926 0
2131 2926 -0
2132 2926 -0
2133 2926 -0
2134 2926 -0.70516692496269695
2135 2926 -0
2136 2926 -0
481 2927 0
482 2927 0
483 2927 0
484 2927 0
485 2927 0.49840543371991375
486 2927 0
487 2927 -0.067601049744234934
488 2927 -0.99553485319114277
489 2927 -0
490 2927 -0.067376861357772475
491 2927 -0.49382500867881207
492 2927 -0
1765 2927 0
1766 2927 0
1767 2927 0
1768 2927 0
1769 2927 0.70516692496269695
1770 2927 0
2131 2927 -0
2132 2927 -0
2133 2927 -0
2134 2927 -0
2135 2927 -0.70516692496269695
2136 2927 -0
481 2928 0
482 2928 0
483 2928 0
484 2928 0
485 2928 0
486 2928 0.49726039206134764
487 2928 -0
488 2928 -0
489 2928 -0.99668365524927816
490 2928 -0
491 2928 -0
492 2928 -0.49611791657971638
1765 2928 0
1766 2928 0
1767 2928 0
1768 2928 0
1769 2928 0
1770 2928 0.70516692496269695
2131 2928 -0
2132 2928 -0
2133 2928 -0
2134 2928 -0
2135 2928 -0
2136 2928 -0.70516692496269695
907 2929 0.01662412773633716
908 2929 0
909 2929 0
910 2929 0
911 2929 0
912 2929 0
913 2929 -0.016738711515653665
914 2929 5.1859358331731552e-06
915 2929 -0
916 2929 -0.00011420378000142444
917 2929 7.763820444667679e-06
918 2929 -0
2131 2929 0.70516692496269695
2132 2929 0
2133 2929 0
2134 2929 0
2135 2929 0
2136 2929 0
2497 2929 -0.70516692496269695
2498 2929 -0
2499 2929 -0
2500 2929 -0
2501 2929 -0
2502 2929 -0
907 2930 0
908 2930 0.016643240039254284
909 2930 0
910 2930 0
911 2930 0
912 2930 0
913 2930 -0
914 2930 -0.016643240039254253
915 2930 -0
916 2930 -0
917 2930 -0
918 2930 -0
2131 2930 0
2132 2930 0.70516692496269695
2133 2930 0
2134 2930 0
2135 2930 0
2136 2930 0
2497 2930 -0
2498 2930 -0.70516692496269695
2499 2930 -0
2500 2930 -0
2501 2930 -0
2502 2930 -0
907 2931 0
908 2931 0
909 2931 0.016624127736337181
910 2931 0
911 2931 0
912 2931 0
913 2931 -0
914 2931 -0
915 2931 -0.016585933143231667
916 2931 -0
917 2931 -0
918 2931 3.8067926667141391e-05
2131 2931 0
2132 2931 0
2133 2931 0.70516692496269695
2134 2931 0
2135 2931 0
2136 2931 0
2497 2931 -0
2498 2931 -0
2499 2931 -0.70516692496269695
2500 2931 -0
2501 2931 -0
2502 2931 -0
907 2932 0
908 2932 0
909 2932 0
910 2932 0.49726039206134737
911 2932 0
912 2932 0
913 2932 -0.99668365524927938
914 2932 0.067678768813813697
915 2932 -0
916 2932 -0.49611791657971721
917 2932 0.067532010077255816
918 2932 -0
2131 2932 0
2132 2932 0
2133 2932 0
2134 2932 0.70516692496269695
2135 2932 0
2136 2932 0
2497 2932 -0
2498 2932 -0
2499 2932 -0
2500 2932 -0.70516692496269695
2501 2932 -0
2502 2932 -0
907 2933 0
908 2933 0
909 2933 0
910 2933 0
911 2933 0.49840543371991375
912 2933 0
913 2933 -0.067601049744234934
914 2933 -0.99553485319114277
915 2933 -0
916 2933 -0.067376861357772475
917 2933 -0.49382500867881207
918 2933 -0
2131 2933 0
2132 2933 0
2133 2933 0
2134 2933 0
2135 2933 0.70516692496269695
2136 2933 0
2497 2933 -0
2498 2933 -0
2499 2933 -0
2500 2933 -0
2501 2933 -0.70516692496269695
2502 2933 -0
907 2934 0
908 2934 0
909 2934 0
910 2934 0
911 2934 0
912 2934 0.49726039206134764
913 2934 -0
914 2934 -0
915 2934 -0.99668365524927816
916 2934 -0
917 2934 -0
918 2934 -0.49611791657971638
2131 2934 0
2132 2934 0
2133 2934 0
2134 2934 0
2135 2934 0
2136 2934 0.70516692496269695
2497 2934 -0
2498 2934 -0
2499 2934 -0
2500 2934 -0
2501 2934 -0
2502 2934 -0.70516692496269695
913 2935 0.01662412773633716
914 2935 0
915 2935 0
916 2935 0
917 2935 0
918 2935 0
919 2935 -0.016738711515653665
920 2935 5.1859358331731552e-06
921 2935 -0
922 2935 -0.00011420378000142444
923 2935 7.763820444667679e-06
924 2935 -0
2137 2935 0.70516692496269695
2138 2935 0
2139 2935 0
2140 2935 0
2141 2935 0
2142 2935 0
2503 2935 -0.70516692496269695
2504 2935 -0
2505 2935 -0
2506 2935 -0
2507 2935 -0
2508 2935 -0
913 2936 0
914 2936 0.016643240039254284
915 2936 0
916 2936 0
917 2936 0
918 2936 0
919 2936 -0
920 2936 -0.016643240039254253
921 2936 -0
922 2936 -0
923 2936 -0
924 2936 -0
2137 2936 0
2138 2936 0.70516692496269695
2139 2936 0
2140 2936 0
2141 2936 0
2142 2936 0
2503 2936 -0
2504 2936 -0.70516692496269695
2505 2936 -0
2506 2936 -0
2507 2936 -0
2508 2936 -0
913 2937 0
914 2937 0
915 2937 0.016624127736337181
916 2937 0
917 2937 0
918 2937 0
919 2937 -0
920 2937 -0
921 2937 -0.016585933143231667
922 2937 -0
923 2937 -0
924 2937 3.8067926667141391e-05
2137 2937 0
2138 2937 0
2139 2937 0.70516692496269695
2140 2937 0
2141 2937 0
2142 2937 0
2503 2937 -0
2504 2937 -0
2505 2937 -0.70516692496269695
2506 2937 -0
2507 2937 -0
2508 2937 -0
913 2938 0
914 2938 0
915 2938 0
916 2938 0.49726039206134737
917 2938 0
918 2938 0
919 2938 -0.99668365524927938
920 2938 0.067678768813813697
921 2938 -0
922 2938 -0.49611791657971721
923 2938 0.067532010077255816
924 2938 -0
2137 2938 0
2138 2938 0
2139 2938 0
2140 2938 0.70516692496269695
2141 2938 0
2142 2938 0
2503 2938 -0
2504 2938 -0
2505 2938 -0
2506 2938 -0.70516692496269695
2507 2938 -0
2508 2938 -0
913 2939 0
914 2939 0
915 2939 0
916 2939 0
917 2939 0.49840543371991375
918 2939 0
919 2939 -0.067601049744234934
920 2939 -0.99553485319114277
921 2939 -0
922 2939 -0.067376861357772475
923 2939 -0.49382500867881207
924 2939 -0
2137 2939 0
2138 2939 0
2139 2939 0
2140 2939 0
2141 2939 0.70516692496269695
2142 2939 0
2503 2939 -0
2504 2939 -0
2505 2939 -0
2506 2939 -0
2507 2939 -0.70516692496269695
2508 2939 -0
913 2940 0
914 2940 0
915 2940 0
916 2940 0
917 2940 0
918 2940 0.49726039206134764
919 2940 -0
920 2940 -0
921 2940 -0.99668365524927816
922 2940 -0
923 2940 -0
924 2940 -0.49611791657971638
2137 2940 0
2138 2940 0
2139 2940 0
2140 2940 0
2141 2940 0
2142 2940 0.70516692496269695
2503 2940 -0
2504 2940 -0
2505 2940 -0
2506 2940 -0
2507 2940 -0
2508 2940 -0.70516692496269695
55 2941 0.01662412773633716
56 2941 0
57 2941 0
58 2941 0
59 2941 0
60 2941 0
61 2941 -0.016738711515653665
62 2941 5.1859358331731552e-06
63 2941 -0
64 2941 -0.00011420378000142444
65 2941 7.763820444667679e-06
66 2941 -0
1765 2941 -0.70516692496269695
1766 2941 -0
1767 2941 -0
1768 2941 -0
1769 2941 -0
1770 2941 -0
2863 2941 0.70516692496269695
2864 2941 0
2865 2941 0
2866 2941 0
2867 2941 0
2868 2941 0
55 2942 0
56 2942 0.016643240039254284
57 2942 0
58 2942 0
59 2942 0
60 2942 0
61 2942 -0
62 2942 -0.016643240039254253
63 2942 -0
64 2942 -0
65 2942 -0
66 2942 -0
1765 2942 -0
1766 2942 -0.70516692496269695
1767 2942 -0
1768 2942 -0
1769 2942 -0
1770 2942 -0
2863 2942 0
2864 2942 0.70516692496269695
2865 2942 0
2866 2942 0
2867 2942 0
2868 2942 0
55 2943 0
56 2943 0
57 2943 0.016624127736337181
58 2943 0
59 2943 0
60 2943 0
61 2943 -0
62 2943 -0
63 2943 -0.016585933143231667
64 2943 -0
65 2943 -0
66 2943 3.8067926667141391e-05
1765 2943 -0
1766 2943 -0
1767 2943 -0.70516692496269695
1768 2943 -0
1769 2943 -0
1770 2943 -0
2863 2943 0
2864 2943 0
2865 2943 0.70516692496269695
2866 2943 0
2867 2943 0
2868 2943 0
55 2944 0
56 2944 0
57 2944 0
58 2944 0.49726039206134737
59 2944 0
60 2944 0
61 2944 -0.99668365524927938
62 2944 0.067678768813813697
63 2944 -0
64 2944 -0.49611791657971721
65 2944 0.067532010077255816
66 2944 -0
1765 2944 -0
1766 2944 -0
1767 2944 -0
1768 2944 -0.70516692496269695
1769 2944 -0
1770 2944 -0
2863 2944 0
2864 2944 0
2865 2944 0
2866 2944 0.70516692496269695
2867 2944 0
2868 2944 0
55 2945 0
56 2945 0
57 2945 0
58 2945 0
59 2945 0.49840543371991375
60 2945 0
61 2945 -0.067601049744234934
62 2945 -0.99553485319114277
63 2945 -0
64 2945 -0.067376861357772475
65 2945 -0.49382500867881207
66 2945 -0
1765 2945 -0
1766 2945 -0
1767 2945 -0
1768 2945 -0
1769 2945 -0.70516692496269695
1770 2945 -0
2863 2945 0
2864 2945 0
2865 2945 0
2866 2945 0
2867 2945 0.70516692496269695
2868 2945 0
55 2946 0
56 2946 0
57 2946 0
58 2946 0
59 2946 0
60 2946 0.49726039206134764
61 2946 -0
62 2946 -0
63 2946 -0.99668365524927816
64 2946 -0
65 2946 -0
66 2946 -0.49611791657971638
1765 2946 -0
1766 2946 -0
1767 2946 -0
1768 2946 -0
1769 2946 -0
1770 2946 -0.70516692496269695
2863 2946 0
2864 2946 0
2865 2946 0
2866 2946 0
2867 2946 0
2868 2946 0.70516692496269695
61 2947 0.01662412773633716
62 2947 0
63 2947 0
64 2947 0
65 2947 0
66 2947 0
67 2947 -0.016738711515653665
68 2947 5.1859358331731552e-06
69 2947 -0
70 2947 -0.00011420378000142444
71 2947 7.763820444667679e-06
72 2947 -0
1771 2947 -0.70516692496269695
1772 2947 -0
1773 2947 -0
1774 2947 -0
1775 2947 -0
1776 2947 -0
2869 2947 0.70516692496269695
2870 2947 0
2871 2947 0
2872 2947 0
2873 2947 0
2874 2947 0
61 2948 0
62 2948 0.016643240039254284
63 2948 0
64 2948 0
65 2948 0
66 2948 0
67 2948 -0
68 2948 -0.016643240039254253
69 2948 -0
70 2948 -0
71 2948 -0
72 2948 -0
1771 2948 -0
1772 2948 -0.70516692496269695
1773 2948 -0
1774 2948 -0
1775 2948 -0
1776 2948 -0
2869 2948 0
2870 2948 0.70516692496269695
2871 2948 0
2872 2948 0
2873 2948 0
2874 2948 0
61 2949 0
62 2949 0
63 2949 0.016624127736337181
64 2949 0
65 2949 0
66 2949 0
67 2949 -0
68 2949 -0
69 2949 -0.016585933143231667
70 2949 -0
71 2949 -0
72 2949 3.8067926667141391e-05
1771 2949 -0
1772 2949 -0
1773 2949 -0.70516692496269695
1774 2949 -0
1775 2949 -0
1776 2949 -0
2869 2949 0
2870 2949 0
2871 2949 0.70516692496269695
2872 2949 0
2873 2949 0
2874 2949 0
61 2950 0
62 2950 0
63 2950 0
64 2950 0.49726039206134737
65 2950 0
66 2950 0
67 2950 -0.99668365524927938
68 2950 0.067678768813813697
69 2950 -0
70 2950 -0.49611791657971721
71 2950 0.067532010077255816
72 2950 -0
1771 2950 -0
1772 2950 -0
1773 2950 -0
1774 2950 -0.70516692496269695
1775 2950 -0
1776 2950 -0
2869 2950 0
2870 2950 0
2871 2950 0
2872 2950 0.70516692496269695
2873 2950 0
2874 2950 0
61 2951 0
62 2951 0
63 2951 0
64 2951 0
65 2951 0.49840543371991375
66 2951 0
67 2951 -0.067601049744234934
68 2951 -0.99553485319114277
69 2951 -0
70 2951 -0.067376861357772475
71 2951 -0.49382500867881207
72 2951 -0
1771 2951 -0
1772 2951 -0
1773 2951 -0
1774 2951 -0
1775 2951 -0.70516692496269695
1776 2951 -0
2869 2951 0
2870 2951 0
2871 2951 0
2872 2951 0
2873 2951 0.70516692496269695
2874 2951 0
61 2952 0
62 2952 0
63 2952 0
64 2952 0
65 2952 0
66 2952 0.49726039206134764
67 2952 -0
68 2952 -0
69 2952 -0.99668365524927816
70 2952 -0
71 2952 -0
72 2952 -0.49611791657971638
1771 2952 -0
1772 2952 -0
1773 2952 -0
1774 2952 -0
1775 2952 -0
1776 2952 -0.70516692496269695
2869 2952 0
2870 2952 0
2871 2952 0
2872 2952 0
2873 2952 0
2874 2952 0.70516692496269695
487 2953 0.01662412773633716
488 2953 0
489 2953 0
490 2953 0
491 2953 0
492 2953 0
493 2953 -0.016738711515653665
494 2953 5.1859358331731552e-06
495 2953 -0
496 2953 -0.00011420378000142444
497 2953 7.763820444667679e-06
498 2953 -0
1771 2953 0.70516692496269695
1772 2953 0
1773 2953 0
1774 2953 0
1775 2953 0
1776 2953 0
2137 2953 -0.70516692496269695
2138 2953 -0
2139 2953 -0
2140 2953 -0
2141 2953 -0
2142 2953 -0
487 2954 0
488 2954 0.016643240039254284
489 2954 0
490 2954 0
491 2954 0
492 2954 0
493 2954 -0
494 2954 -0.016643240039254253
495 2954 -0
496 2954 -0
497 2954 -0
498 2954 -0
1771 2954 0
1772 2954 0.70516692496269695
1773 2954 0
1774 2954 0
1775 2954 0
1776 2954 0
2137 2954 -0
2138 2954 -0.70516692496269695
2139 2954 -0
2140 2954 -0
2141 2954 -0
2142 2954 -0
487 2955 0
488 2955 0
489 2955 0.016624127736337181
490 2955 0
491 2955 0
492 2955 0
493 2955 -0
494 2955 -0
495 2955 -0.016585933143231667
496 2955 -0
497 2955 -0
498 2955 3.8067926667141391e-05
1771 2955 0
1772 2955 0
1773 2955 0.70516692496269695
1774 2955 0
1775 2955 0
1776 2955 0
2137 2955 -0
2138 2955 -0
2139 2955 -0.70516692496269695
2140 2955 -0
2141 2955 -0
2142 2955 -0
487 2956 0
488 2956 0
489 2956 0
490 2956 0.49726039206134737
491 2956 0
492 2956 0
493 2956 -0.99668365524927938
494 2956 0.067678768813813697
495 2956 -0
496 2956 -0.49611791657971721
497 2956 0.067532010077255816
498 2956 -0
1771 2956 0
1772 2956 0
1773 2956 0
1774 2956 0.70516692496269695
1775 2956 0
1776 2956 0
2137 2956 -0
2138 2956 -0
2139 2956 -0
2140 2956 -0.70516692496269695
2141 2956 -0
2142 2956 -0
487 2957 0
488 2957 0
489 2957 0
490 2957 0
491 2957 0.49840543371991375
492 2957 0
493 2957 -0.067601049744234934
494 2957 -0.99553485319114277
495 2957 -0
496 2957 -0.067376861357772475
497 2957 -0.49382500867881207
498 2957 -0
1771 2957 0
1772 2957 0
1773 2957 0
1774 2957 0
1775 2957 0.70516692496269695
1776 2957 0
2137 2957 -0
2138 2957 -0
2139 2957 -0
2140 2957 -0
2141 2957 -0.70516692496269695
2142 2957 -0
487 2958 0
488 2958 0
489 2958 0
490 2958 0
491 2958 0
492 2958 0.49726039206134764
493 2958 -0
494 2958 -0
495 2958 -0.99668365524927816
496 2958 -0
497 2958 -0
498 2958 -0.49611791657971638
1771 2958 0
1772 2958 0
1773 2958 0
1774 2958 0
1775 2958 0
1776 2958 0.70516692496269695
2137 2958 -0
2138 2958 -0
2139 2958 -0
2140 2958 -0
2141 2958 -0
2142 2958 -0.70516692496269695
493 2959 0.01662412773633716
494 2959 0
495 2959 0
496 2959 0
497 2959 0
498 2959 0
499 2959 -0.016738711515653665
500 2959 5.1859358331731552e-06
501 2959 -0
502 2959 -0.00011420378000142444
503 2959 7.763820444667679e-06
504 2959 -0
1777 2959 0.70516692496269695
1778 2959 0
1779 2959 0
1780 2959 0
1781 2959 0
1782 2959 0
2143 2959 -0.70516692496269695
2144 2959 -0
2145 2959 -0
2146 2959 -0
2147 2959 -0
2148 2959 -0
493 2960 0
494 2960 0.016643240039254284
495 2960 0
496 2960 0
497 2960 0
498 2960 0
499 2960 -0
500 2960 -0.016643240039254253
501 2960 -0
502 2960 -0
503 2960 -0
504 2960 -0
1777 2960 0
1778 2960 0.70516692496269695
1779 2960 0
1780 2960 0
1781 2960 0
1782 2960 0
2143 2960 -0
2144 2960 -0.70516692496269695
2145 2960 -0
2146 2960 -0
2147 2960 -0
2148 2960 -0
493 2961 0
494 2961 0
495 2961 0.016624127736337181
496 2961 0
497 2961 0
498 2961 0
499 2961 -0
500 2961 -0
501 2961 -0.016585933143231667
502 2961 -0
503 2961 -0
504 2961 3.8067926667141391e-05
1777 2961 0
1778 2961 0
1779 2961 0.70516692496269695
1780 2961 0
1781 2961 0
1782 2961 0
2143 2961 -0
2144 2961 -0
2145 2961 -0.70516692496269695
2146 2961 -0
2147 2961 -0
2148 2961 -0
493 2962 0
494 2962 0
495 2962 0
496 2962 0.49726039206134737
497 2962 0
498 2962 0
499 2962 -0.99668365524927938
500 2962 0.067678768813813697
501 2962 -0
502 2962 -0.49611791657971721
503 2962 0.067532010077255816
504 2962 -0
1777 2962 0
1778 2962 0
1779 2962 0
1780 2962 0.70516692496269695
1781 2962 0
1782 2962 0
2143 2962 -0
2144 2962 -0
2145 2962 -0
2146 2962 -0.70516692496269695
2147 2962 -0
2148 2962 -0
493 2963 0
494 2963 0
495 2963 0
496 2963 0
497 2963 0.49840543371991375
498 2963 0
499 2963 -0.067601049744234934
500 2963 -0.99553485319114277
501 2963 -0
502 2963 -0.067376861357772475
503 2963 -0.49382500867881207
504 2963 -0
1777 2963 0
1778 2963 0
1779 2963 0
1780 2963 0
1781 2963 0.70516692496269695
1782 2963 0
2143 2963 -0
2144 2963 -0
2145 2963 -0
2146 2963 -0
2147 2963 -0.70516692496269695
2148 2963 -0
493 2964 0
494 2964 0
495 2964 0
496 2964 0
497 2964 0
498 2964 0.49726039206134764
499 2964 -0
500 2964 -0
501 2964 -0.99668365524927816
502 2964 -0
503 2964 -0
504 2964 -0.49611791657971638
1777 2964 0
1778 2964 0
1779 2964 0
1780 2964 0
1781 2964 0
1782 2964 0.70516692496269695
2143 2964 -0
2144 2964 -0
2145 2964 -0
2146 2964 -0
2147 2964 -0
2148 2964 -0.70516692496269695
1339 2965 0.01662412773633716
1340 2965 0
1341 2965 0
1342 2965 0
1343 2965 0
1344 2965 0
1345 2965 -0.016738711515653665
1346 2965 5.1859358331731552e-06
1347 2965 -0
1348 2965 -0.00011420378000142444
1349 2965 7.763820444667679e-06
1350 2965 -0
2503 2965 0.70516692496269695
2504 2965 0
2505 2965 0
2506 2965 0
2507 2965 0
2508 2965 0
2869 2965 -0.70516692496269695
2870 2965 -0
2871 2965 -0
2872 2965 -0
2873 2965 -0
2874 2965 -0
1339 2966 0
1340 2966 0.016643240039254284
1341 2966 0
1342 2966 0
1343 2966 0
1344 2966 0
1345 2966 -0
1346 2966 -0.016643240039254253
1347 2966 -0
1348 2966 -0
1349 2966 -0
1350 2966 -0
2503 2966 0
2504 2966 0.70516692496269695
2505 2966 0
2506 2966 0
2507 2966 0
2508 2966 0
2869 2966 -0
2870 2966 -0.70516692496269695
2871 2966 -0
2872 2966 -0
2873 2966 -0
2874 2966 -0
1339 2967 0
1340 2967 0
1341 2967 0.016624127736337181
1342 2967 0
1343 2967 0
1344 2967 0
1345 2967 -0
1346 2967 -0
1347 2967 -0.016585933143231667
1348 2967 -0
1349 2967 -0
1350 2967 3.8067926667141391e-05
2503 2967 0
2504 2967 0
2505 2967 0.70516692496269695
2506 2967 0
2507 2967 0
2508 2967 0
2869 2967 -0
2870 2967 -0
2871 2967 -0.70516692496269695
2872 2967 -0
2873 2967 -0
2874 2967 -0
1339 2968 0
1340 2968 0
1341 2968 0
1342 2968 0.49726039206134737
1343 2968 0
1344 2968 0
1345 2968 -0.99668365524927938
1346 2968 0.067678768813813697
1347 2968 -0
1348 2968 -0.49611791657971721
1349 2968 0.067532010077255816
1350 2968 -0
2503 2968 0
2504 2968 0
2505 2968 0
2506 2968 0.70516692496269695
2507 2968 0
2508 2968 0
2869 2968 -0
2870 2968 -0
2871 2968 -0
2872 2968 -0.70516692496269695
2873 2968 -0
2874 2968 -0
1339 2969 0
1340 2969 0
1341 2969 0
1342 2969 0
1343 2969 0.49840543371991375
1344 2969 0
1345 2969 -0.067601049744234934
1346 2969 -0.99553485319114277
1347 2969 -0
1348 2969 -0.067376861357772475
1349 2969 -0.49382500867881207
1350 2969 -0
2503 2969 0
2504 2969 0
2505 2969 0
2506 2969 0
2507 2969 0.70516692496269695
2508 2969 0
2869 2969 -0
2870 2969 -0
2871 2969 -0
2872 2969 -0
2873 2969 -0.70516692496269695
2874 2969 -0
1339 2970 0
1340 2970 0
1341 2970 0
1342 2970 0
1343 2970 0
1344 2970 0.49726039206134764
1345 2970 -0
1346 2970 -0
1347 2970 -0.99668365524927816
1348 2970 -0
1349 2970 -0
1350 2970 -0.49611791657971638
2503 2970 0
2504 2970 0
2505 2970 0
2506 2970 0
2507 2970 0
2508 2970 0.70516692496269695
2869 2970 -0
2870 2970 -0
2871 2970 -0
2872 2970 -0
2873 2970 -0
2874 2970 -0.70516692496269695
1345 2971 0.01662412773633716
1346 2971 0
1347 2971 0
1348 2971 0
1349 2971 0
1350 2971 0
1351 2971 -0.016738711515653665
1352 2971 5.1859358331731552e-06
1353 2971 -0
1354 2971 -0.00011420378000142444
1355 2971 7.763820444667679e-06
1356 2971 -0
2509 2971 0.70516692496269695
2510 2971 0
2511 2971 0
2512 2971 0
2513 2971 0
2514 2971 0
2875 2971 -0.70516692496269695
2876 2971 -0
2877 2971 -0
2878 2971 -0
2879 2971 -0
2880 2971 -0
1345 2972 0
1346 2972 0.016643240039254284
1347 2972 0
1348 2972 0
1349 2972 0
1350 2972 0
1351 2972 -0
1352 2972 -0.016643240039254253
1353 2972 -0
1354 2972 -0
1355 2972 -0
1356 2972 -0
2509 2972 0
2510 2972 0.70516692496269695
2511 2972 0
2512 2972 0
2513 2972 0
2514 2972 0
2875 2972 -0
2876 2972 -0.70516692496269695
2877 2972 -0
2878 2972 -0
2879 2972 -0
2880 2972 -0
1345 2973 0
1346 2973 0
1347 2973 0.016624127736337181
1348 2973 0
1349 2973 0
1350 2973 0
1351 2973 -0
1352 2973 -0
1353 2973 -0.016585933143231667
1354 2973 -0
1355 2973 -0
1356 2973 3.8067926667141391e-05
2509 2973 0
2510 2973 0
2511 2973 0.70516692496269695
2512 2973 0
2513 2973 0
2514 2973 0
2875 2973 -0
2876 2973 -0
2877 2973 -0.70516692496269695
2878 2973 -0
2879 2973 -0
2880 2973 -0
1345 2974 0
1346 2974 0
1347 2974 0
1348 2974 0.49726039206134737
1349 2974 0
1350 2974 0
1351 2974 -0.99668365524927938
1352 2974 0.067678768813813697
1353 2974 -0
1354 2974 -0.49611791657971721
1355 2974 0.067532010077255816
1356 2974 -0
2509 2974 0
2510 2974 0
2511 2974 0
2512 2974 0.70516692496269695
2513 2974 0
2514 2974 0
2875 2974 -0
2876 2974 -0
2877 2974 -0
2878 2974 -0.70516692496269695
2879 2974 -0
2880 2974 -0
1345 2975 0
1346 2975 0
1347 2975 0
1348 2975 0
1349 2975 0.49840543371991375
1350 2975 0
1351 2975 -0.067601049744234934
1352 2975 -0.99553485319114277
1353 2975 -0
1354 2975 -0.067376861357772475
1355 2975 -0.49382500867881207
1356 2975 -0
2509 2975 0
2510 2975 0
2511 2975 0
2512 2975 0
2513 2975 0.70516692496269695
2514 2975 0
2875 2975 -0
2876 2975 -0
2877 2975 -0
2878 2975 -0
2879 2975 -0.70516692496269695
2880 2975 -0
1345 2976 0
1346 2976 0
1347 2976 0
1348 2976 0
1349 2976 0
1350 2976 0.49726039206134764
1351 2976 -0
1352 2976 -0
1353 2976 -0.99668365524927816
1354 2976 -0
1355 2976 -0
1356 2976 -0.49611791657971638
2509 2976 0
2510 2976 0
2511 2976 0
2512 2976 0
2513 2976 0
2514 2976 0.70516692496269695
2875 2976 -0
2876 2976 -0
2877 2976 -0
2878 2976 -0
2879 2976 -0
2880 2976 -0.70516692496269695
67 2977 0.01662412773633716
68 2977 0
69 2977 0
70 2977 0
71 2977 0
72 2977 0
73 2977 -0.016738711515653665
74 2977 5.1859358331731552e-06
75 2977 -0
76 2977 -0.00011420378000142444
77 2977 7.763820444667679e-06
78 2977 -0
1777 2977 -0.70516692496269695
1778 2977 -0
1779 2977 -0
1780 2977 -0
1781 2977 -0
1782 2977 -0
2875 2977 0.70516692496269695
2876 2977 0
2877 2977 0
2878 2977 0
2879 2977 0
2880 2977 0
67 2978 0
68 2978 0.016643240039254284
69 2978 0
70 2978 0
71 2978 0
72 2978 0
73 2978 -0
74 2978 -0.016643240039254253
75 2978 -0
76 2978 -0
77 2978 -0
78 2978 -0
1777 2978 -0
1778 2978 -0.70516692496269695
1779 2978 -0
1780 2978 -0
1781 2978 -0
1782 2978 -0
2875 2978 0
2876 2978 0.70516692496269695
2877 2978 0
2878 2978 0
2879 2978 0
2880 2978 0
67 2979 0
68 2979 0
69 2979 0.016624127736337181
70 2979 0
71 2979 0
72 2979 0
73 2979 -0
74 2979 -0
75 2979 -0.016585933143231667
76 2979 -0
77 2979 -0
78 2979 3.8067926667141391e-05
1777 2979 -0
1778 2979 -0
1779 2979 -0.70516692496269695
1780 2979 -0
1781 2979 -0
1782 2979 -0
2875 2979 0
2876 2979 0
2877 2979 0.70516692496269695
2878 2979 0
2879 2979 0
2880 2979 0
67 2980 0
68 2980 0
69 2980 0
70 2980 0.49726039206134737
71 2980 0
72 2980 0
73 2980 -0.99668365524927938
74 2980 0.067678768813813697
75 2980 -0
76 2980 -0.49611791657971721
77 2980 0.067532010077255816
78 2980 -0
1777 2980 -0
1778 2980 -0
1779 2980 -0
1780 2980 -0.70516692496269695
1781 2980 -0
1782 2980 -0
2875 2980 0
2876 2980 0
2877 2980 0
2878 2980 0.70516692496269695
2879 2980 0
2880 2980 0
67 2981 0
68 2981 0
69 2981 0
70 2981 0
71 2981 0.49840543371991375
72 2981 0
73 2981 -0.067601049744234934
74 2981 -0.99553485319114277
75 2981 -0
76 2981 -0.067376861357772475
77 2981 -0.49382500867881207
78 2981 -0
1777 2981 -0
1778 2981 -0
1779 2981 -0
1780 2981 -0
1781 2981 -0.70516692496269695
1782 2981 -0
2875 2981 0
2876 2981 0
2877 2981 0
2878 2981 0
2879 2981 0.70516692496269695
2880 2981 0
67 2982 0
68 2982 0
69 2982 0
70 2982 0
71 2982 0
72 2982 0.49726039206134764
73 2982 -0
74 2982 -0
75 2982 -0.99668365524927816
76 2982 -0
77 2982 -0
78 2982 -0.49611791657971638
1777 2982 -0
1778 2982 -0
1779 2982 -0
1780 2982 -0
1781 2982 -0
1782 2982 -0.70516692496269695
2875 2982 0
2876 2982 0
2877 2982 0
2878 2982 0
2879 2982 0
2880 2982 0.70516692496269695
73 2983 0.01662412773633716
74 2983 0
75 2983 0
76 2983 0
77 2983 0
78 2983 0
79 2983 -0.016738711515653665
80 2983 5.1859358331731552e-06
81 2983 -0
82 2983 -0.00011420378000142444
83 2983 7.763820444667679e-06
84 2983 -0
1783 2983 -0.70516692496269695
1784 2983 -0
1785 2983 -0
1786 2983 -0
1787 2983 -0
1788 2983 -0
2881 2983 0.70516692496269695
2882 2983 0
2883 2983 0
2884 2983 0
2885 2983 0
2886 2983 0
73 2984 0
74 2984 0.016643240039254284
75 2984 0
76 2984 0
77 2984 0
78 2984 0
79 2984 -0
80 2984 -0.016643240039254253
81 2984 -0
82 2984 -0
83 2984 -0
84 2984 -0
1783 2984 -0
1784 2984 -0.70516692496269695
1785 2984 -0
1786 2984 -0
1787 2984 -0
1788 2984 -0
2881 2984 0
2882 2984 0.70516692496269695
2883 2984 0
2884 2984 0
2885 2984 0
2886 2984 0
73 2985 0
74 2985 0
75 2985 0.016624127736337181
76 2985 0
77 2985 0
78 2985 0
79 2985 -0
80 2985 -0
81 2985 -0.016585933143231667
82 2985 -0
83 2985 -0
84 2985 3.8067926667141391e-05
1783 2985 -0
1784 2985 -0
1785 2985 -0.70516692496269695
1786 2985 -0
1787 2985 -0
1788 2985 -0
2881 2985 0
2882 2985 0
2883 2985 0.70516692496269695
2884 2985 0
2885 2985 0
2886 2985 0
73 2986 0
74 2986 0
75 2986 0
76 2986 0.49726039206134737
77 2986 0
78 2986 0
79 2986 -0.99668365524927938
80 2986 0.067678768813813697
81 2986 -0
82 2986 -0.49611791657971721
83 2986 0.067532010077255816
84 2986 -0
1783 2986 -0
1784 2986 -0
1785 2986 -0
1786 2986 -0.70516692496269695
1787 2986 -0
1788 2986 -0
2881 2986 0
2882 2986 0
2883 2986 0
2884 2986 0.70516692496269695
2885 2986 0
2886 2986 0
73 2987 0
74 2987 0
75 2987 0
76 2987 0
77 2987 0.49840543371991375
78 2987 0
79 2987 -0.067601049744234934
80 2987 -0.99553485319114277
81 2987 -0
82 2987 -0.067376861357772475
83 2987 -0.49382500867881207
84 2987 -0
1783 2987 -0
1784 2987 -0
1785 2987 -0
1786 2987 -0
1787 2987 -0.70516692496269695
1788 2987 -0
2881 2987 0
2882 2987 0
2883 2987 0
2884 2987 0
2885 2987 0.70516692496269695
2886 2987 0
73 2988 0
74 2988 0
75 2988 0
76 2988 0
77 2988 0
78 2988 0.49726039206134764
79 2988 -0
80 2988 -0
81 2988 -0.99668365524927816
82 2988 -0
83 2988 -0
84 2988 -0.49611791657971638
1783 2988 -0
1784 2988 -0
1785 2988 -0
1786 2988 -0
1787 2988 -0
1788 2988 -0.70516692496269695
2881 2988 0
2882 2988 0
2883 2988 0
2884 2988 0
2885 2988 0
2886 2988 0.70516692496269695
919 2989 0.01662412773633716
920 2989 0
921 2989 0
922 2989 0
923 2989 0
924 2989 0
925 2989 -0.016738711515653665
926 2989 5.1859358331731552e-06
927 2989 -0
928 2989 -0.00011420378000142444
929 2989 7.763820444667679e-06
930 2989 -0
2143 2989 0.70516692496269695
2144 2989 0
2145 2989 0
2146 2989 0
2147 2989 0
2148 2989 0
2509 2989 -0.70516692496269695
2510 2989 -0
2511 2989 -0
2512 2989 -0
2513 2989 -0
2514 2989 -0
919 2990 0
920 2990 0.016643240039254284
921 2990 0
922 2990 0
923 2990 0
924 2990 0
925 2990 -0
926 2990 -0.016643240039254253
927 2990 -0
928 2990 -0
929 2990 -0
930 2990 -0
2143 2990 0
2144 2990 0.70516692496269695
2145 2990 0
2146 2990 0
2147 2990 0
2148 2990 0
2509 2990 -0
2510 2990 -0.70516692496269695
2511 2990 -0
2512 2990 -0
2513 2990 -0
2514 2990 -0
919 2991 0
920 2991 0
921 2991 0.016624127736337181
922 2991 0
923 2991 0
924 2991 0
925 2991 -0
926 2991 -0
927 2991 -0.016585933143231667
928 2991 -0
929 2991 -0
930 2991 3.8067926667141391e-05
2143 2991 0
2144 2991 0
2145 2991 0.70516692496269695
2146 2991 0
2147 2991 0
2148 2991 0
2509 2991 -0
2510 2991 -0
2511 2991 -0.70516692496269695
2512 2991 -0
2513 2991 -0
2514 2991 -0
919 2992 0
920 2992 0
921 2992 0
922 2992 0.49726039206134737
923 2992 0
924 2992 0
925 2992 -0.99668365524927938
926 2992 0.067678768813813697
927 2992 -0
928 2992 -0.49611791657971721
929 2992 0.067532010077255816
930 2992 -0
2143 2992 0
2144 2992 0
2145 2992 0
2146 2992 0.70516692496269695
2147 2992 0
2148 2992 0
2509 2992 -0
2510 2992 -0
2511 2992 -0
2512 2992 -0.70516692496269695
2513 2992 -0
2514 2992 -0
919 2993 0
920 2993 0
921 2993 0
922 2993 0
923 2993 0.49840543371991375
924 2993 0
925 2993 -0.067601049744234934
926 2993 -0.99553485319114277
927 2993 -0
928 2993 -0.067376861357772475
929 2993 -0.49382500867881207
930 2993 -0
2143 2993 0
2144 2993 0
2145 2993 0
2146 2993 0
2147 2993 0.70516692496269695
2148 2993 0
2509 2993 -0
2510 2993 -0
2511 2993 -0
2512 2993 -0
2513 2993 -0.70516692496269695
2514 2993 -0
919 2994 0
920 2994 0
921 2994 0
922 2994 0
923 2994 0
924 2994 0.49726039206134764
925 2994 -0
926 2994 -0
927 2994 -0.99668365524927816
928 2994 -0
929 2994 -0
930 2994 -0.49611791657971638
2143 2994 0
2144 2994 0
2145 2994 0
2146 2994 0
2147 2994 0
2148 2994 0.70516692496269695
2509 2994 -0
2510 2994 -0
2511 2994 -0
2512 2994 -0
2513 2994 -0
2514 2994 -0.70516692496269695
925 2995 0.01662412773633716
926 2995 0
927 2995 0
928 2995 0
929 2995 0
930 2995 0
931 2995 -0.016738711515653665
932 2995 5.1859358331731552e-06
933 2995 -0
934 2995 -0.00011420378000142444
935 2995 7.763820444667679e-06
936 2995 -0
2149 2995 0.70516692496269695
2150 2995 0
2151 2995 0
2152 2995 0
2153 2995 0
2154 2995 0
2515 2995 -0.70516692496269695
2516 2995 -0
2517 2995 -0
2518 2995 -0
2519 2995 -0
2520 2995 -0
925 2996 0
926 2996 0.016643240039254284
927 2996 0
928 2996 0
929 2996 0
930 2996 0
931 2996 -0
932 2996 -0.016643240039254253
933 2996 -0
934 2996 -0
935 2996 -0
936 2996 -0
2149 2996 0
2150 2996 0.70516692496269695
2151 2996 0
2152 2996 0
2153 2996 0
2154 2996 0
2515 2996 -0
2516 2996 -0.70516692496269695
2517 2996 -0
2518 2996 -0
2519 2996 -0
2520 2996 -0
925 2997 0
926 2997 0
927 2997 0.016624127736337181
928 2997 0
929 2997 0
930 2997 0
931 2997 -0
932 2997 -0
933 2997 -0.016585933143231667
934 2997 -0
935 2997 -0
936 2997 3.8067926667141391e-05
2149 2997 0
2150 2997 0
2151 2997 0.70516692496269695
2152 2997 0
2153 2997 0
2154 2997 0
2515 2997 -0
2516 2997 -0
2517 2997 -0.70516692496269695
2518 2997 -0
2519 2997 -0
2520 2997 -0
925 2998 0
926 2998 0
927 2998 0
928 2998 0.49726039206134737
929 2998 0
930 2998 0
931 2998 -0.99668365524927938
932 2998 0.067678768813813697
933 2998 -0
934 2998 -0.49611791657971721
935 2998 0.067532010077255816
936 2998 -0
2149 2998 0
2150 2998 0
2151 2998 0
2152 2998 0.70516692496269695
2153 2998 0
2154 2998 0
2515 2998 -0
2516 2998 -0
2517 2998 -0
2518 2998 -0.70516692496269695
2519 2998 -0
2520 2998 -0
925 2999 0
926 2999 0
927 2999 0
928 2999 0
929 2999 0.49840543371991375
930 2999 0
931 2999 -0.067601049744234934
932 2999 -0.99553485319114277
933 2999 -0
934 2999 -0.067376861357772475
935 2999 -0.49382500867881207
936 2999 -0
2149 2999 0
2150 2999 0
2151 2999 0
2152 2999 0
2153 2999 0.70516692496269695
2154 2999 0
2515 2999 -0
2516 2999 -0
2517 2999 -0
2518 2999 -0
2519 2999 -0.70516692496269695
2520 2999 -0
925 3000 0
926 3000 0
927 3000 0
928 3000 0
929 3000 0
930 3000 0.49726039206134764
931 3000 -0
932 3000 -0
933 3000 -0.99668365524927816
934 3000 -0
935 3000 -0
936 3000 -0.49611791657971638
2149 3000 0
2150 3000 0
2151 3000 0
2152 3000 0
2153 3000 0
2154 3000 0.70516692496269695
2515 3000 -0
2516 3000 -0
2517 3000 -0
2518 3000 -0
2519 3000 -0
2520 3000 -0.70516692496269695
1351 3001 0.01662412773633716
1352 3001 0
1353 3001 0
1354 3001 0
1355 3001 0
1356 3001 0
1357 3001 -0.016738711515653665
1358 3001 5.1859358331731552e-06
1359 3001 -0
1360 3001 -0.00011420378000142444
1361 3001 7.763820444667679e-06
1362 3001 -0
2515 3001 0.70516692496269695
2516 3001 0
2517 3001 0
2518 3001 0
2519 3001 0
2520 3001 0
2881 3001 -0.70516692496269695
2882 3001 -0
2883 3001 -0
2884 3001 -0
2885 3001 -0
2886 3001 -0
1351 3002 0
1352 3002 0.016643240039254284
1353 3002 0
1354 3002 0
1355 3002 0
1356 3002 0
1357 3002 -0
1358 3002 -0.016643240039254253
1359 3002 -0
1360 3002 -0
1361 3002 -0
1362 3002 -0
2515 3002 0
2516 3002 0.70516692496269695
2517 3002 0
2518 3002 0
2519 3002 0
2520 3002 0
2881 3002 -0
2882 3002 -0.70516692496269695
2883 3002 -0
2884 3002 -0
2885 3002 -0
2886 3002 -0
1351 3003 0
1352 3003 0
1353 3003 0.016624127736337181
1354 3003 0
1355 3003 0
1356 3003 0
1357 3003 -0
1358 3003 -0
1359 3003 -0.016585933143231667
1360 3003 -0
1361 3003 -0
1362 3003 3.8067926667141391e-05
2515 3003 0
2516 3003 0
2517 3003 0.70516692496269695
2518 3003 0
2519 3003 0
2520 3003 0
2881 3003 -0
2882 3003 -0
2883 3003 -0.70516692496269695
2884 3003 -0
2885 3003 -0
2886 3003 -0
1351 3004 0
1352 3004 0
1353 3004 0
1354 3004 0.49726039206134737
1355 3004 0
1356 3004 0
1357 3004 -0.99668365524927938
1358 3004 0.067678768813813697
1359 3004 -0
1360 3004 -0.49611791657971721
1361 3004 0.067532010077255816
1362 3004 -0
2515 3004 0
2516 3004 0
2517 3004 0
2518 3004 0.70516692496269695
2519 3004 0
2520 3004 0
2881 3004 -0
2882 3004 -0
2883 3004 -0
2884 3004 -0.70516692496269695
2885 3004 -0
2886 3004 -0
1351 3005 0
1352 3005 0
1353 3005 0
1354 3005 0
1355 3005 0.49840543371991375
1356 3005 0
1357 3005 -0.067601049744234934
1358 3005 -0.99553485319114277
1359 3005 -0
1360 3005 -0.067376861357772475
1361 3005 -0.49382500867881207
1362 3005 -0
2515 3005 0
2516 3005 0
2517 3005 0
2518 3005 0
2519 3005 0.70516692496269695
2520 3005 0
2881 3005 -0
2882 3005 -0
2883 3005 -0
2884 3005 -0
2885 3005 -0.70516692496269695
2886 3005 -0
1351 3006 0
1352 3006 0
1353 3006 0
1354 3006 0
1355 3006 0
1356 3006 0.49726039206134764
1357 3006 -0
1358 3006 -0
1359 3006 -0.99668365524927816
1360 3006 -0
1361 3006 -0
1362 3006 -0.49611791657971638
2515 3006 0
2516 3006 0
2517 3006 0
2518 3006 0
2519 3006 0
2520 3006 0.70516692496269695
2881 3006 -0
2882 3006 -0
2883 3006 -0
2884 3006 -0
2885 3006 -0
2886 3006 -0.70516692496269695
1357 3007 0.01662412773633716
1358 3007 0
1359 3007 0
1360 3007 0
1361 3007 0
1362 3007 0
1363 3007 -0.016738711515653665
1364 3007 5.1859358331731552e-06
1365 3007 -0
1366 3007 -0.00011420378000142444
1367 3007 7.763820444667679e-06
1368 3007 -0
2521 3007 0.70516692496269695
2522 3007 0
2523 3007 0
2524 3007 0
2525 3007 0
2526 3007 0
2887 3007 -0.70516692496269695
2888 3007 -0
2889 3007 -0
2890 3007 -0
2891 3007 -0
2892 3007 -0
1357 3008 0
1358 3008 0.016643240039254284
1359 3008 0
1360 3008 0
1361 3008 0
1362 3008 0
1363 3008 -0
1364 3008 -0.016643240039254253
1365 3008 -0
1366 3008 -0
1367 3008 -0
1368 3008 -0
2521 3008 0
2522 3008 0.70516692496269695
2523 3008 0
2524 3008 0
2525 3008 0
2526 3008 0
2887 3008 -0
2888 3008 -0.70516692496269695
2889 3008 -0
2890 3008 -0
2891 3008 -0
2892 3008 -0
1357 3009 0
1358 3009 0
1359 3009 0.016624127736337181
1360 3009 0
1361 3009 0
1362 3009 0
1363 3009 -0
1364 3009 -0
1365 3009 -0.016585933143231667
1366 3009 -0
1367 3009 -0
1368 3009 3.8067926667141391e-05
2521 3009 0
2522 3009 0
2523 3009 0.70516692496269695
2524 3009 0
2525 3009 0
2526 3009 0
2887 3009 -0
2888 3009 -0
2889 3009 -0.70516692496269695
2890 3009 -0
2891 3009 -0
2892 3009 -0
1357 3010 0
1358 3010 0
1359 3010 0
1360 3010 0.49726039206134737
1361 3010 0
1362 3010 0
1363 3010 -0.99668365524927938
1364 3010 0.067678768813813697
1365 3010 -0
1366 3010 -0.49611791657971721
1367 3010 0.067532010077255816
1368 3010 -0
2521 3010 0
2522 3010 0
2523 3010 0
2524 3010 0.70516692496269695
2525 3010 0
2526 3010 0
2887 3010 -0
2888 3010 -0
2889 3010 -0
2890 3010 -0.70516692496269695
2891 3010 -0
2892 3010 -0
1357 3011 0
1358 3011 0
1359 3011 0
1360 3011 0
1361 3011 0.49840543371991375
1362 3011 0
1363 3011 -0.067601049744234934
1364 3011 -0.99553485319114277
1365 3011 -0
1366 3011 -0.067376861357772475
1367 3011 -0.49382500867881207
1368 3011 -0
2521 3011 0
2522 3011 0
2523 3011 0
2524 3011 0
2525 3011 0.70516692496269695
2526 3011 0
2887 3011 -0
2888 3011 -0
2889 3011 -0
2890 3011 -0
2891 3011 -0.70516692496269695
2892 3011 -0
1357 3012 0
1358 3012 0
1359 3012 0
1360 3012 0
1361 3012 0
1362 3012 0.49726039206134764
1363 3012 -0
1364 3012 -0
1365 3012 -0.99668365524927816
1366 3012 -0
1367 3012 -0
1368 3012 -0.49611791657971638
2521 3012 0
2522 3012 0
2523 3012 0
2524 3012 0
2525 3012 0
2526 3012 0.70516692496269695
2887 3012 -0
2888 3012 -0
2889 3012 -0
2890 3012 -0
2891 3012 -0
2892 3012 -0.70516692496269695
499 3013 0.01662412773633716
500 3013 0
501 3013 0
502 3013 0
503 3013 0
504 3013 0
505 3013 -0.016738711515653665
506 3013 5.1859358331731552e-06
507 3013 -0
508 3013 -0.00011420378000142444
509 3013 7.763820444667679e-06
510 3013 -0
1783 3013 0.70516692496269695
1784 3013 0
1785 3013 0
1786 3013 0
1787 3013 0
1788 3013 0
2149 3013 -0.70516692496269695
2150 3013 -0
2151 3013 -0
2152 3013 -0
2153 3013 -0
2154 3013 -0
499 3014 0
500 3014 0.016643240039254284
501 3014 0
502 3014 0
503 3014 0
504 3014 0
505 3014 -0
506 3014 -0.016643240039254253
507 3014 -0
508 3014 -0
509 3014 -0
510 3014 -0
1783 3014 0
1784 3014 0.70516692496269695
1785 3014 0
1786 3014 0
1787 3014 0
1788 3014 0
2149 3014 -0
2150 3014 -0.70516692496269695
2151 3014 -0
2152 3014 -0
2153 3014 -0
2154 3014 -0
499 3015 0
500 3015 0
501 3015 0.016624127736337181
502 3015 0
503 3015 0
504 3015 0
505 3015 -0
506 3015 -0
507 3015 -0.016585933143231667
508 3015 -0
509 3015 -0
510 3015 3.8067926667141391e-05
1783 3015 0
1784 3015 0
1785 3015 0.70516692496269695
1786 3015 0
1787 3015 0
1788 3015 0
2149 3015 -0
2150 3015 -0
2151 3015 -0.70516692496269695
2152 3015 -0
2153 3015 -0
2154 3015 -0
499 3016 0
500 3016 0
501 3016 0
502 3016 0.49726039206134737
503 3016 0
504 3016 0
505 3016 -0.99668365524927938
506 3016 0.067678768813813697
507 3016 -0
508 3016 -0.49611791657971721
509 3016 0.067532010077255816
510 3016 -0
1783 3016 0
1784 3016 0
1785 3016 0
1786 3016 0.70516692496269695
1787 3016 0
1788 3016 0
2149 3016 -0
2150 3016 -0
2151 3016 -0
2152 3016 -0.70516692496269695
2153 3016 -0
2154 3016 -0
499 3017 0
500 3017 0
501 3017 0
502 3017 0
503 3017 0.49840543371991375
504 3017 0
505 3017 -0.067601049744234934
506 3017 -0.99553485319114277
507 3017 -0
508 3017 -0.067376861357772475
509 3017 -0.49382500867881207
510 3017 -0
1783 3017 0
1784 3017 0
1785 3017 0
1786 3017 0
1787 3017 0.70516692496269695
1788 3017 0
2149 3017 -0
2150 3017 -0
2151 3017 -0
2152 3017 -0
2153 3017 -0.70516692496269695
2154 3017 -0
499 3018 0
500 3018 0
501 3018 0
502 3018 0
503 3018 0
504 3018 0.49726039206134764
505 3018 -0
506 3018 -0
507 3018 -0.99668365524927816
508 3018 -0
509 3018 -0
510 3018 -0.49611791657971638
1783 3018 0
1784 3018 0
1785 3018 0
1786 3018 0
1787 3018 0
1788 3018 0.70516692496269695
2149 3018 -0
2150 3018 -0
2151 3018 -0
2152 3018 -0
2153 3018 -0
2154 3018 -0.70516692496269695
505 3019 0.01662412773633716
506 3019 0
507 3019 0
508 3019 0
509 3019 0
510 3019 0
511 3019 -0.016738711515653665
512 3019 5.1859358331731552e-06
513 3019 -0
514 3019 -0.00011420378000142444
515 3019 7.763820444667679e-06
516 3019 -0
1789 3019 0.70516692496269695
1790 3019 0
1791 3019 0
1792 3019 0
1793 3019 0
1794 3019 0
2155 3019 -0.70516692496269695
2156 3019 -0
2157 3019 -0
2158 3019 -0
2159 3019 -0
2160 3019 -0
505 3020 0
506 3020 0.016643240039254284
507 3020 0
508 3020 0
509 3020 0
510 3020 0
511 3020 -0
512 3020 -0.016643240039254253
513 3020 -0
514 3020 -0
515 3020 -0
516 3020 -0
1789 3020 0
1790 3020 0.70516692496269695
1791 3020 0
1792 3020 0
1793 3020 0
1794 3020 0
2155 3020 -0
2156 3020 -0.70516692496269695
2157 3020 -0
2158 3020 -0
2159 3020 -0
2160 3020 -0
505 3021 0
506 3021 0
507 3021 0.016624127736337181
508 3021 0
509 3021 0
510 3021 0
511 3021 -0
512 3021 -0
513 3021 -0.016585933143231667
514 3021 -0
515 3021 -0
516 3021 3.8067926667141391e-05
1789 3021 0
1790 3021 0
1791 3021 0.70516692496269695
1792 3021 0
1793 3021 0
1794 3021 0
2155 3021 -0
2156 3021 -0
2157 3021 -0.70516692496269695
2158 3021 -0
2159 3021 -0
2160 3021 -0
505 3022 0
506 3022 0
507 3022 0
508 3022 0.49726039206134737
509 3022 0
510 3022 0
511 3022 -0.99668365524927938
512 3022 0.067678768813813697
513 3022 -0
514 3022 -0.49611791657971721
515 3022 0.067532010077255816
516 3022 -0
1789 3022 0
1790 3022 0
1791 3022 0
1792 3022 0.70516692496269695
1793 3022 0
1794 3022 0
2155 3022 -0
2156 3022 -0
2157 3022 -0
2158 3022 -0.70516692496269695
2159 3022 -0
2160 3022 -0
505 3023 0
506 3023 0
507 3023 0
508 3023 0
509 3023 0.49840543371991375
510 3023 0
511 3023 -0.067601049744234934
512 3023 -0.99553485319114277
513 3023 -0
514 3023 -0.067376861357772475
515 3023 -0.49382500867881207
516 3023 -0
1789 3023 0
1790 3023 0
1791 3023 0
1792 3023 0
1793 3023 0.70516692496269695
1794 3023 0
2155 3023 -0
2156 3023 -0
2157 3023 -0
2158 3023 -0
2159 3023 -0.70516692496269695
2160 3023 -0
505 3024 0
506 3024 0
507 3024 0
508 3024 0
509 3024 0
510 3024 0.49726039206134764
511 3024 -0
512 3024 -0
513 3024 -0.99668365524927816
514 3024 -0
515 3024 -0
516 3024 -0.49611791657971638
1789 3024 0
1790 3024 0
1791 3024 0
1792 3024 0
1793 3024 0
1794 3024 0.70516692496269695
2155 3024 -0
2156 3024 -0
2157 3024 -0
2158 3024 -0
2159 3024 -0
2160 3024 -0.70516692496269695
931 3025 0.01662412773633716
932 3025 0
933 3025 0
934 3025 0
935 3025 0
936 3025 0
937 3025 -0.016738711515653665
938 3025 5.1859358331731552e-06
939 3025 -0
940 3025 -0.00011420378000142444
941 3025 7.763820444667679e-06
942 3025 -0
2155 3025 0.70516692496269695
2156 3025 0
2157 3025 0
2158 3025 0
2159 3025 0
2160 3025 0
2521 3025 -0.70516692496269695
2522 3025 -0
2523 3025 -0
2524 3025 -0
2525 3025 -0
2526 3025 -0
931 3026 0
932 3026 0.016643240039254284
933 3026 0
934 3026 0
935 3026 0
936 3026 0
937 3026 -0
938 3026 -0.016643240039254253
939 3026 -0
940 3026 -0
941 3026 -0
942 3026 -0
2155 3026 0
2156 3026 0.70516692496269695
2157 3026 0
2158 3026 0
2159 3026 0
2160 3026 0
2521 3026 -0
2522 3026 -0.70516692496269695
2523 3026 -0
2524 3026 -0
2525 3026 -0
2526 3026 -0
931 3027 0
932 3027 0
933 3027 0.016624127736337181
934 3027 0
935 3027 0
936 3027 0
937 3027 -0
938 3027 -0
939 3027 -0.016585933143231667
940 3027 -0
941 3027 -0
942 3027 3.8067926667141391e-05
2155 3027 0
2156 3027 0
2157 3027 0.70516692496269695
2158 3027 0
2159 3027 0
2160 3027 0
2521 3027 -0
2522 3027 -0
2523 3027 -0.70516692496269695
2524 3027 -0
2525 3027 -0
2526 3027 -0
931 3028 0
932 3028 0
933 3028 0
934 3028 0.49726039206134737
935 3028 0
936 3028 0
937 3028 -0.99668365524927938
938 3028 0.067678768813813697
939 3028 -0
940 3028 -0.49611791657971721
941 3028 0.067532010077255816
942 3028 -0
2155 3028 0
2156 3028 0
2157 3028 0
2158 3028 0.70516692496269695
2159 3028 0
2160 3028 0
2521 3028 -0
2522 3028 -0
2523 3028 -0
2524 3028 -0.70516692496269695
2525 3028 -0
2526 3028 -0
931 3029 0
932 3029 0
933 3029 0
934 3029 0
935 3029 0.49840543371991375
936 3029 0
937 3029 -0.067601049744234934
938 3029 -0.99553485319114277
939 3029 -0
940 3029 -0.067376861357772475
941 3029 -0.49382500867881207
942 3029 -0
2155 3029 0
2156 3029 0
2157 3029 0
2158 3029 0
2159 3029 0.70516692496269695
2160 3029 0
2521 3029 -0
2522 3029 -0
2523 3029 -0
2524 3029 -0
2525 3029 -0.70516692496269695
2526 3029 -0
931 3030 0
932 3030 0
933 3030 0
934 3030 0
935 3030 0
936 3030 0.49726039206134764
937 3030 -0
938 3030 -0
939 3030 -0.99668365524927816
940 3030 -0
941 3030 -0
942 3030 -0.49611791657971638
2155 3030 0
2156 3030 0
2157 3030 0
2158 3030 0
2159 3030 0
2160 3030 0.70516692496269695
2521 3030 -0
2522 3030 -0
2523 3030 -0
2524 3030 -0
2525 3030 -0
2526 3030 -0.70516692496269695
937 3031 0.01662412773633716
938 3031 0
939 3031 0
940 3031 0
941 3031 0
942 3031 0
943 3031 -0.016738711515653665
944 3031 5.1859358331731552e-06
945 3031 -0
946 3031 -0.00011420378000142444
947 3031 7.763820444667679e-06
948 3031 -0
2161 3031 0.70516692496269695
2162 3031 0
2163 3031 0
2164 3031 0
2165 3031 0
2166 3031 0
2527 3031 -0.70516692496269695
2528 3031 -0
2529 3031 -0
2530 3031 -0
2531 3031 -0
2532 3031 -0
937 3032 0
938 3032 0.016643240039254284
939 3032 0
940 3032 0
941 3032 0
942 3032 0
943 3032 -0
944 3032 -0.016643240039254253
945 3032 -0
946 3032 -0
947 3032 -0
948 3032 -0
2161 3032 0
2162 3032 0.70516692496269695
2163 3032 0
2164 3032 0
2165 3032 0
2166 3032 0
2527 3032 -0
2528 3032 -0.70516692496269695
2529 3032 -0
2530 3032 -0
2531 3032 -0
2532 3032 -0
937 3033 0
938 3033 0
939 3033 0.016624127736337181
940 3033 0
941 3033 0
942 3033 0
943 3033 -0
944 3033 -0
945 3033 -0.016585933143231667
946 3033 -0
947 3033 -0
948 3033 3.8067926667141391e-05
2161 3033 0
2162 3033 0
2163 3033 0.70516692496269695
2164 3033 0
2165 3033 0
2166 3033 0
2527 3033 -0
2528 3033 -0
2529 3033 -0.70516692496269695
2530 3033 -0
2531 3033 -0
2532 3033 -0
937 3034 0
938 3034 0
939 3034 0
940 3034 0.49726039206134737
941 3034 0
942 3034 0
943 3034 -0.99668365524927938
944 3034 0.067678768813813697
945 3034 -0
946 3034 -0.49611791657971721
947 3034 0.067532010077255816
948 3034 -0
2161 3034 0
2162 3034 0
2163 3034 0
2164 3034 0.70516692496269695
2165 3034 0
2166 3034 0
2527 3034 -0
2528 3034 -0
2529 3034 -0
2530 3034 -0.70516692496269695
2531 3034 -0
2532 3034 -0
937 3035 0
938 3035 0
939 3035 0
940 3035 0
941 3035 0.49840543371991375
942 3035 0
943 3035 -0.067601049744234934
944 3035 -0.99553485319114277
945 3035 -0
946 3035 -0.067376861357772475
947 3035 -0.49382500867881207
948 3035 -0
2161 3035 0
2162 3035 0
2163 3035 0
2164 3035 0
2165 3035 0.70516692496269695
2166 3035 0
2527 3035 -0
2528 3035 -0
2529 3035 -0
2530 3035 -0
2531 3035 -0.70516692496269695
2532 3035 -0
937 3036 0
938 3036 0
939 3036 0
940 3036 0
941 3036 0
942 3036 0.49726039206134764
943 3036 -0
944 3036 -0
945 3036 -0.99668365524927816
946 3036 -0
947 3036 -0
948 3036 -0.49611791657971638
2161 3036 0
2162 3036 0
2163 3036 0
2164 3036 0
2165 3036 0
2166 3036 0.70516692496269695
2527 3036 -0
2528 3036 -0
2529 3036 -0
2530 3036 -0
2531 3036 -0
2532 3036 -0.70516692496269695
79 3037 0.01662412773633716
80 3037 0
81 3037 0
82 3037 0
83 3037 0
84 3037 0
85 3037 -0.016738711515653665
86 3037 5.1859358331731552e-06
87 3037 -0
88 3037 -0.00011420378000142444
89 3037 7.763820444667679e-06
90 3037 -0
1789 3037 -0.70516692496269695
1790 3037 -0
1791 3037 -0
1792 3037 -0
1793 3037 -0
1794 3037 -0
2887 3037 0.70516692496269695
2888 3037 0
2889 3037 0
2890 3037 0
2891 3037 0
2892 3037 0
79 3038 0
80 3038 0.016643240039254284
81 3038 0
82 3038 0
83 3038 0
84 3038 0
85 3038 -0
86 3038 -0.016643240039254253
87 3038 -0
88 3038 -0
89 3038 -0
90 3038 -0
1789 3038 -0
1790 3038 -0.70516692496269695
1791 3038 -0
1792 3038 -0
1793 3038 -0
1794 3038 -0
2887 3038 0
2888 3038 0.70516692496269695
2889 3038 0
2890 3038 0
2891 3038 0
2892 3038 0
79 3039 0
80 3039 0
81 3039 0.016624127736337181
82 3039 0
83 3039 0
84 3039 0
85 3039 -0
86 3039 -0
87 3039 -0.016585933143231667
88 3039 -0
89 3039 -0
90 3039 3.8067926667141391e-05
1789 3039 -0
1790 3039 -0
1791 3039 -0.70516692496269695
1792 3039 -0
1793 3039 -0
1794 3039 -0
2887 3039 0
2888 3039 0
2889 3039 0.70516692496269695
2890 3039 0
2891 3039 0
2892 3039 0
79 3040 0
80 3040 0
81 3040 0
82 3040 0.49726039206134737
83 3040 0
84 3040 0
85 3040 -0.99668365524927938
86 3040 0.067678768813813697
87 3040 -0
88 3040 -0.49611791657971721
89 3040 0.067532010077255816
90 3040 -0
1789 3040 -0
1790 3040 -0
1791 3040 -0
1792 3040 -0.70516692496269695
1793 3040 -0
1794 3040 -0
2887 3040 0
2888 3040 0
2889 3040 0
2890 3040 0.70516692496269695
2891 3040 0
2892 3040 0
79 3041 0
80 3041 0
81 3041 0
82 3041 0
83 3041 0.49840543371991375
84 3041 0
85 3041 -0.067601049744234934
86 3041 -0.99553485319114277
87 3041 -0
88 3041 -0.067376861357772475
89 3041 -0.49382500867881207
90 3041 -0
1789 3041 -0
1790 3041 -0
1791 3041 -0
1792 3041 -0
1793 3041 -0.70516692496269695
1794 3041 -0
2887 3041 0
2888 3041 0
2889 3041 0
2890 3041 0
2891 3041 0.70516692496269695
2892 3041 0
79 3042 0
80 3042 0
81 3042 0
82 3042 0
83 3042 0
84 3042 0.49726039206134764
85 3042 -0
86 3042 -0
87 3042 -0.99668365524927816
88 3042 -0
89 3042 -0
90 3042 -0.49611791657971638
1789 3042 -0
1790 3042 -0
1791 3042 -0
1792 3042 -0
1793 3042 -0
1794 3042 -0.70516692496269695
2887 3042 0
2888 3042 0
2889 3042 0
2890 3042 0
2891 3042 0
2892 3042 0.70516692496269695
85 3043 0.01662412773633716
86 3043 0
87 3043 0
88 3043 0
89 3043 0
90 3043 0
91 3043 -0.016738711515653665
92 3043 5.1859358331731552e-06
93 3043 -0
94 3043 -0.00011420378000142444
95 3043 7.763820444667679e-06
96 3043 -0
1795 3043 -0.70516692496269695
1796 3043 -0
1797 3043 -0
1798 3043 -0
1799 3043 -0
1800 3043 -0
2893 3043 0.70516692496269695
2894 3043 0
2895 3043 0
2896 3043 0
2897 3043 0
2898 3043 0
85 3044 0
86 3044 0.016643240039254284
87 3044 0
88 3044 0
89 3044 0
90 3044 0
91 3044 -0
92 3044 -0.016643240039254253
93 3044 -0
94 3044 -0
95 3044 -0
96 3044 -0
1795 3044 -0
1796 3044 -0.70516692496269695
1797 3044 -0
1798 3044 -0
1799 3044 -0
1800 3044 -0
2893 3044 0
2894 3044 0.70516692496269695
2895 3044 0
2896 3044 0
2897 3044 0
2898 3044 0
85 3045 0
86 3045 0
87 3045 0.016624127736337181
88 3045 0
89 3045 0
90 3045 0
91 3045 -0
92 3045 -0
93 3045 -0.016585933143231667
94 3045 -0
95 3045 -0
96 3045 3.8067926667141391e-05
1795 3045 -0
1796 3045 -0
1797 3045 -0.70516692496269695
1798 3045 -0
1799 3045 -0
1800 3045 -0
2893 3045 0
2894 3045 0
2895 3045 0.70516692496269695
2896 3045 0
2897 3045 0
2898 3045 0
85 3046 0
86 3046 0
87 3046 0
88 3046 0.49726039206134737
89 3046 0
90 3046 0
91 3046 -0.99668365524927938
92 3046 0.067678768813813697
93 3046 -0
94 3046 -0.49611791657971721
95 3046 0.067532010077255816
96 3046 -0
1795 3046 -0
1796 3046 -0
1797 3046 -0
1798 3046 -0.70516692496269695
1799 3046 -0
1800 3046 -0
2893 3046 0
2894 3046 0
2895 3046 0
2896 3046 0.70516692496269695
2897 3046 0
2898 3046 0
85 3047 0
86 3047 0
87 3047 0
88 3047 0
89 3047 0.49840543371991375
90 3047 0
91 3047 -0.067601049744234934
92 3047 -0.99553485319114277
93 3047 -0
94 3047 -0.067376861357772475
95 3047 -0.49382500867881207
96 3047 -0
1795 3047 -0
1796 3047 -0
1797 3047 -0
1798 3047 -0
1799 3047 -0.70516692496269695
1800 3047 -0
2893 3047 0
2894 3047 0
2895 3047 0
2896 3047 0
2897 3047 0.70516692496269695
2898 3047 0
85 3048 0
86 3048 0
87 3048 0
88 3048 0
89 3048 0
90 3048 0.49726039206134764
91 3048 -0
92 3048 -0
93 3048 -0.99668365524927816
94 3048 -0
95 3048 -0
96 3048 -0.49611791657971638
1795 3048 -0
1796 3048 -0
1797 3048 -0
1798 3048 -0
1799 3048 -0
1800 3048 -0.70516692496269695
2893 3048 0
2894 3048 0
2895 3048 0
2896 3048 0
2897 3048 0
2898 3048 0.70516692496269695
511 3049 0.01662412773633716
512 3049 0
513 3049 0
514 3049 0
515 3049 0
516 3049 0
517 3049 -0.016738711515653665
518 3049 5.1859358331731552e-06
519 3049 -0
520 3049 -0.00011420378000142444
521 3049 7.763820444667679e-06
522 3049 -0
1795 3049 0.70516692496269695
1796 3049 0
1797 3049 0
1798 3049 0
1799 3049 0
1800 3049 0
2161 3049 -0.70516692496269695
2162 3049 -0
2163 3049 -0
2164 3049 -0
2165 3049 -0
2166 3049 -0
511 3050 0
512 3050 0.016643240039254284
513 3050 0
514 3050 0
515 3050 0
516 3050 0
517 3050 -0
518 3050 -0.016643240039254253
519 3050 -0
520 3050 -0
521 3050 -0
522 3050 -0
1795 3050 0
1796 3050 0.70516692496269695
1797 3050 0
1798 3050 0
1799 3050 0
1800 3050 0
2161 3050 -0
2162 3050 -0.70516692496269695
2163 3050 -0
2164 3050 -0
2165 3050 -0
2166 3050 -0
511 3051 0
512 3051 0
513 3051 0.016624127736337181
514 3051 0
515 3051 0
516 3051 0
517 3051 -0
518 3051 -0
519 3051 -0.016585933143231667
520 3051 -0
521 3051 -0
522 3051 3.8067926667141391e-05
1795 3051 0
1796 3051 0
1797 3051 0.70516692496269695
1798 3051 0
1799 3051 0
1800 3051 0
2161 3051 -0
2162 3051 -0
2163 3051 -0.70516692496269695
2164 3051 -0
2165 3051 -0
2166 3051 -0
511 3052 0
512 3052 0
513 3052 0
514 3052 0.49726039206134737
515 3052 0
516 3052 0
517 3052 -0.99668365524927938
518 3052 0.067678768813813697
519 3052 -0
520 3052 -0.49611791657971721
521 3052 0.067532010077255816
522 3052 -0
1795 3052 0
1796 3052 0
1797 3052 0
1798 3052 0.70516692496269695
1799 3052 0
1800 3052 0
2161 3052 -0
2162 3052 -0
2163 3052 -0
2164 3052 -0.70516692496269695
2165 3052 -0
2166 3052 -0
511 3053 0
512 3053 0
513 3053 0
514 3053 0
515 3053 0.49840543371991375
516 3053 0
517 3053 -0.067601049744234934
518 3053 -0.99553485319114277
519 3053 -0
520 3053 -0.067376861357772475
521 3053 -0.49382500867881207
522 3053 -0
1795 3053 0
1796 3053 0
1797 3053 0
1798 3053 0
1799 3053 0.70516692496269695
1800 3053 0
2161 3053 -0
2162 3053 -0
2163 3053 -0
2164 3053 -0
2165 3053 -0.70516692496269695
2166 3053 -0
511 3054 0
512 3054 0
513 3054 0
514 3054 0
515 3054 0
516 3054 0.49726039206134764
517 3054 -0
518 3054 -0
519 3054 -0.99668365524927816
520 3054 -0
521 3054 -0
522 3054 -0.49611791657971638
1795 3054 0
1796 3054 0
1797 3054 0
1798 3054 0
1799 3054 0
1800 3054 0.70516692496269695
2161 3054 -0
2162 3054 -0
2163 3054 -0
2164 3054 -0
2165 3054 -0
2166 3054 -0.70516692496269695
517 3055 0.01662412773633716
518 3055 0
519 3055 0
520 3055 0
521 3055 0
522 3055 0
523 3055 -0.016738711515653665
524 3055 5.1859358331731552e-06
525 3055 -0
526 3055 -0.00011420378000142444
527 3055 7.763820444667679e-06
528 3055 -0
1801 3055 0.70516692496269695
1802 3055 0
1803 3055 0
1804 3055 0
1805 3055 0
1806 3055 0
2167 3055 -0.70516692496269695
2168 3055 -0
2169 3055 -0
2170 3055 -0
2171 3055 -0
2172 3055 -0
517 3056 0
518 3056 0.016643240039254284
519 3056 0
520 3056 0
521 3056 0
522 3056 0
523 3056 -0
524 3056 -0.016643240039254253
525 3056 -0
526 3056 -0
527 3056 -0
528 3056 -0
1801 3056 0
1802 3056 0.70516692496269695
1803 3056 0
1804 3056 0
1805 3056 0
1806 3056 0
2167 3056 -0
2168 3056 -0.70516692496269695
2169 3056 -0
2170 3056 -0
2171 3056 -0
2172 3056 -0
517 3057 0
518 3057 0
519 3057 0.016624127736337181
520 3057 0
521 3057 0
522 3057 0
523 3057 -0
524 3057 -0
525 3057 -0.016585933143231667
526 3057 -0
527 3057 -0
528 3057 3.8067926667141391e-05
1801 3057 0
1802 3057 0
1803 3057 0.70516692496269695
1804 3057 0
1805 3057 0
1806 3057 0
2167 3057 -0
2168 3057 -0
2169 3057 -0.70516692496269695
2170 3057 -0
2171 3057 -0
2172 3057 -0
517 3058 0
518 3058 0
519 3058 0
520 3058 0.49726039206134737
521 3058 0
522 3058 0
523 3058 -0.99668365524927938
524 3058 0.067678768813813697
525 3058 -0
526 3058 -0.49611791657971721
527 3058 0.067532010077255816
528 3058 -0
1801 3058 0
1802 3058 0
1803 3058 0
1804 3058 0.70516692496269695
1805 3058 0
1806 3058 0
2167 3058 -0
2168 3058 -0
2169 3058 -0
2170 3058 -0.70516692496269695
2171 3058 -0
2172 3058 -0
517 3059 0
518 3059 0
519 3059 0
520 3059 0
521 3059 0.49840543371991375
522 3059 0
523 3059 -0.067601049744234934
524 3059 -0.99553485319114277
525 3059 -0
526 3059 -0.067376861357772475
527 3059 -0.49382500867881207
528 3059 -0
1801 3059 0
1802 3059 0
1803 3059 0
1804 3059 0
1805 3059 0.70516692496269695
1806 3059 0
2167 3059 -0
2168 3059 -0
2169 3059 -0
2170 3059 -0
2171 3059 -0.70516692496269695
2172 3059 -0
517 3060 0
518 3060 0
519 3060 0
520 3060 0
521 3060 0
522 3060 0.49726039206134764
523 3060 -0
524 3060 -0
525 3060 -0.99668365524927816
526 3060 -0
527 3060 -0
528 3060 -0.49611791657971638
1801 3060 0
1802 3060 0
1803 3060 0
1804 3060 0
1805 3060 0
1806 3060 0.70516692496269695
2167 3060 -0
2168 3060 -0
2169 3060 -0
2170 3060 -0
2171 3060 -0
2172 3060 -0.70516692496269695
1363 3061 0.01662412773633716
1364 3061 0
1365 3061 0
1366 3061 0
1367 3061 0
1368 3061 0
1369 3061 -0.016738711515653665
1370 3061 5.1859358331731552e-06
1371 3061 -0
1372 3061 -0.00011420378000142444
1373 3061 7.763820444667679e-06
1374 3061 -0
2527 3061 0.70516692496269695
2528 3061 0
2529 3061 0
2530 3061 0
2531 3061 0
2532 3061 0
2893 3061 -0.70516692496269695
2894 3061 -0
2895 3061 -0
2896 3061 -0
2897 3061 -0
2898 3061 -0
1363 3062 0
1364 3062 0.016643240039254284
1365 3062 0
1366 3062 0
1367 3062 0
1368 3062 0
1369 3062 -0
1370 3062 -0.016643240039254253
1371 3062 -0
1372 3062 -0
1373 3062 -0
1374 3062 -0
2527 3062 0
2528 3062 0.70516692496269695
2529 3062 0
2530 3062 0
2531 3062 0
2532 3062 0
2893 3062 -0
2894 3062 -0.70516692496269695
2895 3062 -0
2896 3062 -0
2897 3062 -0
2898 3062 -0
1363 3063 0
1364 3063 0
1365 3063 0.016624127736337181
1366 3063 0
1367 3063 0
1368 3063 0
1369 3063 -0
1370 3063 -0
1371 3063 -0.016585933143231667
1372 3063 -0
1373 3063 -0
1374 3063 3.8067926667141391e-05
2527 3063 0
2528 3063 0
2529 3063 0.70516692496269695
2530 3063 0
2531 3063 0
2532 3063 0
2893 3063 -0
2894 3063 -0
2895 3063 -0.70516692496269695
2896 3063 -0
2897 3063 -0
2898 3063 -0
1363 3064 0
1364 3064 0
1365 3064 0
1366 3064 0.49726039206134737
1367 3064 0
1368 3064 0
1369 3064 -0.99668365524927938
1370 3064 0.067678768813813697
1371 3064 -0
1372 3064 -0.49611791657971721
1373 3064 0.067532010077255816
1374 3064 -0
2527 3064 0
2528 3064 0
2529 3064 0
2530 3064 0.70516692496269695
2531 3064 0
2532 3064 0
2893 3064 -0
2894 3064 -0
2895 3064 -0
2896 3064 -0.70516692496269695
2897 3064 -0
2898 3064 -0
1363 3065 0
1364 3065 0
1365 3065 0
1366 3065 0
1367 3065 0.49840543371991375
1368 3065 0
1369 3065 -0.067601049744234934
1370 3065 -0.99553485319114277
1371 3065 -0
1372 3065 -0.067376861357772475
1373 3065 -0.49382500867881207
1374 3065 -0
2527 3065 0
2528 3065 0
2529 3065 0
2530 3065 0
2531 3065 0.70516692496269695
2532 3065 0
2893 3065 -0
2894 3065 -0
2895 3065 -0
2896 3065 -0
2897 3065 -0.70516692496269695
2898 3065 -0
1363 3066 0
1364 3066 0
1365 3066 0
1366 3066 0
1367 3066 0
1368 3066 0.49726039206134764
1369 3066 -0
1370 3066 -0
1371 3066 -0.99668365524927816
1372 3066 -0
1373 3066 -0
1374 3066 -0.49611791657971638
2527 3066 0
2528 3066 0
2529 3066 0
2530 3066 0
2531 3066 0
2532 3066 0.70516692496269695
2893 3066 -0
2894 3066 -0
2895 3066 -0
2896 3066 -0
2897 3066 -0
2898 3066 -0.70516692496269695
1369 3067 0.01662412773633716
1370 3067 0
1371 3067 0
1372 3067 0
1373 3067 0
1374 3067 0
1375 3067 -0.016738711515653665
1376 3067 5.1859358331731552e-06
1377 3067 -0
1378 3067 -0.00011420378000142444
1379 3067 7.763820444667679e-06
1380 3067 -0
2533 3067 0.70516692496269695
2534 3067 0
2535 3067 0
2536 3067 0
2537 3067 0
2538 3067 0
2899 3067 -0.70516692496269695
2900 3067 -0
2901 3067 -0
2902 3067 -0
2903 3067 -0
2904 3067 -0
1369 3068 0
1370 3068 0.016643240039254284
1371 3068 0
1372 3068 0
1373 3068 0
1374 3068 0
1375 3068 -0
1376 3068 -0.016643240039254253
1377 3068 -0
1378 3068 -0
1379 3068 -0
1380 3068 -0
2533 3068 0
2534 3068 0.70516692496269695
2535 3068 0
2536 3068 0
2537 3068 0
2538 3068 0
2899 3068 -0
2900 3068 -0.70516692496269695
2901 3068 -0
2902 3068 -0
2903 3068 -0
2904 3068 -0
1369 3069 0
1370 3069 0
1371 3069 0.016624127736337181
1372 3069 0
1373 3069 0
1374 3069 0
1375 3069 -0
1376 3069 -0
1377 3069 -0.016585933143231667
1378 3069 -0
1379 3069 -0
1380 3069 3.8067926667141391e-05
2533 3069 0
2534 3069 0
2535 3069 0.70516692496269695
2536 3069 0
2537 3069 0
2538 3069 0
2899 3069 -0
2900 3069 -0
2901 3069 -0.70516692496269695
2902 3069 -0
2903 3069 -0
2904 3069 -0
1369 3070 0
1370 3070 0
1371 3070 0
1372 3070 0.49726039206134737
1373 3070 0
1374 3070 0
1375 3070 -0.99668365524927938
1376 3070 0.067678768813813697
1377 3070 -0
1378 3070 -0.49611791657971721
1379 3070 0.067532010077255816
1380 3070 -0
2533 3070 0
2534 3070 0
2535 3070 0
2536 3070 0.70516692496269695
2537 3070 0
2538 3070 0
2899 3070 -0
2900 3070 -0
2901 3070 -0
2902 3070 -0.70516692496269695
2903 3070 -0
2904 3070 -0
1369 3071 0
1370 3071 0
1371 3071 0
1372 3071 0
1373 3071 0.49840543371991375
1374 3071 0
1375 3071 -0.067601049744234934
1376 3071 -0.99553485319114277
1377 3071 -0
1378 3071 -0.067376861357772475
1379 3071 -0.49382500867881207
1380 3071 -0
2533 3071 0
2534 3071 0
2535 3071 0
2536 3071 0
2537 3071 0.70516692496269695
2538 3071 0
2899 3071 -0
2900 3071 -0
2901 3071 -0
2902 3071 -0
2903 3071 -0.70516692496269695
2904 3071 -0
1369 3072 0
1370 3072 0
1371 3072 0
1372 3072 0
1373 3072 0
1374 3072 0.49726039206134764
1375 3072 -0
1376 3072 -0
1377 3072 -0.99668365524927816
1378 3072 -0
1379 3072 -0
1380 3072 -0.49611791657971638
2533 3072 0
2534 3072 0
2535 3072 0
2536 3072 0
2537 3072 0
2538 3072 0.70516692496269695
2899 3072 -0
2900 3072 -0
2901 3072 -0
2902 3072 -0
2903 3072 -0
2904 3072 -0.70516692496269695
91 3073 0.01662412773633716
92 3073 0
93 3073 0
94 3073 0
95 3073 0
96 3073 0
97 3073 -0.016738711515653665
98 3073 5.1859358331731552e-06
99 3073 -0
100 3073 -0.00011420378000142444
101 3073 7.763820444667679e-06
102 3073 -0
1801 3073 -0.70516692496269695
1802 3073 -0
1803 3073 -0
1804 3073 -0
1805 3073 -0
1806 3073 -0
2899 3073 0.70516692496269695
2900 3073 0
2901 3073 0
2902 3073 0
2903 3073 0
2904 3073 0
91 3074 0
92 3074 0.016643240039254284
93 3074 0
94 3074 0
95 3074 0
96 3074 0
97 3074 -0
98 3074 -0.016643240039254253
99 3074 -0
100 3074 -0
101 3074 -0
102 3074 -0
1801 3074 -0
1802 3074 -0.70516692496269695
1803 3074 -0
1804 3074 -0
1805 3074 -0
1806 3074 -0
2899 3074 0
2900 3074 0.70516692496269695
2901 3074 0
2902 3074 0
2903 3074 0
2904 3074 0
91 3075 0
92 3075 0
93 3075 0.016624127736337181
94 3075 0
95 3075 0
96 3075 0
97 3075 -0
98 3075 -0
99 3075 -0.016585933143231667
100 3075 -0
101 3075 -0
102 3075 3.8067926667141391e-05
1801 3075 -0
1802 3075 -0
1803 3075 -0.70516692496269695
1804 3075 -0
1805 3075 -0
1806 3075 -0
2899 3075 0
2900 3075 0
2901 3075 0.70516692496269695
2902 3075 0
2903 3075 0
2904 3075 0
91 3076 0
92 3076 0
93 3076 0
94 3076 0.49726039206134737
95 3076 0
96 3076 0
97 3076 -0.99668365524927938
98 3076 0.067678768813813697
99 3076 -0
100 3076 -0.49611791657971721
101 3076 0.067532010077255816
102 3076 -0
1801 3076 -0
1802 3076 -0
1803 3076 -0
1804 3076 -0.70516692496269695
1805 3076 -0
1806 3076 -0
2899 3076 0
2900 3076 0
2901 3076 0
2902 3076 0.70516692496269695
2903 3076 0
2904 3076 0
91 3077 0
92 3077 0
93 3077 0
94 3077 0
95 3077 0.49840543371991375
96 3077 0
97 3077 -0.067601049744234934
98 3077 -0.99553485319114277
99 3077 -0
100 3077 -0.067376861357772475
101 3077 -0.49382500867881207
102 3077 -0
1801 3077 -0
1802 3077 -0
1803 3077 -0
1804 3077 -0
1805 3077 -0.70516692496269695
1806 3077 -0
2899 3077 0
2900 3077 0
2901 3077 0
2902 3077 0
2903 3077 0.70516692496269695
2904 3077 0
91 3078 0
92 3078 0
93 3078 0
94 3078 0
95 3078 0
96 3078 0.49726039206134764
97 3078 -0
98 3078 -0
99 3078 -0.99668365524927816
100 3078 -0
101 3078 -0
102 3078 -0.49611791657971638
1801 3078 -0
1802 3078 -0
1803 3078 -0
1804 3078 -0
1805 3078 -0
1806 3078 -0.70516692496269695
2899 3078 0
2900 3078 0
2901 3078 0
2902 3078 0
2903 3078 0
2904 3078 0.70516692496269695
97 3079 0.01662412773633716
98 3079 0
99 3079 0
100 3079 0
101 3079 0
102 3079 0
103 3079 -0.016738711515653665
104 3079 5.1859358331731552e-06
105 3079 -0
106 3079 -0.00011420378000142444
107 3079 7.763820444667679e-06
108 3079 -0
1807 3079 -0.70516692496269695
1808 3079 -0
1809 3079 -0
1810 3079 -0
1811 3079 -0
1812 3079 -0
2905 3079 0.70516692496269695
2906 3079 0
2907 3079 0
2908 3079 0
2909 3079 0
2910 3079 0
97 3080 0
98 3080 0.016643240039254284
99 3080 0
100 3080 0
101 3080 0
102 3080 0
103 3080 -0
104 3080 -0.016643240039254253
105 3080 -0
106 3080 -0
107 3080 -0
108 3080 -0
1807 3080 -0
1808 3080 -0.70516692496269695
1809 3080 -0
1810 3080 -0
1811 3080 -0
1812 3080 -0
2905 3080 0
2906 3080 0.70516692496269695
2907 3080 0
2908 3080 0
2909 3080 0
2910 3080 0
97 3081 0
98 3081 0
99 3081 0.016624127736337181
100 3081 0
101 3081 0
102 3081 0
103 3081 -0
104 3081 -0
105 3081 -0.016585933143231667
106 3081 -0
107 3081 -0
108 3081 3.8067926667141391e-05
1807 3081 -0
1808 3081 -0
1809 3081 -0.70516692496269695
1810 3081 -0
1811 3081 -0
1812 3081 -0
2905 3081 0
2906 3081 0
2907 3081 0.70516692496269695
2908 3081 0
2909 3081 0
2910 3081 0
97 3082 0
98 3082 0
99 3082 0
100 3082 0.49726039206134737
101 3082 0
102 3082 0
103 3082 -0.99668365524927938
104 3082 0.067678768813813697
105 3082 -0
106 3082 -0.49611791657971721
107 3082 0.067532010077255816
108 3082 -0
1807 3082 -0
1808 3082 -0
1809 3082 -0
1810 3082 -0.70516692496269695
1811 3082 -0
1812 3082 -0
2905 3082 0
2906 3082 0
2907 3082 0
2908 3082 0.70516692496269695
2909 3082 0
2910 3082 0
97 3083 0
98 3083 0
99 3083 0
100 3083 0
101 3083 0.49840543371991375
102 3083 0
103 3083 -0.067601049744234934
104 3083 -0.99553485319114277
105 3083 -0
106 3083 -0.067376861357772475
107 3083 -0.49382500867881207
108 3083 -0
1807 3083 -0
1808 3083 -0
1809 3083 -0
1810 3083 -0
1811 3083 -0.70516692496269695
1812 3083 -0
2905 3083 0
2906 3083 0
2907 3083 0
2908 3083 0
2909 3083 0.70516692496269695
2910 3083 0
97 3084 0
98 3084 0
99 3084 0
100 3084 0
101 3084 0
102 3084 0.49726039206134764
103 3084 -0
104 3084 -0
105 3084 -0.99668365524927816
106 3084 -0
107 3084 -0
108 3084 -0.49611791657971638
1807 3084 -0
1808 3084 -0
1809 3084 -0
1810 3084 -0
1811 3084 -0
1812 3084 -0.70516692496269695
2905 3084 0
2906 3084 0
2907 3084 0
2908 3084 0
2909 3084 0
2910 3084 0.70516692496269695
943 3085 0.01662412773633716
944 3085 0
945 3085 0
946 3085 0
947 3085 0
948 3085 0
949 3085 -0.016738711515653665
950 3085 5.1859358331731552e-06
951 3085 -0
952 3085 -0.00011420378000142444
953 3085 7.763820444667679e-06
954 3085 -0
2167 3085 0.70516692496269695
2168 3085 0
2169 3085 0
2170 3085 0
2171 3085 0
2172 3085 0
2533 3085 -0.70516692496269695
2534 3085 -0
2535 3085 -0
2536 3085 -0
2537 3085 -0
2538 3085 -0
943 3086 0
944 3086 0.016643240039254284
945 3086 0
946 3086 0
947 3086 0
948 3086 0
949 3086 -0
950 3086 -0.016643240039254253
951 3086 -0
952 3086 -0
953 3086 -0
954 3086 -0
2167 3086 0
2168 3086 0.70516692496269695
2169 3086 0
2170 3086 0
2171 3086 0
2172 3086 0
2533 3086 -0
2534 3086 -0.70516692496269695
2535 3086 -0
2536 3086 -0
2537 3086 -0
2538 3086 -0
943 3087 0
944 3087 0
945 3087 0.016624127736337181
946 3087 0
947 3087 0
948 3087 0
949 3087 -0
950 3087 -0
951 3087 -0.016585933143231667
952 3087 -0
953 3087 -0
954 3087 3.8067926667141391e-05
2167 3087 0
2168 3087 0
2169 3087 0.70516692496269695
2170 3087 0
2171 3087 0
2172 3087 0
2533 3087 -0
2534 3087 -0
2535 3087 -0.70516692496269695
2536 3087 -0
2537 3087 -0
2538 3087 -0
943 3088 0
944 3088 0
945 3088 0
946 3088 0.49726039206134737
947 3088 0
948 3088 0
949 3088 -0.99668365524927938
950 3088 0.067678768813813697
951 3088 -0
952 3088 -0.49611791657971721
953 3088 0.067532010077255816
954 3088 -0
2167 3088 0
2168 3088 0
2169 3088 0
2170 3088 0.70516692496269695
2171 3088 0
2172 3088 0
2533 3088 -0
2534 3088 -0
2535 3088 -0
2536 3088 -0.70516692496269695
2537 3088 -0
2538 3088 -0
943 3089 0
944 3089 0
945 3089 0
946 3089 0
947 3089 0.49840543371991375
948 3089 0
949 3089 -0.067601049744234934
950 3089 -0.99553485319114277
951 3089 -0
952 3089 -0.067376861357772475
953 3089 -0.49382500867881207
954 3089 -0
2167 3089 0
2168 3089 0
2169 3089 0
2170 3089 0
2171 3089 0.70516692496269695
2172 3089 0
2533 3089 -0
2534 3089 -0
2535 3089 -0
2536 3089 -0
2537 3089 -0.70516692496269695
2538 3089 -0
943 3090 0
944 3090 0
945 3090 0
946 3090 0
947 3090 0
948 3090 0.49726039206134764
949 3090 -0
950 3090 -0
951 3090 -0.99668365524927816
952 3090 -0
953 3090 -0
954 3090 -0.49611791657971638
2167 3090 0
2168 3090 0
2169 3090 0
2170 3090 0
2171 3090 0
2172 3090 0.70516692496269695
2533 3090 -0
2534 3090 -0
2535 3090 -0
2536 3090 -0
2537 3090 -0
2538 3090 -0.70516692496269695
949 3091 0.01662412773633716
950 3091 0
951 3091 0
952 3091 0
953 3091 0
954 3091 0
955 3091 -0.016738711515653665
956 3091 5.1859358331731552e-06
957 3091 -0
958 3091 -0.00011420378000142444
959 3091 7.763820444667679e-06
960 3091 -0
2173 3091 0.70516692496269695
2174 3091 0
2175 3091 0
2176 3091 0
2177 3091 0
2178 3091 0
2539 3091 -0.70516692496269695
2540 3091 -0
2541 3091 -0
2542 3091 -0
2543 3091 -0
2544 3091 -0
949 3092 0
950 3092 0.016643240039254284
951 3092 0
952 3092 0
953 3092 0
954 3092 0
955 3092 -0
956 3092 -0.016643240039254253
957 3092 -0
958 3092 -0
959 3092 -0
960 3092 -0
2173 3092 0
2174 3092 0.70516692496269695
2175 3092 0
2176 3092 0
2177 3092 0
2178 3092 0
2539 3092 -0
2540 3092 -0.70516692496269695
2541 3092 -0
2542 3092 -0
2543 3092 -0
2544 3092 -0
949 3093 0
950 3093 0
951 3093 0.016624127736337181
952 3093 0
953 3093 0
954 3093 0
955 3093 -0
956 3093 -0
957 3093 -0.016585933143231667
958 3093 -0
959 3093 -0
960 3093 3.8067926667141391e-05
2173 3093 0
2174 3093 0
2175 3093 0.70516692496269695
2176 3093 0
2177 3093 0
2178 3093 0
2539 3093 -0
2540 3093 -0
2541 3093 -0.70516692496269695
2542 3093 -0
2543 3093 -0
2544 3093 -0
949 3094 0
950 3094 0
951 3094 0
952 3094 0.49726039206134737
953 3094 0
954 3094 0
955 3094 -0.99668365524927938
956 3094 0.067678768813813697
957 3094 -0
958 3094 -0.49611791657971721
959 3094 0.067532010077255816
960 3094 -0
2173 3094 0
2174 3094 0
2175 3094 0
2176 3094 0.70516692496269695
2177 3094 0
2178 3094 0
2539 3094 -0
2540 3094 -0
2541 3094 -0
2542 3094 -0.70516692496269695
2543 3094 -0
2544 3094 -0
949 3095 0
950 3095 0
951 3095 0
952 3095 0
953 3095 0.49840543371991375
954 3095 0
955 3095 -0.067601049744234934
956 3095 -0.99553485319114277
957 3095 -0
958 3095 -0.067376861357772475
959 3095 -0.49382500867881207
960 3095 -0
2173 3095 0
2174 3095 0
2175 3095 0
2176 3095 0
2177 3095 0.70516692496269695
2178 3095 0
2539 3095 -0
2540 3095 -0
2541 3095 -0
2542 3095 -0
2543 3095 -0.70516692496269695
2544 3095 -0
949 3096 0
950 3096 0
951 3096 0
952 3096 0
953 3096 0
954 3096 0.49726039206134764
955 3096 -0
956 3096 -0
957 3096 -0.99668365524927816
958 3096 -0
959 3096 -0
960 3096 -0.49611791657971638
2173 3096 0
2174 3096 0
2175 3096 0
2176 3096 0
2177 3096 0
2178 3096 0.70516692496269695
2539 3096 -0
2540 3096 -0
2541 3096 -0
2542 3096 -0
2543 3096 -0
2544 3096 -0.70516692496269695
1375 3097 0.01662412773633716
1376 3097 0
1377 3097 0
1378 3097 0
1379 3097 0
1380 3097 0
1381 3097 -0.016738711515653665
1382 3097 5.1859358331731552e-06
1383 3097 -0
1384 3097 -0.00011420378000142444
1385 3097 7.763820444667679e-06
1386 3097 -0
2539 3097 0.70516692496269695
2540 3097 0
2541 3097 0
2542 3097 0
2543 3097 0
2544 3097 0
2905 3097 -0.70516692496269695
2906 3097 -0
2907 3097 -0
2908 3097 -0
2909 3097 -0
2910 3097 -0
1375 3098 0
1376 3098 0.016643240039254284
1377 3098 0
1378 3098 0
1379 3098 0
1380 3098 0
1381 3098 -0
1382 3098 -0.016643240039254253
1383 3098 -0
1384 3098 -0
1385 3098 -0
1386 3098 -0
2539 3098 0
2540 3098 0.70516692496269695
2541 3098 0
2542 3098 0
2543 3098 0
2544 3098 0
2905 3098 -0
2906 3098 -0.70516692496269695
2907 3098 -0
2908 3098 -0
2909 3098 -0
2910 3098 -0
1375 3099 0
1376 3099 0
1377 3099 0.016624127736337181
1378 3099 0
1379 3099 0
1380 3099 0
1381 3099 -0
1382 3099 -0
1383 3099 -0.016585933143231667
1384 3099 -0
1385 3099 -0
1386 3099 3.8067926667141391e-05
2539 3099 0
2540 3099 0
2541 3099 0.70516692496269695
2542 3099 0
2543 3099 0
2544 3099 0
2905 3099 -0
2906 3099 -0
2907 3099 -0.70516692496269695
2908 3099 -0
2909 3099 -0
2910 3099 -0
1375 3100 0
1376 3100 0
1377 3100 0
1378 3100 0.49726039206134737
1379 3100 0
1380 3100 0
1381 3100 -0.99668365524927938
1382 3100 0.067678768813813697
1383 3100 -0
1384 3100 -0.49611791657971721
1385 3100 0.067532010077255816
1386 3100 -0
2539 3100 0
2540 3100 0
2541 3100 0
2542 3100 0.70516692496269695
2543 3100 0
2544 3100 0
2905 3100 -0
2906 3100 -0
2907 3100 -0
2908 3100 -0.70516692496269695
2909 3100 -0
2910 3100 -0
1375 3101 0
1376 3101 0
1377 3101 0
1378 3101 0
1379 3101 0.49840543371991375
1380 3101 0
1381 3101 -0.067601049744234934
1382 3101 -0.99553485319114277
1383 3101 -0
1384 3101 -0.067376861357772475
1385 3101 -0.49382500867881207
1386 3101 -0
2539 3101 0
2540 3101 0
2541 3101 0
2542 3101 0
2543 3101 0.70516692496269695
2544 3101 0
2905 3101 -0
2906 3101 -0
2907 3101 -0
2908 3101 -0
2909 3101 -0.70516692496269695
2910 3101 -0
1375 3102 0
1376 3102 0
1377 3102 0
1378 3102 0
1379 3102 0
1380 3102 0.49726039206134764
1381 3102 -0
1382 3102 -0
1383 3102 -0.99668365524927816
1384 3102 -0
1385 3102 -0
1386 3102 -0.49611791657971638
2539 3102 0
2540 3102 0
2541 3102 0
2542 3102 0
2543 3102 0
2544 3102 0.70516692496269695
2905 3102 -0
2906 3102 -0
2907 3102 -0
2908 3102 -0
2909 3102 -0
2910 3102 -0.70516692496269695
1381 3103 0.01662412773633716
1382 3103 0
1383 3103 0
1384 3103 0
1385 3103 0
1386 3103 0
1387 3103 -0.016738711515653665
1388 3103 5.1859358331731552e-06
1389 3103 -0
1390 3103 -0.00011420378000142444
1391 3103 7.763820444667679e-06
1392 3103 -0
2545 3103 0.70516692496269695
2546 3103 0
2547 3103 0
2548 3103 0
2549 3103 0
2550 3103 0
2911 3103 -0.70516692496269695
2912 3103 -0
2913 3103 -0
2914 3103 -0
2915 3103 -0
2916 3103 -0
1381 3104 0
1382 3104 0.016643240039254284
1383 3104 0
1384 3104 0
1385 3104 0
1386 3104 0
1387 3104 -0
1388 3104 -0.016643240039254253
1389 3104 -0
1390 3104 -0
1391 3104 -0
1392 3104 -0
2545 3104 0
2546 3104 0.70516692496269695
2547 3104 0
2548 3104 0
2549 3104 0
2550 3104 0
2911 3104 -0
2912 3104 -0.70516692496269695
2913 3104 -0
2914 3104 -0
2915 3104 -0
2916 3104 -0
1381 3105 0
1382 3105 0
1383 3105 0.016624127736337181
1384 3105 0
1385 3105 0
1386 3105 0
1387 3105 -0
1388 3105 -0
1389 3105 -0.016585933143231667
1390 3105 -0
1391 3105 -0
1392 3105 3.8067926667141391e-05
2545 3105 0
2546 3105 0
2547 3105 0.70516692496269695
2548 3105 0
2549 3105 0
2550 3105 0
2911 3105 -0
2912 3105 -0
2913 3105 -0.70516692496269695
2914 3105 -0
2915 3105 -0
2916 3105 -0
1381 3106 0
1382 3106 0
1383 3106 0
1384 3106 0.49726039206134737
1385 3106 0
1386 3106 0
1387 3106 -0.99668365524927938
1388 3106 0.067678768813813697
1389 3106 -0
1390 3106 -0.49611791657971721
1391 3106 0.067532010077255816
1392 3106 -0
2545 3106 0
2546 3106 0
2547 3106 0
2548 3106 0.70516692496269695
2549 3106 0
2550 3106 0
2911 3106 -0
2912 3106 -0
2913 3106 -0
2914 3106 -0.70516692496269695
2915 3106 -0
2916 3106 -0
1381 3107 0
1382 3107 0
1383 3107 0
1384 3107 0
1385 3107 0.49840543371991375
1386 3107 0
1387 3107 -0.067601049744234934
1388 3107 -0.99553485319114277
1389 3107 -0
1390 3107 -0.067376861357772475
1391 3107 -0.49382500867881207
1392 3107 -0
2545 3107 0
2546 3107 0
2547 3107 0
2548 3107 0
2549 3107 0.70516692496269695
2550 3107 0
2911 3107 -0
2912 3107 -0
2913 3107 -0
2914 3107 -0
2915 3107 -0.70516692496269695
2916 3107 -0
1381 3108 0
1382 3108 0
1383 3108 0
1384 3108 0
1385 3108 0
1386 3108 0.49726039206134764
1387 3108 -0
1388 3108 -0
1389 3108 -0.99668365524927816
1390 3108 -0
1391 3108 -0
1392 3108 -0.49611791657971638
2545 3108 0
2546 3108 0
2547 3108 0
2548 3108 0
2549 3108 0
2550 3108 0.70516692496269695
2911 3108 -0
2912 3108 -0
2913 3108 -0
2914 3108 -0
2915 3108 -0
2916 3108 -0.70516692496269695
523 3109 0.01662412773633716
524 3109 0
525 3109 0
526 3109 0
527 3109 0
528 3109 0
529 3109 -0.016738711515653665
530 3109 5.1859358331731552e-06
531 3109 -0
532 3109 -0.00011420378000142444
533 3109 7.763820444667679e-06
534 3109 -0
1807 3109 0.70516692496269695
1808 3109 0
1809 3109 0
1810 3109 0
1811 3109 0
1812 3109 0
2173 3109 -0.70516692496269695
2174 3109 -0
2175 3109 -0
2176 3109 -0
2177 3109 -0
2178 3109 -0
523 3110 0
524 3110 0.016643240039254284
525 3110 0
526 3110 0
527 3110 0
528 3110 0
529 3110 -0
530 3110 -0.016643240039254253
531 3110 -0
532 3110 -0
533 3110 -0
534 3110 -0
1807 3110 0
1808 3110 0.70516692496269695
1809 3110 0
1810 3110 0
1811 3110 0
1812 3110 0
2173 3110 -0
2174 3110 -0.70516692496269695
2175 3110 -0
2176 3110 -0
2177 3110 -0
2178 3110 -0
523 3111 0
524 3111 0
525 3111 0.016624127736337181
526 3111 0
527 3111 0
528 3111 0
529 3111 -0
530 3111 -0
531 3111 -0.016585933143231667
532 3111 -0
533 3111 -0
534 3111 3.8067926667141391e-05
1807 3111 0
1808 3111 0
1809 3111 0.70516692496269695
1810 3111 0
1811 3111 0
1812 3111 0
2173 3111 -0
2174 3111 -0
2175 3111 -0.70516692496269695
2176 3111 -0
2177 3111 -0
2178 3111 -0
523 3112 0
524 3112 0
525 3112 0
526 3112 0.49726039206134737
527 3112 0
528 3112 0
529 3112 -0.99668365524927938
530 3112 0.067678768813813697
531 3112 -0
532 3112 -0.49611791657971721
533 3112 0.067532010077255816
534 3112 -0
1807 3112 0
1808 3112 0
1809 3112 0
1810 3112 0.70516692496269695
1811 3112 0
1812 3112 0
2173 3112 -0
2174 3112 -0
2175 3112 -0
2176 3112 -0.70516692496269695
2177 3112 -0
2178 3112 -0
523 3113 0
524 3113 0
525 3113 0
526 3113 0
527 3113 0.49840543371991375
528 3113 0
529 3113 -0.067601049744234934
530 3113 -0.99553485319114277
531 3113 -0
532 3113 -0.067376861357772475
533 3113 -0.49382500867881207
534 3113 -0
1807 3113 0
1808 3113 0
1809 3113 0
1810 3113 0
1811 3113 0.70516692496269695
1812 3113 0
2173 3113 -0
2174 3113 -0
2175 3113 -0
2176 3113 -0
2177 3113 -0.70516692496269695
2178 3113 -0
523 3114 0
524 3114 0
525 3114 0
526 3114 0
527 3114 0
528 3114 0.49726039206134764
529 3114 -0
530 3114 -0
531 3114 -0.99668365524927816
532 3114 -0
533 3114 -0
534 3114 -0.49611791657971638
1807 3114 0
1808 3114 0
1809 3114 0
1810 3114 0
1811 3114 0
1812 3114 0.70516692496269695
2173 3114 -0
2174 3114 -0
2175 3114 -0
2176 3114 -0
2177 3114 -0
2178 3114 -0.70516692496269695
529 3115 0.01662412773633716
530 3115 0
531 3115 0
532 3115 0
533 3115 0
534 3115 0
535 3115 -0.016738711515653665
536 3115 5.1859358331731552e-06
537 3115 -0
538 3115 -0.00011420378000142444
539 3115 7.763820444667679e-06
540 3115 -0
1813 3115 0.70516692496269695
1814 3115 0
1815 3115 0
1816 3115 0
1817 3115 0
1818 3115 0
2179 3115 -0.70516692496269695
2180 3115 -0
2181 3115 -0
2182 3115 -0
2183 3115 -0
2184 3115 -0
529 3116 0
530 3116 0.016643240039254284
531 3116 0
532 3116 0
533 3116 0
534 3116 0
535 3116 -0
536 3116 -0.016643240039254253
537 3116 -0
538 3116 -0
539 3116 -0
540 3116 -0
1813 3116 0
1814 3116 0.70516692496269695
1815 3116 0
1816 3116 0
1817 3116 0
1818 3116 0
2179 3116 -0
2180 3116 -0.70516692496269695
2181 3116 -0
2182 3116 -0
2183 3116 -0
2184 3116 -0
529 3117 0
530 3117 0
531 3117 0.016624127736337181
532 3117 0
533 3117 0
534 3117 0
535 3117 -0
536 3117 -0
537 3117 -0.016585933143231667
538 3117 -0
539 3117 -0
540 3117 3.8067926667141391e-05
1813 3117 0
1814 3117 0
1815 3117 0.70516692496269695
1816 3117 0
1817 3117 0
1818 3117 0
2179 3117 -0
2180 3117 -0
2181 3117 -0.70516692496269695
2182 3117 -0
2183 3117 -0
2184 3117 -0
529 3118 0
530 3118 0
531 3118 0
532 3118 0.49726039206134737
533 3118 0
534 3118 0
535 3118 -0.99668365524927938
536 3118 0.067678768813813697
537 3118 -0
538 3118 -0.49611791657971721
539 3118 0.067532010077255816
540 3118 -0
1813 3118 0
1814 3118 0
1815 3118 0
1816 3118 0.70516692496269695
1817 3118 0
1818 3118 0
2179 3118 -0
2180 3118 -0
2181 3118 -0
2182 3118 -0.70516692496269695
2183 3118 -0
2184 3118 -0
529 3119 0
530 3119 0
531 3119 0
532 3119 0
533 3119 0.49840543371991375
534 3119 0
535 3119 -0.067601049744234934
536 3119 -0.99553485319114277
537 3119 -0
538 3119 -0.067376861357772475
539 3119 -0.49382500867881207
540 3119 -0
1813 3119 0
1814 3119 0
1815 3119 0
1816 3119 0
1817 3119 0.70516692496269695
1818 3119 0
2179 3119 -0
2180 3119 -0
2181 3119 -0
2182 3119 -0
2183 3119 -0.70516692496269695
2184 3119 -0
529 3120 0
530 3120 0
531 3120 0
532 3120 0
533 3120 0
534 3120 0.49726039206134764
535 3120 -0
536 3120 -0
537 3120 -0.99668365524927816
538 3120 -0
539 3120 -0
540 3120 -0.49611791657971638
1813 3120 0
1814 3120 0
1815 3120 0
1816 3120 0
1817 3120 0
1818 3120 0.70516692496269695
2179 3120 -0
2180 3120 -0
2181 3120 -0
2182 3120 -0
2183 3120 -0
2184 3120 -0.70516692496269695
955 3121 0.01662412773633716
956 3121 0
957 3121 0
958 3121 0
959 3121 0
960 3121 0
961 3121 -0.016738711515653665
962 3121 5.1859358331731552e-06
963 3121 -0
964 3121 -0.00011420378000142444
965 3121 7.763820444667679e-06
966 3121 -0
2179 3121 0.70516692496269695
2180 3121 0
2181 3121 0
2182 3121 0
2183 3121 0
2184 3121 0
2545 3121 -0.70516692496269695
2546 3121 -0
2547 3121 -0
2548 3121 -0
2549 3121 -0
2550 3121 -0
955 3122 0
956 3122 0.016643240039254284
957 3122 0
958 3122 0
959 3122 0
960 3122 0
961 3122 -0
962 3122 -0.016643240039254253
963 3122 -0
964 3122 -0
965 3122 -0
966 3122 -0
2179 3122 0
2180 3122 0.70516692496269695
2181 3122 0
2182 3122 0
2183 3122 0
2184 3122 0
2545 3122 -0
2546 3122 -0.70516692496269695
2547 3122 -0
2548 3122 -0
2549 3122 -0
2550 3122 -0
955 3123 0
956 3123 0
957 3123 0.016624127736337181
958 3123 0
959 3123 0
960 3123 0
961 3123 -0
962 3123 -0
963 3123 -0.016585933143231667
964 3123 -0
965 3123 -0
966 3123 3.8067926667141391e-05
2179 3123 0
2180 3123 0
2181 3123 0.70516692496269695
2182 3123 0
2183 3123 0
2184 3123 0
2545 3123 -0
2546 3123 -0
2547 3123 -0.70516692496269695
2548 3123 -0
2549 3123 -0
2550 3123 -0
955 3124 0
956 3124 0
957 3124 0
958 3124 0.49726039206134737
959 3124 0
960 3124 0
961 3124 -0.99668365524927938
962 3124 0.067678768813813697
963 3124 -0
964 3124 -0.49611791657971721
965 3124 0.067532010077255816
966 3124 -0
2179 3124 0
2180 3124 0
2181 3124 0
2182 3124 0.70516692496269695
2183 3124 0
2184 3124 0
2545 3124 -0
2546 3124 -0
2547 3124 -0
2548 3124 -0.70516692496269695
2549 3124 -0
2550 3124 -0
955 3125 0
956 3125 0
957 3125 0
958 3125 0
959 3125 0.49840543371991375
960 3125 0
961 3125 -0.067601049744234934
962 3125 -0.99553485319114277
963 3125 -0
964 3125 -0.067376861357772475
965 3125 -0.49382500867881207
966 3125 -0
2179 3125 0
2180 3125 0
2181 3125 0
2182 3125 0
2183 3125 0.70516692496269695
2184 3125 0
2545 3125 -0
2546 3125 -0
2547 3125 -0
2548 3125 -0
2549 3125 -0.70516692496269695
2550 3125 -0
955 3126 0
956 3126 0
957 3126 0
958 3126 0
959 3126 0
960 3126 0.49726039206134764
961 3126 -0
962 3126 -0
963 3126 -0.99668365524927816
964 3126 -0
965 3126 -0
966 3126 -0.49611791657971638
2179 3126 0
2180 3126 0
2181 3126 0
2182 3126 0
2183 3126 0
2184 3126 0.70516692496269695
2545 3126 -0
2546 3126 -0
2547 3126 -0
2548 3126 -0
2549 3126 -0
2550 3126 -0.70516692496269695
961 3127 0.01662412773633716
962 3127 0
963 3127 0
964 3127 0
965 3127 0
966 3127 0
967 3127 -0.016738711515653665
968 3127 5.1859358331731552e-06
969 3127 -0
970 3127 -0.00011420378000142444
971 3127 7.763820444667679e-06
972 3127 -0
2185 3127 0.70516692496269695
2186 3127 0
2187 3127 0
2188 3127 0
2189 3127 0
2190 3127 0
2551 3127 -0.70516692496269695
2552 3127 -0
2553 3127 -0
2554 3127 -0
2555 3127 -0
2556 3127 -0
961 3128 0
962 3128 0.016643240039254284
963 3128 0
964 3128 0
965 3128 0
966 3128 0
967 3128 -0
968 3128 -0.016643240039254253
969 3128 -0
970 3128 -0
971 3128 -0
972 3128 -0
2185 3128 0
2186 3128 0.70516692496269695
2187 3128 0
2188 3128 0
2189 3128 0
2190 3128 0
2551 3128 -0
2552 3128 -0.70516692496269695
2553 3128 -0
2554 3128 -0
2555 3128 -0
2556 3128 -0
961 3129 0
962 3129 0
963 3129 0.016624127736337181
964 3129 0
965 3129 0
966 3129 0
967 3129 -0
968 3129 -0
969 3129 -0.016585933143231667
970 3129 -0
971 3129 -0
972 3129 3.8067926667141391e-05
2185 3129 0
2186 3129 0
2187 3129 0.70516692496269695
2188 3129 0
2189 3129 0
2190 3129 0
2551 3129 -0
2552 3129 -0
2553 3129 -0.70516692496269695
2554 3129 -0
2555 3129 -0
2556 3129 -0
961 3130 0
962 3130 0
963 3130 0
964 3130 0.49726039206134737
965 3130 0
966 3130 0
967 3130 -0.99668365524927938
968 3130 0.067678768813813697
969 3130 -0
970 3130 -0.49611791657971721
971 3130 0.067532010077255816
972 3130 -0
2185 3130 0
2186 3130 0
2187 3130 0
2188 3130 0.70516692496269695
2189 3130 0
2190 3130 0
2551 3130 -0
2552 3130 -0
2553 3130 -0
2554 3130 -0.70516692496269695
2555 3130 -0
2556 3130 -0
961 3131 0
962 3131 0
963 3131 0
964 3131 0
965 3131 0.49840543371991375
966 3131 0
967 3131 -0.067601049744234934
968 3131 -0.99553485319114277
969 3131 -0
970 3131 -0.067376861357772475
971 3131 -0.49382500867881207
972 3131 -0
2185 3131 0
2186 3131 0
2187 3131 0
2188 3131 0
2189 3131 0.70516692496269695
2190 3131 0
2551 3131 -0
2552 3131 -0
2553 3131 -0
2554 3131 -0
2555 3131 -0.70516692496269695
2556 3131 -0
961 3132 0
962 3132 0
963 3132 0
964 3132 0
965 3132 0
966 3132 0.49726039206134764
967 3132 -0
968 3132 -0
969 3132 -0.99668365524927816
970 3132 -0
971 3132 -0
972 3132 -0.49611791657971638
2185 3132 0
2186 3132 0
2187 3132 0
2188 3132 0
2189 3132 0
2190 3132 0.70516692496269695
2551 3132 -0
2552 3132 -0
2553 3132 -0
2554 3132 -0
2555 3132 -0
2556 3132 -0.70516692496269695
103 3133 0.01662412773633716
104 3133 0
105 3133 0
106 3133 0
107 3133 0
108 3133 0
109 3133 -0.016738711515653665
110 3133 5.1859358331731552e-06
111 3133 -0
112 3133 -0.00011420378000142444
113 3133 7.763820444667679e-06
114 3133 -0
1813 3133 -0.70516692496269695
1814 3133 -0
1815 3133 -0
1816 3133 -0
1817 3133 -0
1818 3133 -0
2911 3133 0.70516692496269695
2912 3133 0
2913 3133 0
2914 3133 0
2915 3133 0
2916 3133 0
103 3134 0
104 3134 0.016643240039254284
105 3134 0
106 3134 0
107 3134 0
108 3134 0
109 3134 -0
110 3134 -0.016643240039254253
111 3134 -0
112 3134 -0
113 3134 -0
114 3134 -0
1813 3134 -0
1814 3134 -0.70516692496269695
1815 3134 -0
1816 3134 -0
1817 3134 -0
1818 3134 -0
2911 3134 0
2912 3134 0.70516692496269695
2913 3134 0
2914 3134 0
2915 3134 0
2916 3134 0
103 3135 0
104 3135 0
105 3135 0.016624127736337181
106 3135 0
107 3135 0
108 3135 0
109 3135 -0
110 3135 -0
111 3135 -0.016585933143231667
112 3135 -0
113 3135 -0
114 3135 3.8067926667141391e-05
1813 3135 -0
1814 3135 -0
1815 3135 -0.70516692496269695
1816 3135 -0
1817 3135 -0
1818 3135 -0
2911 3135 0
2912 3135 0
2913 3135 0.70516692496269695
2914 3135 0
2915 3135 0
2916 3135 0
103 3136 0
104 3136 0
105 3136 0
106 3136 0.49726039206134737
107 3136 0
108 3136 0
109 3136 -0.99668365524927938
110 3136 0.067678768813813697
111 3136 -0
112 3136 -0.49611791657971721
113 3136 0.067532010077255816
114 3136 -0
1813 3136 -0
1814 3136 -0
1815 3136 -0
1816 3136 -0.70516692496269695
1817 3136 -0
1818 3136 -0
2911 3136 0
2912 3136 0
2913 3136 0
2914 3136 0.70516692496269695
2915 3136 0
2916 3136 0
103 3137 0
104 3137 0
105 3137 0
106 3137 0
107 3137 0.49840543371991375
108 3137 0
109 3137 -0.067601049744234934
110 3137 -0.99553485319114277
111 3137 -0
112 3137 -0.067376861357772475
113 3137 -0.49382500867881207
114 3137 -0
1813 3137 -0
1814 3137 -0
1815 3137 -0
1816 3137 -0
1817 3137 -0.70516692496269695
1818 3137 -0
2911 3137 0
2912 3137 0
2913 3137 0
2914 3137 0
2915 3137 0.70516692496269695
2916 3137 0
103 3138 0
104 3138 0
105 3138 0
106 3138 0
107 3138 0
108 3138 0.49726039206134764
109 3138 -0
110 3138 -0
111 3138 -0.99668365524927816
112 3138 -0
113 3138 -0
114 3138 -0.49611791657971638
1813 3138 -0
1814 3138 -0
1815 3138 -0
1816 3138 -0
1817 3138 -0
1818 3138 -0.70516692496269695
2911 3138 0
2912 3138 0
2913 3138 0
2914 3138 0
2915 3138 0
2916 3138 0.70516692496269695
109 3139 0.01662412773633716
110 3139 0
111 3139 0
112 3139 0
113 3139 0
114 3139 0
115 3139 -0.016738711515653665
116 3139 5.1859358331731552e-06
117 3139 -0
118 3139 -0.00011420378000142444
119 3139 7.763820444667679e-06
120 3139 -0
1819 3139 -0.70516692496269695
1820 3139 -0
1821 3139 -0
1822 3139 -0
1823 3139 -0
1824 3139 -0
2917 3139 0.70516692496269695
2918 3139 0
2919 3139 0
2920 3139 0
2921 3139 0
2922 3139 0
109 3140 0
110 3140 0.016643240039254284
111 3140 0
112 3140 0
113 3140 0
114 3140 0
115 3140 -0
116 3140 -0.016643240039254253
117 3140 -0
118 3140 -0
119 3140 -0
120 3140 -0
1819 3140 -0
1820 3140 -0.70516692496269695
1821 3140 -0
1822 3140 -0
1823 3140 -0
1824 3140 -0
2917 3140 0
2918 3140 0.70516692496269695
2919 3140 0
2920 3140 0
2921 3140 0
2922 3140 0
109 3141 0
110 3141 0
111 3141 0.016624127736337181
112 3141 0
113 3141 0
114 3141 0
115 3141 -0
116 3141 -0
117 3141 -0.016585933143231667
118 3141 -0
119 3141 -0
120 3141 3.8067926667141391e-05
1819 3141 -0
1820 3141 -0
1821 3141 -0.70516692496269695
1822 3141 -0
1823 3141 -0
1824 3141 -0
2917 3141 0
2918 3141 0
2919 3141 0.70516692496269695
2920 3141 0
2921 3141 0
2922 3141 0
109 3142 0
110 3142 0
111 3142 0
112 3142 0.49726039206134737
113 3142 0
114 3142 0
115 3142 -0.99668365524927938
116 3142 0.067678768813813697
117 3142 -0
118 3142 -0.49611791657971721
119 3142 0.067532010077255816
120 3142 -0
1819 3142 -0
1820 3142 -0
1821 3142 -0
1822 3142 -0.70516692496269695
1823 3142 -0
1824 3142 -0
2917 3142 0
2918 3142 0
2919 3142 0
2920 3142 0.70516692496269695
2921 3142 0
2922 3142 0
109 3143 0
110 3143 0
111 3143 0
112 3143 0
113 3143 0.49840543371991375
114 3143 0
115 3143 -0.067601049744234934
116 3143 -0.99553485319114277
117 3143 -0
118 3143 -0.067376861357772475
119 3143 -0.49382500867881207
120 3143 -0
1819 3143 -0
1820 3143 -0
1821 3143 -0
1822 3143 -0
1823 3143 -0.70516692496269695
1824 3143 -0
2917 3143 0
2918 3143 0
2919 3143 0
2920 3143 0
2921 3143 0.70516692496269695
2922 3143 0
109 3144 0
110 3144 0
111 3144 0
112 3144 0
113 3144 0
114 3144 0.49726039206134764
115 3144 -0
116 3144 -0
117 3144 -0.99668365524927816
118 3144 -0
119 3144 -0
120 3144 -0.49611791657971638
1819 3144 -0
1820 3144 -0
1821 3144 -0
1822 3144 -0
1823 3144 -0
1824 3144 -0.70516692496269695
2917 3144 0
2918 3144 0
2919 3144 0
2920 3144 0
2921 3144 0
2922 3144 0.70516692496269695
535 3145 0.01662412773633716
536 3145 0
537 3145 0
538 3145 0
539 3145 0
540 3145 0
541 3145 -0.016738711515653665
542 3145 5.1859358331731552e-06
543 3145 -0
544 3145 -0.00011420378000142444
545 3145 7.763820444667679e-06
546 3145 -0
1819 3145 0.70516692496269695
1820 3145 0
1821 3145 0
1822 3145 0
1823 3145 0
1824 3145 0
2185 3145 -0.70516692496269695
2186 3145 -0
2187 3145 -0
2188 3145 -0
2189 3145 -0
2190 3145 -0
535 3146 0
536 3146 0.016643240039254284
537 3146 0
538 3146 0
539 3146 0
540 3146 0
541 3146 -0
542 3146 -0.016643240039254253
543 3146 -0
544 3146 -0
545 3146 -0
546 3146 -0
1819 3146 0
1820 3146 0.70516692496269695
1821 3146 0
1822 3146 0
1823 3146 0
1824 3146 0
2185 3146 -0
2186 3146 -0.70516692496269695
2187 3146 -0
2188 3146 -0
2189 3146 -0
2190 3146 -0
535 3147 0
536 3147 0
537 3147 0.016624127736337181
538 3147 0
539 3147 0
540 3147 0
541 3147 -0
542 3147 -0
543 3147 -0.016585933143231667
544 3147 -0
545 3147 -0
546 3147 3.8067926667141391e-05
1819 3147 0
1820 3147 0
1821 3147 0.70516692496269695
1822 3147 0
1823 3147 0
1824 3147 0
2185 3147 -0
2186 3147 -0
2187 3147 -0.70516692496269695
2188 3147 -0
2189 3147 -0
2190 3147 -0
535 3148 0
536 3148 0
537 3148 0
538 3148 0.49726039206134737
539 3148 0
540 3148 0
541 3148 -0.99668365524927938
542 3148 0.067678768813813697
543 3148 -0
544 3148 -0.49611791657971721
545 3148 0.067532010077255816
546 3148 -0
1819 3148 0
1820 3148 0
1821 3148 0
1822 3148 0.70516692496269695
1823 3148 0
1824 3148 0
2185 3148 -0
2186 3148 -0
2187 3148 -0
2188 3148 -0.70516692496269695
2189 3148 -0
2190 3148 -0
535 3149 0
536 3149 0
537 3149 0
538 3149 0
539 3149 0.49840543371991375
540 3149 0
541 3149 -0.067601049744234934
542 3149 -0.99553485319114277
543 3149 -0
544 3149 -0.067376861357772475
545 3149 -0.49382500867881207
546 3149 -0
1819 3149 0
1820 3149 0
1821 3149 0
1822 3149 0
1823 3149 0.70516692496269695
1824 3149 0
2185 3149 -0
2186 3149 -0
2187 3149 -0
2188 3149 -0
2189 3149 -0.70516692496269695
2190 3149 -0
535 3150 0
536 3150 0
537 3150 0
538 3150 0
539 3150 0
540 3150 0.49726039206134764
541 3150 -0
542 3150 -0
543 3150 -0.99668365524927816
544 3150 -0
545 3150 -0
546 3150 -0.49611791657971638
1819 3150 0
1820 3150 0
1821 3150 0
1822 3150 0
1823 3150 0
1824 3150 0.70516692496269695
2185 3150 -0
2186 3150 -0
2187 3150 -0
2188 3150 -0
2189 3150 -0
2190 3150 -0.70516692496269695
541 3151 0.01662412773633716
542 3151 0
543 3151 0
544 3151 0
545 3151 0
546 3151 0
547 3151 -0.016738711515653665
548 3151 5.1859358331731552e-06
549 3151 -0
550 3151 -0.00011420378000142444
551 3151 7.763820444667679e-06
552 3151 -0
1825 3151 0.70516692496269695
1826 3151 0
1827 3151 0
1828 3151 0
1829 3151 0
1830 3151 0
2191 3151 -0.70516692496269695
2192 3151 -0
2193 3151 -0
2194 3151 -0
2195 3151 -0
2196 3151 -0
541 3152 0
542 3152 0.016643240039254284
543 3152 0
544 3152 0
545 3152 0
546 3152 0
547 3152 -0
548 3152 -0.016643240039254253
549 3152 -0
550 3152 -0
551 3152 -0
552 3152 -0
1825 3152 0
1826 3152 0.70516692496269695
1827 3152 0
1828 3152 0
1829 3152 0
1830 3152 0
2191 3152 -0
2192 3152 -0.70516692496269695
2193 3152 -0
2194 3152 -0
2195 3152 -0
2196 3152 -0
541 3153 0
542 3153 0
543 3153 0.016624127736337181
544 3153 0
545 3153 0
546 3153 0
547 3153 -0
548 3153 -0
549 3153 -0.016585933143231667
550 3153 -0
551 3153 -0
552 3153 3.8067926667141391e-05
1825 3153 0
1826 3153 0
1827 3153 0.70516692496269695
1828 3153 0
1829 3153 0
1830 3153 0
2191 3153 -0
2192 3153 -0
2193 3153 -0.70516692496269695
2194 3153 -0
2195 3153 -0
2196 3153 -0
541 3154 0
542 3154 0
543 3154 0
544 3154 0.49726039206134737
545 3154 0
546 3154 0
547 3154 -0.99668365524927938
548 3154 0.067678768813813697
549 3154 -0
550 3154 -0.49611791657971721
551 3154 0.067532010077255816
552 3154 -0
1825 3154 0
1826 3154 0
1827 3154 0
1828 3154 0.70516692496269695
1829 3154 0
1830 3154 0
2191 3154 -0
2192 3154 -0
2193 3154 -0
2194 3154 -0.70516692496269695
2195 3154 -0
2196 3154 -0
541 3155 0
542 3155 0
543 3155 0
544 3155 0
545 3155 0.49840543371991375
546 3155 0
547 3155 -0.067601049744234934
548 3155 -0.99553485319114277
549 3155 -0
550 3155 -0.067376861357772475
551 3155 -0.49382500867881207
552 3155 -0
1825 3155 0
1826 3155 0
1827 3155 0
1828 3155 0
1829 3155 0.70516692496269695
1830 3155 0
2191 3155 -0
2192 3155 -0
2193 3155 -0
2194 3155 -0
2195 3155 -0.70516692496269695
2196 3155 -0
541 3156 0
542 3156 0
543 3156 0
544 3156 0
545 3156 0
546 3156 0.49726039206134764
547 3156 -0
548 3156 -0
549 3156 -0.99668365524927816
550 3156 -0
551 3156 -0
552 3156 -0.49611791657971638
1825 3156 0
1826 3156 0
1827 3156 0
1828 3156 0
1829 3156 0
1830 3156 0.70516692496269695
2191 3156 -0
2192 3156 -0
2193 3156 -0
2194 3156 -0
2195 3156 -0
2196 3156 -0.70516692496269695
1387 3157 0.01662412773633716
1388 3157 0
1389 3157 0
1390 3157 0
1391 3157 0
1392 3157 0
1393 3157 -0.016738711515653665
1394 3157 5.1859358331731552e-06
1395 3157 -0
1396 3157 -0.00011420378000142444
1397 3157 7.763820444667679e-06
1398 3157 -0
2551 3157 0.70516692496269695
2552 3157 0
2553 3157 0
2554 3157 0
2555 3157 0
2556 3157 0
2917 3157 -0.70516692496269695
2918 3157 -0
2919 3157 -0
2920 3157 -0
2921 3157 -0
2922 3157 -0
1387 3158 0
1388 3158 0.016643240039254284
1389 3158 0
1390 3158 0
1391 3158 0
1392 3158 0
1393 3158 -0
1394 3158 -0.016643240039254253
1395 3158 -0
1396 3158 -0
1397 3158 -0
1398 3158 -0
2551 3158 0
2552 3158 0.70516692496269695
2553 3158 0
2554 3158 0
2555 3158 0
2556 3158 0
2917 3158 -0
2918 3158 -0.70516692496269695
2919 3158 -0
2920 3158 -0
2921 3158 -0
2922 3158 -0
1387 3159 0
1388 3159 0
1389 3159 0.016624127736337181
1390 3159 0
1391 3159 0
1392 3159 0
1393 3159 -0
1394 3159 -0
1395 3159 -0.016585933143231667
1396 3159 -0
1397 3159 -0
1398 3159 3.8067926667141391e-05
2551 3159 0
2552 3159 0
2553 3159 0.70516692496269695
2554 3159 0
2555 3159 0
2556 3159 0
2917 3159 -0
2918 3159 -0
2919 3159 -0.70516692496269695
2920 3159 -0
2921 3159 -0
2922 3159 -0
1387 3160 0
1388 3160 0
1389 3160 0
1390 3160 0.49726039206134737
1391 3160 0
1392 3160 0
1393 3160 -0.99668365524927938
1394 3160 0.067678768813813697
1395 3160 -0
1396 3160 -0.49611791657971721
1397 3160 0.067532010077255816
1398 3160 -0
2551 3160 0
2552 3160 0
2553 3160 0
2554 3160 0.70516692496269695
2555 3160 0
2556 3160 0
2917 3160 -0
2918 3160 -0
2919 3160 -0
2920 3160 -0.70516692496269695
2921 3160 -0
2922 3160 -0
1387 3161 0
1388 3161 0
1389 3161 0
1390 3161 0
1391 3161 0.49840543371991375
1392 3161 0
1393 3161 -0.067601049744234934
1394 3161 -0.99553485319114277
1395 3161 -0
1396 3161 -0.067376861357772475
1397 3161 -0.49382500867881207
1398 3161 -0
2551 3161 0
2552 3161 0
2553 3161 0
2554 3161 0
2555 3161 0.70516692496269695
2556 3161 0
2917 3161 -0
2918 3161 -0
2919 3161 -0
2920 3161 -0
2921 3161 -0.70516692496269695
2922 3161 -0
1387 3162 0
1388 3162 0
1389 3162 0
1390 3162 0
1391 3162 0
1392 3162 0.49726039206134764
1393 3162 -0
1394 3162 -0
1395 3162 -0.99668365524927816
1396 3162 -0
1397 3162 -0
1398 3162 -0.49611791657971638
2551 3162 0
2552 3162 0
2553 3162 0
2554 3162 0
2555 3162 0
2556 3162 0.70516692496269695
2917 3162 -0
2918 3162 -0
2919 3162 -0
2920 3162 -0
2921 3162 -0
2922 3162 -0.70516692496269695
1393 3163 0.01662412773633716
1394 3163 0
1395 3163 0
1396 3163 0
1397 3163 0
1398 3163 0
1399 3163 -0.016738711515653665
1400 3163 5.1859358331731552e-06
1401 3163 -0
1402 3163 -0.00011420378000142444
1403 3163 7.763820444667679e-06
1404 3163 -0
2557 3163 0.70516692496269695
2558 3163 0
2559 3163 0
2560 3163 0
2561 3163 0
2562 3163 0
2923 3163 -0.70516692496269695
2924 3163 -0
2925 3163 -0
2926 3163 -0
2927 3163 -0
2928 3163 -0
1393 3164 0
1394 3164 0.016643240039254284
1395 3164 0
1396 3164 0
1397 3164 0
1398 3164 0
1399 3164 -0
1400 3164 -0.016643240039254253
1401 3164 -0
1402 3164 -0
1403 3164 -0
1404 3164 -0
2557 3164 0
2558 3164 0.70516692496269695
2559 3164 0
2560 3164 0
2561 3164 0
2562 3164 0
2923 3164 -0
2924 3164 -0.70516692496269695
2925 3164 -0
2926 3164 -0
2927 3164 -0
2928 3164 -0
1393 3165 0
1394 3165 0
1395 3165 0.016624127736337181
1396 3165 0
1397 3165 0
1398 3165 0
1399 3165 -0
1400 3165 -0
1401 3165 -0.016585933143231667
1402 3165 -0
1403 3165 -0
1404 3165 3.8067926667141391e-05
2557 3165 0
2558 3165 0
2559 3165 0.70516692496269695
2560 3165 0
2561 3165 0
2562 3165 0
2923 3165 -0
2924 3165 -0
2925 3165 -0.70516692496269695
2926 3165 -0
2927 3165 -0
2928 3165 -0
1393 3166 0
1394 3166 0
1395 3166 0
1396 3166 0.49726039206134737
1397 3166 0
1398 3166 0
1399 3166 -0.99668365524927938
1400 3166 0.067678768813813697
1401 3166 -0
1402 3166 -0.49611791657971721
1403 3166 0.067532010077255816
1404 3166 -0
2557 3166 0
2558 3166 0
2559 3166 0
2560 3166 0.70516692496269695
2561 3166 0
2562 3166 0
2923 3166 -0
2924 3166 -0
2925 3166 -0
2926 3166 -0.70516692496269695
2927 3166 -0
2928 3166 -0
1393 3167 0
1394 3167 0
1395 3167 0
1396 3167 0
1397 3167 0.49840543371991375
1398 3167 0
1399 3167 -0.067601049744234934
1400 3167 -0.99553485319114277
1401 3167 -0
1402 3167 -0.067376861357772475
1403 3167 -0.49382500867881207
1404 3167 -0
2557 3167 0
2558 3167 0
2559 3167 0
2560 3167 0
2561 3167 0.70516692496269695
2562 3167 0
2923 3167 -0
2924 3167 -0
2925 3167 -0
2926 3167 -0
2927 3167 -0.70516692496269695
2928 3167 -0
1393 3168 0
1394 3168 0
1395 3168 0
1396 3168 0
1397 3168 0
1398 3168 0.49726039206134764
1399 3168 -0
1400 3168 -0
1401 3168 -0.99668365524927816
1402 3168 -0
1403 3168 -0
1404 3168 -0.49611791657971638
2557 3168 0
2558 3168 0
2559 3168 0
2560 3168 0
2561 3168 0
2562 3168 0.70516692496269695
2923 3168 -0
2924 3168 -0
2925 3168 -0
2926 3168 -0
2927 3168 -0
2928 3168 -0.70516692496269695
115 3169 0.01662412773633716
116 3169 0
117 3169 0
118 3169 0
119 3169 0
120 3169 0
121 3169 -0.016738711515653665
122 3169 5.1859358331731552e-06
123 3169 -0
124 3169 -0.00011420378000142444
125 3169 7.763820444667679e-06
126 3169 -0
1825 3169 -0.70516692496269695
1826 3169 -0
1827 3169 -0
1828 3169 -0
1829 3169 -0
1830 3169 -0
2923 3169 0.70516692496269695
2924 3169 0
2925 3169 0
2926 3169 0
2927 3169 0
2928 3169 0
115 3170 0
116 3170 0.016643240039254284
117 3170 0
118 3170 0
119 3170 0
120 3170 0
121 3170 -0
122 3170 -0.016643240039254253
123 3170 -0
124 3170 -0
125 3170 -0
126 3170 -0
1825 3170 -0
1826 3170 -0.70516692496269695
1827 3170 -0
1828 3170 -0
1829 3170 -0
1830 3170 -0
2923 3170 0
2924 3170 0.70516692496269695
2925 3170 0
2926 3170 0
2927 3170 0
2928 3170 0
115 3171 0
116 3171 0
117 3171 0.016624127736337181
118 3171 0
119 3171 0
120 3171 0
121 3171 -0
122 3171 -0
123 3171 -0.016585933143231667
124 3171 -0
125 3171 -0
126 3171 3.8067926667141391e-05
1825 3171 -0
1826 3171 -0
1827 3171 -0.70516692496269695
1828 3171 -0
1829 3171 -0
1830 3171 -0
2923 3171 0
2924 3171 0
2925 3171 0.70516692496269695
2926 3171 0
2927 3171 0
2928 3171 0
115 3172 0
116 3172 0
117 3172 0
118 3172 0.49726039206134737
119 3172 0
120 3172 0
121 3172 -0.99668365524927938
122 3172 0.067678768813813697
123 3172 -0
124 3172 -0.49611791657971721
125 3172 0.067532010077255816
126 3172 -0
1825 3172 -0
1826 3172 -0
1827 3172 -0
1828 3172 -0.70516692496269695
1829 3172 -0
1830 3172 -0
2923 3172 0
2924 3172 0
2925 3172 0
2926 3172 0.70516692496269695
2927 3172 0
2928 3172 0
115 3173 0
116 3173 0
117 3173 0
118 3173 0
119 3173 0.49840543371991375
120 3173 0
121 3173 -0.067601049744234934
122 3173 -0.99553485319114277
123 3173 -0
124 3173 -0.067376861357772475
125 3173 -0.49382500867881207
126 3173 -0
1825 3173 -0
1826 3173 -0
1827 3173 -0
1828 3173 -0
1829 3173 -0.70516692496269695
1830 3173 -0
2923 3173 0
2924 3173 0
2925 3173 0
2926 3173 0
2927 3173 0.70516692496269695
2928 3173 0
115 3174 0
116 3174 0
117 3174 0
118 3174 0
119 3174 0
120 3174 0.49726039206134764
121 3174 -0
122 3174 -0
123 3174 -0.99668365524927816
124 3174 -0
125 3174 -0
126 3174 -0.49611791657971638
1825 3174 -0
1826 3174 -0
1827 3174 -0
1828 3174 -0
1829 3174 -0
1830 3174 -0.70516692496269695
2923 3174 0
2924 3174 0
2925 3174 0
2926 3174 0
2927 3174 0
2928 3174 0.70516692496269695
121 3175 0.01662412773633716
122 3175 0
123 3175 0
124 3175 0
125 3175 0
126 3175 0
127 3175 -0.016738711515653665
128 3175 5.1859358331731552e-06
129 3175 -0
130 3175 -0.00011420378000142444
131 3175 7.763820444667679e-06
132 3175 -0
1831 3175 -0.70516692496269695
1832 3175 -0
1833 3175 -0
1834 3175 -0
1835 3175 -0
1836 3175 -0
2929 3175 0.70516692496269695
2930 3175 0
2931 3175 0
2932 3175 0
2933 3175 0
2934 3175 0
121 3176 0
122 3176 0.016643240039254284
123 3176 0
124 3176 0
125 3176 0
126 3176 0
127 3176 -0
128 3176 -0.016643240039254253
129 3176 -0
130 3176 -0
131 3176 -0
132 3176 -0
1831 3176 -0
1832 3176 -0.70516692496269695
1833 3176 -0
1834 3176 -0
1835 3176 -0
1836 3176 -0
2929 3176 0
2930 3176 0.70516692496269695
2931 3176 0
2932 3176 0
2933 3176 0
2934 3176 0
121 3177 0
122 3177 0
123 3177 0.016624127736337181
124 3177 0
125 3177 0
126 3177 0
127 3177 -0
128 3177 -0
129 3177 -0.016585933143231667
130 3177 -0
131 3177 -0
132 3177 3.8067926667141391e-05
1831 3177 -0
1832 3177 -0
1833 3177 -0.70516692496269695
1834 3177 -0
1835 3177 -0
1836 3177 -0
2929 3177 0
2930 3177 0
2931 3177 0.70516692496269695
2932 3177 0
2933 3177 0
2934 3177 0
121 3178 0
122 3178 0
123 3178 0
124 3178 0.49726039206134737
125 3178 0
126 3178 0
127 3178 -0.99668365524927938
128 3178 0.067678768813813697
129 3178 -0
130 3178 -0.49611791657971721
131 3178 0.067532010077255816
132 3178 -0
1831 3178 -0
1832 3178 -0
1833 3178 -0
1834 3178 -0.70516692496269695
1835 3178 -0
1836 3178 -0
2929 3178 0
2930 3178 0
2931 3178 0
2932 3178 0.70516692496269695
2933 3178 0
2934 3178 0
121 3179 0
122 3179 0
123 3179 0
124 3179 0
125 3179 0.49840543371991375
126 3179 0
127 3179 -0.067601049744234934
128 3179 -0.99553485319114277
129 3179 -0
130 3179 -0.067376861357772475
131 3179 -0.49382500867881207
132 3179 -0
1831 3179 -0
1832 3179 -0
1833 3179 -0
1834 3179 -0
1835 3179 -0.70516692496269695
1836 3179 -0
2929 3179 0
2930 3179 0
2931 3179 0
2932 3179 0
2933 3179 0.70516692496269695
2934 3179 0
121 3180 0
122 3180 0
123 3180 0
124 3180 0
125 3180 0
126 3180 0.49726039206134764
127 3180 -0
128 3180 -0
129 3180 -0.99668365524927816
130 3180 -0
131 3180 -0
132 3180 -0.49611791657971638
1831 3180 -0
1832 3180 -0
1833 3180 -0
1834 3180 -0
1835 3180 -0
1836 3180 -0.70516692496269695
2929 3180 0
2930 3180 0
2931 3180 0
2932 3180 0
2933 3180 0
2934 3180 0.70516692496269695
967 3181 0.01662412773633716
968 3181 0
969 3181 0
970 3181 0
971 3181 0
972 3181 0
973 3181 -0.016738711515653665
974 3181 5.1859358331731552e-06
975 3181 -0
976 3181 -0.00011420378000142444
977 3181 7.763820444667679e-06
978 3181 -0
2191 3181 0.70516692496269695
2192 3181 0
2193 3181 0
2194 3181 0
2195 3181 0
2196 3181 0
2557 3181 -0.70516692496269695
2558 3181 -0
2559 3181 -0
2560 3181 -0
2561 3181 -0
2562 3181 -0
967 3182 0
968 3182 0.016643240039254284
969 3182 0
970 3182 0
971 3182 0
972 3182 0
973 3182 -0
974 3182 -0.016643240039254253
975 3182 -0
976 3182 -0
977 3182 -0
978 3182 -0
2191 3182 0
2192 3182 0.70516692496269695
2193 3182 0
2194 3182 0
2195 3182 0
2196 3182 0
2557 3182 -0
2558 3182 -0.70516692496269695
2559 3182 -0
2560 3182 -0
2561 3182 -0
2562 3182 -0
967 3183 0
968 3183 0
969 3183 0.016624127736337181
970 3183 0
971 3183 0
972 3183 0
973 3183 -0
974 3183 -0
975 3183 -0.016585933143231667
976 3183 -0
977 3183 -0
978 3183 3.8067926667141391e-05
2191 3183 0
2192 3183 0
2193 3183 0.70516692496269695
2194 3183 0
2195 3183 0
2196 3183 0
2557 3183 -0
2558 3183 -0
2559 3183 -0.70516692496269695
2560 3183 -0
2561 3183 -0
2562 3183 -0
967 3184 0
968 3184 0
969 3184 0
970 3184 0.49726039206134737
971 3184 0
972 3184 0
973 3184 -0.99668365524927938
974 3184 0.067678768813813697
975 3184 -0
976 3184 -0.49611791657971721
977 3184 0.067532010077255816
978 3184 -0
2191 3184 0
2192 3184 0
2193 3184 0
2194 3184 0.70516692496269695
2195 3184 0
2196 3184 0
2557 3184 -0
2558 3184 -0
2559 3184 -0
2560 3184 -0.70516692496269695
2561 3184 -0
2562 3184 -0
967 3185 0
968 3185 0
969 3185 0
970 3185 0
971 3185 0.49840543371991375
972 3185 0
973 3185 -0.067601049744234934
974 3185 -0.99553485319114277
975 3185 -0
976 3185 -0.067376861357772475
977 3185 -0.49382500867881207
978 3185 -0
2191 3185 0
2192 3185 0
2193 3185 0
2194 3185 0
2195 3185 0.70516692496269695
2196 3185 0
2557 3185 -0
2558 3185 -0
2559 3185 -0
2560 3185 -0
2561 3185 -0.70516692496269695
2562 3185 -0
967 3186 0
968 3186 0
969 3186 0
970 3186 0
971 3186 0
972 3186 0.49726039206134764
973 3186 -0
974 3186 -0
975 3186 -0.99668365524927816
976 3186 -0
977 3186 -0
978 3186 -0.49611791657971638
2191 3186 0
2192 3186 0
2193 3186 0
2194 3186 0
2195 3186 0
2196 3186 0.70516692496269695
2557 3186 -0
2558 3186 -0
2559 3186 -0
2560 3186 -0
2561 3186 -0
2562 3186 -0.70516692496269695
973 3187 0.01662412773633716
974 3187 0
975 3187 0
976 3187 0
977 3187 0
978 3187 0
979 3187 -0.016738711515653665
980 3187 5.1859358331731552e-06
981 3187 -0
982 3187 -0.00011420378000142444
983 3187 7.763820444667679e-06
984 3187 -0
2197 3187 0.70516692496269695
2198 3187 0
2199 3187 0
2200 3187 0
2201 3187 0
2202 3187 0
2563 3187 -0.70516692496269695
2564 3187 -0
2565 3187 -0
2566 3187 -0
2567 3187 -0
2568 3187 -0
973 3188 0
974 3188 0.016643240039254284
975 3188 0
976 3188 0
977 3188 0
978 3188 0
979 3188 -0
980 3188 -0.016643240039254253
981 3188 -0
982 3188 -0
983 3188 -0
984 3188 -0
2197 3188 0
2198 3188 0.70516692496269695
2199 3188 0
2200 3188 0
2201 3188 0
2202 3188 0
2563 3188 -0
2564 3188 -0.70516692496269695
2565 3188 -0
2566 3188 -0
2567 3188 -0
2568 3188 -0
973 3189 0
974 3189 0
975 3189 0.016624127736337181
976 3189 0
977 3189 0
978 3189 0
979 3189 -0
980 3189 -0
981 3189 -0.016585933143231667
982 3189 -0
983 3189 -0
984 3189 3.8067926667141391e-05
2197 3189 0
2198 3189 0
2199 3189 0.70516692496269695
2200 3189 0
2201 3189 0
2202 3189 0
2563 3189 -0
2564 3189 -0
2565 3189 -0.70516692496269695
2566 3189 -0
2567 3189 -0
2568 3189 -0
973 3190 0
974 3190 0
975 3190 0
976 3190 0.49726039206134737
977 3190 0
978 3190 0
979 3190 -0.99668365524927938
980 3190 0.067678768813813697
981 3190 -0
982 3190 -0.49611791657971721
983 3190 0.067532010077255816
984 3190 -0
2197 3190 0
2198 3190 0
2199 3190 0
2200 3190 0.70516692496269695
2201 3190 0
2202 3190 0
2563 3190 -0
2564 3190 -0
2565 3190 -0
2566 3190 -0.70516692496269695
2567 3190 -0
2568 3190 -0
973 3191 0
974 3191 0
975 3191 0
976 3191 0
977 3191 0.49840543371991375
978 3191 0
979 3191 -0.067601049744234934
980 3191 -0.99553485319114277
981 3191 -0
982 3191 -0.067376861357772475
983 3191 -0.49382500867881207
984 3191 -0
2197 3191 0
2198 3191 0
2199 3191 0
2200 3191 0
2201 3191 0.70516692496269695
2202 3191 0
2563 3191 -0
2564 3191 -0
2565 3191 -0
2566 3191 -0
2567 3191 -0.70516692496269695
2568 3191 -0
973 3192 0
974 3192 0
975 3192 0
976 3192 0
977 3192 0
978 3192 0.49726039206134764
979 3192 -0
980 3192 -0
981 3192 -0.99668365524927816
982 3192 -0
983 3192 -0
984 3192 -0.49611791657971638
2197 3192 0
2198 3192 0
2199 3192 0
2200 3192 0
2201 3192 0
2202 3192 0.70516692496269695
2563 3192 -0
2564 3192 -0
2565 3192 -0
2566 3192 -0
2567 3192 -0
2568 3192 -0.70516692496269695
1399 3193 0.01662412773633716
1400 3193 0
1401 3193 0
1402 3193 0
1403 3193 0
1404 3193 0
1405 3193 -0.016738711515653665
1406 3193 5.1859358331731552e-06
1407 3193 -0
1408 3193 -0.00011420378000142444
1409 3193 7.763820444667679e-06
1410 3193 -0
2563 3193 0.70516692496269695
2564 3193 0
2565 3193 0
2566 3193 0
2567 3193 0
2568 3193 0
2929 3193 -0.70516692496269695
2930 3193 -0
2931 3193 -0
2932 3193 -0
2933 3193 -0
2934 3193 -0
1399 3194 0
1400 3194 0.016643240039254284
1401 3194 0
1402 3194 0
1403 3194 0
1404 3194 0
1405 3194 -0
1406 3194 -0.016643240039254253
1407 3194 -0
1408 3194 -0
1409 3194 -0
1410 3194 -0
2563 3194 0
2564 3194 0.70516692496269695
2565 3194 0
2566 3194 0
2567 3194 0
2568 3194 0
2929 3194 -0
2930 3194 -0.70516692496269695
2931 3194 -0
2932 3194 -0
2933 3194 -0
2934 3194 -0
1399 3195 0
1400 3195 0
1401 3195 0.016624127736337181
1402 3195 0
1403 3195 0
1404 3195 0
1405 3195 -0
1406 3195 -0
1407 3195 -0.016585933143231667
1408 3195 -0
1409 3195 -0
1410 3195 3.8067926667141391e-05
2563 3195 0
2564 3195 0
2565 3195 0.70516692496269695
2566 3195 0
2567 3195 0
2568 3195 0
2929 3195 -0
2930 3195 -0
2931 3195 -0.70516692496269695
2932 3195 -0
2933 3195 -0
2934 3195 -0
1399 3196 0
1400 3196 0
1401 3196 0
1402 3196 0.49726039206134737
1403 3196 0
1404 3196 0
1405 3196 -0.99668365524927938
1406 3196 0.067678768813813697
1407 3196 -0
1408 3196 -0.49611791657971721
1409 3196 0.067532010077255816
1410 3196 -0
2563 3196 0
2564 3196 0
2565 3196 0
2566 3196 0.70516692496269695
2567 3196 0
2568 3196 0
2929 3196 -0
2930 3196 -0
2931 3196 -0
2932 3196 -0.70516692496269695
2933 3196 -0
2934 3196 -0
1399 3197 0
1400 3197 0
1401 3197 0
1402 3197 0
1403 3197 0.49840543371991375
1404 3197 0
1405 3197 -0.067601049744234934
1406 3197 -0.99553485319114277
1407 3197 -0
1408 3197 -0.067376861357772475
1409 3197 -0.49382500867881207
1410 3197 -0
2563 3197 0
2564 3197 0
2565 3197 0
2566 3197 0
2567 3197 0.70516692496269695
2568 3197 0
2929 3197 -0
2930 3197 -0
2931 3197 -0
2932 3197 -0
2933 3197 -0.70516692496269695
2934 3197 -0
1399 3198 0
1400 3198 0
1401 3198 0
1402 3198 0
1403 3198 0
1404 3198 0.49726039206134764
1405 3198 -0
1406 3198 -0
1407 3198 -0.99668365524927816
1408 3198 -0
1409 3198 -0
1410 3198 -0.49611791657971638
2563 3198 0
2564 3198 0
2565 3198 0
2566 3198 0
2567 3198 0
2568 3198 0.70516692496269695
2929 3198 -0
2930 3198 -0
2931 3198 -0
2932 3198 -0
2933 3198 -0
2934 3198 -0.70516692496269695
1405 3199 0.01662412773633716
1406 3199 0
1407 3199 0
1408 3199 0
1409 3199 0
1410 3199 0
1411 3199 -0.016738711515653665
1412 3199 5.1859358331731552e-06
1413 3199 -0
1414 3199 -0.00011420378000142444
1415 3199 7.763820444667679e-06
1416 3199 -0
2569 3199 0.70516692496269695
2570 3199 0
2571 3199 0
2572 3199 0
2573 3199 0
2574 3199 0
2935 3199 -0.70516692496269695
2936 3199 -0
2937 3199 -0
2938 3199 -0
2939 3199 -0
2940 3199 -0
1405 3200 0
1406 3200 0.016643240039254284
1407 3200 0
1408 3200 0
1409 3200 0
1410 3200 0
1411 3200 -0
1412 3200 -0.016643240039254253
1413 3200 -0
1414 3200 -0
1415 3200 -0
1416 3200 -0
2569 3200 0
2570 3200 0.70516692496269695
2571 3200 0
2572 3200 0
2573 3200 0
2574 3200 0
2935 3200 -0
2936 3200 -0.70516692496269695
2937 3200 -0
2938 3200 -0
2939 3200 -0
2940 3200 -0
1405 3201 0
1406 3201 0
1407 3201 0.016624127736337181
1408 3201 0
1409 3201 0
1410 3201 0
1411 3201 -0
1412 3201 -0
1413 3201 -0.016585933143231667
1414 3201 -0
1415 3201 -0
1416 3201 3.8067926667141391e-05
2569 3201 0
2570 3201 0
2571 3201 0.70516692496269695
2572 3201 0
2573 3201 0
2574 3201 0
2935 3201 -0
2936 3201 -0
2937 3201 -0.70516692496269695
2938 3201 -0
2939 3201 -0
2940 3201 -0
1405 3202 0
1406 3202 0
1407 3202 0
1408 3202 0.49726039206134737
1409 3202 0
1410 3202 0
1411 3202 -0.99668365524927938
1412 3202 0.067678768813813697
1413 3202 -0
1414 3202 -0.49611791657971721
1415 3202 0.067532010077255816
1416 3202 -0
2569 3202 0
2570 3202 0
2571 3202 0
2572 3202 0.70516692496269695
2573 3202 0
2574 3202 0
2935 3202 -0
2936 3202 -0
2937 3202 -0
2938 3202 -0.70516692496269695
2939 3202 -0
2940 3202 -0
1405 3203 0
1406 3203 0
1407 3203 0
1408 3203 0
1409 3203 0.49840543371991375
1410 3203 0
1411 3203 -0.067601049744234934
1412 3203 -0.99553485319114277
1413 3203 -0
1414 3203 -0.067376861357772475
1415 3203 -0.49382500867881207
1416 3203 -0
2569 3203 0
2570 3203 0
2571 3203 0
2572 3203 0
2573 3203 0.70516692496269695
2574 3203 0
2935 3203 -0
2936 3203 -0
2937 3203 -0
2938 3203 -0
2939 3203 -0.70516692496269695
2940 3203 -0
1405 3204 0
1406 3204 0
1407 3204 0
1408 3204 0
1409 3204 0
1410 3204 0.49726039206134764
1411 3204 -0
1412 3204 -0
1413 3204 -0.99668365524927816
1414 3204 -0
1415 3204 -0
1416 3204 -0.49611791657971638
2569 3204 0
2570 3204 0
2571 3204 0
2572 3204 0
2573 3204 0
2574 3204 0.70516692496269695
2935 3204 -0
2936 3204 -0
2937 3204 -0
2938 3204 -0
2939 3204 -0
2940 3204 -0.70516692496269695
547 3205 0.01662412773633716
548 3205 0
549 3205 0
550 3205 0
551 3205 0
552 3205 0
553 3205 -0.016738711515653665
554 3205 5.1859358331731552e-06
555 3205 -0
556 3205 -0.00011420378000142444
557 3205 7.763820444667679e-06
558 3205 -0
1831 3205 0.70516692496269695
1832 3205 0
1833 3205 0
1834 3205 0
1835 3205 0
1836 3205 0
2197 3205 -0.70516692496269695
2198 3205 -0
2199 3205 -0
2200 3205 -0
2201 3205 -0
2202 3205 -0
547 3206 0
548 3206 0.016643240039254284
549 3206 0
550 3206 0
551 3206 0
552 3206 0
553 3206 -0
554 3206 -0.016643240039254253
555 3206 -0
556 3206 -0
557 3206 -0
558 3206 -0
1831 3206 0
1832 3206 0.70516692496269695
1833 3206 0
1834 3206 0
1835 3206 0
1836 3206 0
2197 3206 -0
2198 3206 -0.70516692496269695
2199 3206 -0
2200 3206 -0
2201 3206 -0
2202 3206 -0
547 3207 0
548 3207 0
549 3207 0.016624127736337181
550 3207 0
551 3207 0
552 3207 0
553 3207 -0
554 3207 -0
555 3207 -0.016585933143231667
556 3207 -0
557 3207 -0
558 3207 3.8067926667141391e-05
1831 3207 0
1832 3207 0
1833 3207 0.70516692496269695
1834 3207 0
1835 3207 0
1836 3207 0
2197 3207 -0
2198 3207 -0
2199 3207 -0.70516692496269695
2200 3207 -0
2201 3207 -0
2202 3207 -0
547 3208 0
548 3208 0
549 3208 0
550 3208 0.49726039206134737
551 3208 0
552 3208 0
553 3208 -0.99668365524927938
554 3208 0.067678768813813697
555 3208 -0
556 3208 -0.49611791657971721
557 3208 0.067532010077255816
558 3208 -0
1831 3208 0
1832 3208 0
1833 3208 0
1834 3208 0.70516692496269695
1835 3208 0
1836 3208 0
2197 3208 -0
2198 3208 -0
2199 3208 -0
2200 3208 -0.70516692496269695
2201 3208 -0
2202 3208 -0
547 3209 0
548 3209 0
549 3209 0
550 3209 0
551 3209 0.49840543371991375
552 3209 0
553 3209 -0.067601049744234934
554 3209 -0.99553485319114277
555 3209 -0
556 3209 -0.067376861357772475
557 3209 -0.49382500867881207
558 3209 -0
1831 3209 0
1832 3209 0
1833 3209 0
1834 3209 0
1835 3209 0.70516692496269695
1836 3209 0
2197 3209 -0
2198 3209 -0
2199 3209 -0
2200 3209 -0
2201 3209 -0.70516692496269695
2202 3209 -0
547 3210 0
548 3210 0
549 3210 0
550 3210 0
551 3210 0
552 3210 0.49726039206134764
553 3210 -0
554 3210 -0
555 3210 -0.99668365524927816
556 3210 -0
557 3210 -0
558 3210 -0.49611791657971638
1831 3210 0
1832 3210 0
1833 3210 0
1834 3210 0
1835 3210 0
1836 3210 0.70516692496269695
2197 3210 -0
2198 3210 -0
2199 3210 -0
2200 3210 -0
2201 3210 -0
2202 3210 -0.70516692496269695
553 3211 0.01662412773633716
554 3211 0
555 3211 0
556 3211 0
557 3211 0
558 3211 0
559 3211 -0.016738711515653665
560 3211 5.1859358331731552e-06
561 3211 -0
562 3211 -0.00011420378000142444
563 3211 7.763820444667679e-06
564 3211 -0
1837 3211 0.70516692496269695
1838 3211 0
1839 3211 0
1840 3211 0
1841 3211 0
1842 3211 0
2203 3211 -0.70516692496269695
2204 3211 -0
2205 3211 -0
2206 3211 -0
2207 3211 -0
2208 3211 -0
553 3212 0
554 3212 0.016643240039254284
555 3212 0
556 3212 0
557 3212 0
558 3212 0
559 3212 -0
560 3212 -0.016643240039254253
561 3212 -0
562 3212 -0
563 3212 -0
564 3212 -0
1837 3212 0
1838 3212 0.70516692496269695
1839 3212 0
1840 3212 0
1841 3212 0
1842 3212 0
2203 3212 -0
2204 3212 -0.70516692496269695
2205 3212 -0
2206 3212 -0
2207 3212 -0
2208 3212 -0
553 3213 0
554 3213 0
555 3213 0.016624127736337181
556 3213 0
557 3213 0
558 3213 0
559 3213 -0
560 3213 -0
561 3213 -0.016585933143231667
562 3213 -0
563 3213 -0
564 3213 3.8067926667141391e-05
1837 3213 0
1838 3213 0
1839 3213 0.70516692496269695
1840 3213 0
1841 3213 0
1842 3213 0
2203 3213 -0
2204 3213 -0
2205 3213 -0.70516692496269695
2206 3213 -0
2207 3213 -0
2208 3213 -0
553 3214 0
554 3214 0
555 3214 0
556 3214 0.49726039206134737
557 3214 0
558 3214 0
559 3214 -0.99668365524927938
560 3214 0.067678768813813697
561 3214 -0
562 3214 -0.49611791657971721
563 3214 0.067532010077255816
564 3214 -0
1837 3214 0
1838 3214 0
1839 3214 0
1840 3214 0.70516692496269695
1841 3214 0
1842 3214 0
2203 3214 -0
2204 3214 -0
2205 3214 -0
2206 3214 -0.70516692496269695
2207 3214 -0
2208 3214 -0
553 3215 0
554 3215 0
555 3215 0
556 3215 0
557 3215 0.49840543371991375
558 3215 0
559 3215 -0.067601049744234934
560 3215 -0.99553485319114277
561 3215 -0
562 3215 -0.067376861357772475
563 3215 -0.49382500867881207
564 3215 -0
1837 3215 0
1838 3215 0
1839 3215 0
1840 3215 0
1841 3215 0.70516692496269695
1842 3215 0
2203 3215 -0
2204 3215 -0
2205 3215 -0
2206 3215 -0
2207 3215 -0.70516692496269695
2208 3215 -0
553 3216 0
554 3216 0
555 3216 0
556 3216 0
557 3216 0
558 3216 0.49726039206134764
559 3216 -0
560 3216 -0
561 3216 -0.99668365524927816
562 3216 -0
563 3216 -0
564 3216 -0.49611791657971638
1837 3216 0
1838 3216 0
1839 3216 0
1840 3216 0
1841 3216 0
1842 3216 0.70516692496269695
2203 3216 -0
2204 3216 -0
2205 3216 -0
2206 3216 -0
2207 3216 -0
2208 3216 -0.70516692496269695
979 3217 0.01662412773633716
980 3217 0
981 3217 0
982 3217 0
983 3217 0
984 3217 0
985 3217 -0.016738711515653665
986 3217 5.1859358331731552e-06
987 3217 -0
988 3217 -0.00011420378000142444
989 3217 7.763820444667679e-06
990 3217 -0
2203 3217 0.70516692496269695
2204 3217 0
2205 3217 0
2206 3217 0
2207 3217 0
2208 3217 0
2569 3217 -0.70516692496269695
2570 3217 -0
2571 3217 -0
2572 3217 -0
2573 3217 -0
2574 3217 -0
979 3218 0
980 3218 0.016643240039254284
981 3218 0
982 3218 0
983 3218 0
984 3218 0
985 3218 -0
986 3218 -0.016643240039254253
987 3218 -0
988 3218 -0
989 3218 -0
990 3218 -0
2203 3218 0
2204 3218 0.70516692496269695
2205 3218 0
2206 3218 0
2207 3218 0
2208 3218 0
2569 3218 -0
2570 3218 -0.70516692496269695
2571 3218 -0
2572 3218 -0
2573 3218 -0
2574 3218 -0
979 3219 0
980 3219 0
981 3219 0.016624127736337181
982 3219 0
983 3219 0
984 3219 0
985 3219 -0
986 3219 -0
987 3219 -0.016585933143231667
988 3219 -0
989 3219 -0
990 3219 3.8067926667141391e-05
2203 3219 0
2204 3219 0
2205 3219 0.70516692496269695
2206 3219 0
2207 3219 0
2208 3219 0
2569 3219 -0
2570 3219 -0
2571 3219 -0.70516692496269695
2572 3219 -0
2573 3219 -0
2574 3219 -0
979 3220 0
980 3220 0
981 3220 0
982 3220 0.49726039206134737
983 3220 0
984 3220 0
985 3220 -0.99668365524927938
986 3220 0.067678768813813697
987 3220 -0
988 3220 -0.49611791657971721
989 3220 0.067532010077255816
990 3220 -0
2203 3220 0
2204 3220 0
2205 3220 0
2206 3220 0.70516692496269695
2207 3220 0
2208 3220 0
2569 3220 -0
2570 3220 -0
2571 3220 -0
2572 3220 -0.70516692496269695
2573 3220 -0
2574 3220 -0
979 3221 0
980 3221 0
981 3221 0
982 3221 0
983 3221 0.49840543371991375
984 3221 0
985 3221 -0.067601049744234934
986 3221 -0.99553485319114277
987 3221 -0
988 3221 -0.067376861357772475
989 3221 -0.49382500867881207
990 3221 -0
2203 3221 0
2204 3221 0
2205 3221 0
2206 3221 0
2207 3221 0.70516692496269695
2208 3221 0
2569 3221 -0
2570 3221 -0
2571 3221 -0
2572 3221 -0
2573 3221 -0.70516692496269695
2574 3221 -0
979 3222 0
980 3222 0
981 3222 0
982 3222 0
983 3222 0
984 3222 0.49726039206134764
985 3222 -0
986 3222 -0
987 3222 -0.99668365524927816
988 3222 -0
989 3222 -0
990 3222 -0.49611791657971638
2203 3222 0
2204 3222 0
2205 3222 0
2206 3222 0
2207 3222 0
2208 3222 0.70516692496269695
2569 3222 -0
2570 3222 -0
2571 3222 -0
2572 3222 -0
2573 3222 -0
2574 3222 -0.70516692496269695
985 3223 0.01662412773633716
986 3223 0
987 3223 0
988 3223 0
989 3223 0
990 3223 0
991 3223 -0.016738711515653665
992 3223 5.1859358331731552e-06
993 3223 -0
994 3223 -0.00011420378000142444
995 3223 7.763820444667679e-06
996 3223 -0
2209 3223 0.70516692496269695
2210 3223 0
2211 3223 0
2212 3223 0
2213 3223 0
2214 3223 0
2575 3223 -0.70516692496269695
2576 3223 -0
2577 3223 -0
2578 3223 -0
2579 3223 -0
2580 3223 -0
985 3224 0
986 3224 0.016643240039254284
987 3224 0
988 3224 0
989 3224 0
990 3224 0
991 3224 -0
992 3224 -0.016643240039254253
993 3224 -0
994 3224 -0
995 3224 -0
996 3224 -0
2209 3224 0
2210 3224 0.70516692496269695
2211 3224 0
2212 3224 0
2213 3224 0
2214 3224 0
2575 3224 -0
2576 3224 -0.70516692496269695
2577 3224 -0
2578 3224 -0
2579 3224 -0
2580 3224 -0
985 3225 0
986 3225 0
987 3225 0.016624127736337181
988 3225 0
989 3225 0
990 3225 0
991 3225 -0
992 3225 -0
993 3225 -0.016585933143231667
994 3225 -0
995 3225 -0
996 3225 3.8067926667141391e-05
2209 3225 0
2210 3225 0
2211 3225 0.70516692496269695
2212 3225 0
2213 3225 0
2214 3225 0
2575 3225 -0
2576 3225 -0
2577 3225 -0.70516692496269695
2578 3225 -0
2579 3225 -0
2580 3225 -0
985 3226 0
986 3226 0
987 3226 0
988 3226 0.49726039206134737
989 3226 0
990 3226 0
991 3226 -0.99668365524927938
992 3226 0.067678768813813697
993 3226 -0
994 3226 -0.49611791657971721
995 3226 0.067532010077255816
996 3226 -0
2209 3226 0
2210 3226 0
2211 3226 0
2212 3226 0.70516692496269695
2213 3226 0
2214 3226 0
2575 3226 -0
2576 3226 -0
2577 3226 -0
2578 3226 -0.70516692496269695
2579 3226 -0
2580 3226 -0
985 3227 0
986 3227 0
987 3227 0
988 3227 0
989 3227 0.49840543371991375
990 3227 0
991 3227 -0.067601049744234934
992 3227 -0.99553485319114277
993 3227 -0
994 3227 -0.067376861357772475
995 3227 -0.49382500867881207
996 3227 -0
2209 3227 0
2210 3227 0
2211 3227 0
2212 3227 0
2213 3227 0.70516692496269695
2214 3227 0
2575 3227 -0
2576 3227 -0
2577 3227 -0
2578 3227 -0
2579 3227 -0.70516692496269695
2580 3227 -0
985 3228 0
986 3228 0
987 3228 0
988 3228 0
989 3228 0
990 3228 0.49726039206134764
991 3228 -0
992 3228 -0
993 3228 -0.99668365524927816
994 3228 -0
995 3228 -0
996 3228 -0.49611791657971638
2209 3228 0
2210 3228 0
2211 3228 0
2212 3228 0
2213 3228 0
2214 3228 0.70516692496269695
2575 3228 -0
2576 3228 -0
2577 3228 -0
2578 3228 -0
2579 3228 -0
2580 3228 -0.70516692496269695
127 3229 0.01662412773633716
128 3229 0
129 3229 0
130 3229 0
131 3229 0
132 3229 0
133 3229 -0.016738711515653665
134 3229 5.1859358331731552e-06
135 3229 -0
136 3229 -0.00011420378000142444
137 3229 7.763820444667679e-06
138 3229 -0
1837 3229 -0.70516692496269695
1838 3229 -0
1839 3229 -0
1840 3229 -0
1841 3229 -0
1842 3229 -0
2935 3229 0.70516692496269695
2936 3229 0
2937 3229 0
2938 3229 0
2939 3229 0
2940 3229 0
127 3230 0
128 3230 0.016643240039254284
129 3230 0
130 3230 0
131 3230 0
132 3230 0
133 3230 -0
134 3230 -0.016643240039254253
135 3230 -0
136 3230 -0
137 3230 -0
138 3230 -0
1837 3230 -0
1838 3230 -0.70516692496269695
1839 3230 -0
1840 3230 -0
1841 3230 -0
1842 3230 -0
2935 3230 0
2936 3230 0.70516692496269695
2937 3230 0
2938 3230 0
2939 3230 0
2940 3230 0
127 3231 0
128 3231 0
129 3231 0.016624127736337181
130 3231 0
131 3231 0
132 3231 0
133 3231 -0
134 3231 -0
135 3231 -0.016585933143231667
136 3231 -0
137 3231 -0
138 3231 3.8067926667141391e-05
1837 3231 -0
1838 3231 -0
1839 3231 -0.70516692496269695
1840 3231 -0
1841 3231 -0
1842 3231 -0
2935 3231 0
2936 3231 0
2937 3231 0.70516692496269695
2938 3231 0
2939 3231 0
2940 3231 0
127 3232 0
128 3232 0
129 3232 0
130 3232 0.49726039206134737
131 3232 0
132 3232 0
133 3232 -0.99668365524927938
134 3232 0.067678768813813697
135 3232 -0
136 3232 -0.49611791657971721
137 3232 0.067532010077255816
138 3232 -0
1837 3232 -0
1838 3232 -0
1839 3232 -0
1840 3232 -0.70516692496269695
1841 3232 -0
1842 3232 -0
2935 3232 0
2936 3232 0
2937 3232 0
2938 3232 0.70516692496269695
2939 3232 0
2940 3232 0
127 3233 0
128 3233 0
129 3233 0
130 3233 0
131 3233 0.49840543371991375
132 3233 0
133 3233 -0.067601049744234934
134 3233 -0.99553485319114277
135 3233 -0
136 3233 -0.067376861357772475
137 3233 -0.49382500867881207
138 3233 -0
1837 3233 -0
1838 3233 -0
1839 3233 -0
1840 3233 -0
1841 3233 -0.70516692496269695
1842 3233 -0
2935 3233 0
2936 3233 0
2937 3233 0
2938 3233 0
2939 3233 0.70516692496269695
2940 3233 0
127 3234 0
128 3234 0
129 3234 0
130 3234 0
131 3234 0
132 3234 0.49726039206134764
133 3234 -0
134 3234 -0
135 3234 -0.99668365524927816
136 3234 -0
137 3234 -0
138 3234 -0.49611791657971638
1837 3234 -0
1838 3234 -0
1839 3234 -0
1840 3234 -0
1841 3234 -0
1842 3234 -0.70516692496269695
2935 3234 0
2936 3234 0
2937 3234 0
2938 3234 0
2939 3234 0
2940 3234 0.70516692496269695
133 3235 0.01662412773633716
134 3235 0
135 3235 0
136 3235 0
137 3235 0
138 3235 0
139 3235 -0.016738711515653665
140 3235 5.1859358331731552e-06
141 3235 -0
142 3235 -0.00011420378000142444
143 3235 7.763820444667679e-06
144 3235 -0
1843 3235 -0.70516692496269695
1844 3235 -0
1845 3235 -0
1846 3235 -0
1847 3235 -0
1848 3235 -0
2941 3235 0.70516692496269695
2942 3235 0
2943 3235 0
2944 3235 0
2945 3235 0
2946 3235 0
133 3236 0
134 3236 0.016643240039254284
135 3236 0
136 3236 0
137 3236 0
138 3236 0
139 3236 -0
140 3236 -0.016643240039254253
141 3236 -0
142 3236 -0
143 3236 -0
144 3236 -0
1843 3236 -0
1844 3236 -0.70516692496269695
1845 3236 -0
1846 3236 -0
1847 3236 -0
1848 3236 -0
2941 3236 0
2942 3236 0.70516692496269695
2943 3236 0
2944 3236 0
2945 3236 0
2946 3236 0
133 3237 0
134 3237 0
135 3237 0.016624127736337181
136 3237 0
137 3237 0
138 3237 0
139 3237 -0
140 3237 -0
141 3237 -0.016585933143231667
142 3237 -0
143 3237 -0
144 3237 3.8067926667141391e-05
1843 3237 -0
1844 3237 -0
1845 3237 -0.70516692496269695
1846 3237 -0
1847 3237 -0
1848 3237 -0
2941 3237 0
2942 3237 0
2943 3237 0.70516692496269695
2944 3237 0
2945 3237 0
2946 3237 0
133 3238 0
134 3238 0
135 3238 0
136 3238 0.49726039206134737
137 3238 0
138 3238 0
139 3238 -0.99668365524927938
140 3238 0.067678768813813697
141 3238 -0
142 3238 -0.49611791657971721
143 3238 0.067532010077255816
144 3238 -0
1843 3238 -0
1844 3238 -0
1845 3238 -0
1846 3238 -0.70516692496269695
1847 3238 -0
1848 3238 -0
2941 3238 0
2942 3238 0
2943 3238 0
2944 3238 0.70516692496269695
2945 3238 0
2946 3238 0
133 3239 0
134 3239 0
135 3239 0
136 3239 0
137 3239 0.49840543371991375
138 3239 0
139 3239 -0.067601049744234934
140 3239 -0.99553485319114277
141 3239 -0
142 3239 -0.067376861357772475
143 3239 -0.49382500867881207
144 3239 -0
1843 3239 -0
1844 3239 -0
1845 3239 -0
1846 3239 -0
1847 3239 -0.70516692496269695
1848 3239 -0
2941 3239 0
2942 3239 0
2943 3239 0
2944 3239 0
2945 3239 0.70516692496269695
2946 3239 0
133 3240 0
134 3240 0
135 3240 0
136 3240 0
137 3240 0
138 3240 0.49726039206134764
139 3240 -0
140 3240 -0
141 3240 -0.99668365524927816
142 3240 -0
143 3240 -0
144 3240 -0.49611791657971638
1843 3240 -0
1844 3240 -0
1845 3240 -0
1846 3240 -0
1847 3240 -0
1848 3240 -0.70516692496269695
2941 3240 0
2942 3240 0
2943 3240 0
2944 3240 0
2945 3240 0
2946 3240 0.70516692496269695
559 3241 0.01662412773633716
560 3241 0
561 3241 0
562 3241 0
563 3241 0
564 3241 0
565 3241 -0.016738711515653665
566 3241 5.1859358331731552e-06
567 3241 -0
568 3241 -0.00011420378000142444
569 3241 7.763820444667679e-06
570 3241 -0
1843 3241 0.70516692496269695
1844 3241 0
1845 3241 0
1846 3241 0
1847 3241 0
1848 3241 0
2209 3241 -0.70516692496269695
2210 3241 -0
2211 3241 -0
2212 3241 -0
2213 3241 -0
2214 3241 -0
559 3242 0
560 3242 0.016643240039254284
561 3242 0
562 3242 0
563 3242 0
564 3242 0
565 3242 -0
566 3242 -0.016643240039254253
567 3242 -0
568 3242 -0
569 3242 -0
570 3242 -0
1843 3242 0
1844 3242 0.70516692496269695
1845 3242 0
1846 3242 0
1847 3242 0
1848 3242 0
2209 3242 -0
2210 3242 -0.70516692496269695
2211 3242 -0
2212 3242 -0
2213 3242 -0
2214 3242 -0
559 3243 0
560 3243 0
561 3243 0.016624127736337181
562 3243 0
563 3243 0
564 3243 0
565 3243 -0
566 3243 -0
567 3243 -0.016585933143231667
568 3243 -0
569 3243 -0
570 3243 3.8067926667141391e-05
1843 3243 0
1844 3243 0
1845 3243 0.70516692496269695
1846 3243 0
1847 3243 0
1848 3243 0
2209 3243 -0
2210 3243 -0
2211 3243 -0.70516692496269695
2212 3243 -0
2213 3243 -0
2214 3243 -0
559 3244 0
560 3244 0
561 3244 0
562 3244 0.49726039206134737
563 3244 0
564 3244 0
565 3244 -0.99668365524927938
566 3244 0.067678768813813697
567 3244 -0
568 3244 -0.49611791657971721
569 3244 0.067532010077255816
570 3244 -0
1843 3244 0
1844 3244 0
1845 3244 0
1846 3244 0.70516692496269695
1847 3244 0
1848 3244 0
2209 3244 -0
2210 3244 -0
2211 3244 -0
2212 3244 -0.70516692496269695
2213 3244 -0
2214 3244 -0
559 3245 0
560 3245 0
561 3245 0
562 3245 0
563 3245 0.49840543371991375
564 3245 0
565 3245 -0.067601049744234934
566 3245 -0.99553485319114277
567 3245 -0
568 3245 -0.067376861357772475
569 3245 -0.49382500867881207
570 3245 -0
1843 3245 0
1844 3245 0
1845 3245 0
1846 3245 0
1847 3245 0.70516692496269695
1848 3245 0
2209 3245 -0
2210 3245 -0
2211 3245 -0
2212 3245 -0
2213 3245 -0.70516692496269695
2214 3245 -0
559 3246 0
560 3246 0
561 3246 0
562 3246 0
563 3246 0
564 3246 0.49726039206134764
565 3246 -0
566 3246 -0
567 3246 -0.99668365524927816
568 3246 -0
569 3246 -0
570 3246 -0.49611791657971638
1843 3246 0
1844 3246 0
1845 3246 0
1846 3246 0
1847 3246 0
1848 3246 0.70516692496269695
2209 3246 -0
2210 3246 -0
2211 3246 -0
2212 3246 -0
2213 3246 -0
2214 3246 -0.70516692496269695
565 3247 0.01662412773633716
566 3247 0
567 3247 0
568 3247 0
569 3247 0
570 3247 0
571 3247 -0.016738711515653665
572 3247 5.1859358331731552e-06
573 3247 -0
574 3247 -0.00011420378000142444
575 3247 7.763820444667679e-06
576 3247 -0
1849 3247 0.70516692496269695
1850 3247 0
1851 3247 0
1852 3247 0
1853 3247 0
1854 3247 0
2215 3247 -0.70516692496269695
2216 3247 -0
2217 3247 -0
2218 3247 -0
2219 3247 -0
2220 3247 -0
565 3248 0
566 3248 0.016643240039254284
567 3248 0
568 3248 0
569 3248 0
570 3248 0
571 3248 -0
572 3248 -0.016643240039254253
573 3248 -0
574 3248 -0
575 3248 -0
576 3248 -0
1849 3248 0
1850 3248 0.70516692496269695
1851 3248 0
1852 3248 0
1853 3248 0
1854 3248 0
2215 3248 -0
2216 3248 -0.70516692496269695
2217 3248 -0
2218 3248 -0
2219 3248 -0
2220 3248 -0
565 3249 0
566 3249 0
567 3249 0.016624127736337181
568 3249 0
569 3249 0
570 3249 0
571 3249 -0
572 3249 -0
573 3249 -0.016585933143231667
574 3249 -0
575 3249 -0
576 3249 3.8067926667141391e-05
1849 3249 0
1850 3249 0
1851 3249 0.70516692496269695
1852 3249 0
1853 3249 0
1854 3249 0
2215 3249 -0
2216 3249 -0
2217 3249 -0.70516692496269695
2218 3249 -0
2219 3249 -0
2220 3249 -0
565 3250 0
566 3250 0
567 3250 0
568 3250 0.49726039206134737
569 3250 0
570 3250 0
571 3250 -0.99668365524927938
572 3250 0.067678768813813697
573 3250 -0
574 3250 -0.49611791657971721
575 3250 0.067532010077255816
576 3250 -0
1849 3250 0
1850 3250 0
1851 3250 0
1852 3250 0.70516692496269695
1853 3250 0
1854 3250 0
2215 3250 -0
2216 3250 -0
2217 3250 -0
2218 3250 -0.70516692496269695
2219 3250 -0
2220 3250 -0
565 3251 0
566 3251 0
567 3251 0
568 3251 0
569 3251 0.49840543371991375
570 3251 0
571 3251 -0.067601049744234934
572 3251 -0.99553485319114277
573 3251 -0
574 3251 -0.067376861357772475
575 3251 -0.49382500867881207
576 3251 -0
1849 3251 0
1850 3251 0
1851 3251 0
1852 3251 0
1853 3251 0.70516692496269695
1854 3251 0
2215 3251 -0
2216 3251 -0
2217 3251 -0
2218 3251 -0
2219 3251 -0.70516692496269695
2220 3251 -0
565 3252 0
566 3252 0
567 3252 0
568 3252 0
569 3252 0
570 3252 0.49726039206134764
571 3252 -0
572 3252 -0
573 3252 -0.99668365524927816
574 3252 -0
575 3252 -0
576 3252 -0.49611791657971638
1849 3252 0
1850 3252 0
1851 3252 0
1852 3252 0
1853 3252 0
1854 3252 0.70516692496269695
2215 3252 -0
2216 3252 -0
2217 3252 -0
2218 3252 -0
2219 3252 -0
2220 3252 -0.70516692496269695
1411 3253 0.01662412773633716
1412 3253 0
1413 3253 0
1414 3253 0
1415 3253 0
1416 3253 0
1417 3253 -0.016738711515653665
1418 3253 5.1859358331731552e-06
1419 3253 -0
1420 3253 -0.00011420378000142444
1421 3253 7.763820444667679e-06
1422 3253 -0
2575 3253 0.70516692496269695
2576 3253 0
2577 3253 0
2578 3253 0
2579 3253 0
2580 3253 0
2941 3253 -0.70516692496269695
2942 3253 -0
2943 3253 -0
2944 3253 -0
2945 3253 -0
2946 3253 -0
1411 3254 0
1412 3254 0.016643240039254284
1413 3254 0
1414 3254 0
1415 3254 0
1416 3254 0
1417 3254 -0
1418 3254 -0.016643240039254253
1419 3254 -0
1420 3254 -0
1421 3254 -0
1422 3254 -0
2575 3254 0
2576 3254 0.70516692496269695
2577 3254 0
2578 3254 0
2579 3254 0
2580 3254 0
2941 3254 -0
2942 3254 -0.70516692496269695
2943 3254 -0
2944 3254 -0
2945 3254 -0
2946 3254 -0
1411 3255 0
1412 3255 0
1413 3255 0.016624127736337181
1414 3255 0
1415 3255 0
1416 3255 0
1417 3255 -0
1418 3255 -0
1419 3255 -0.016585933143231667
1420 3255 -0
1421 3255 -0
1422 3255 3.8067926667141391e-05
2575 3255 0
2576 3255 0
2577 3255 0.70516692496269695
2578 3255 0
2579 3255 0
2580 3255 0
2941 3255 -0
2942 3255 -0
2943 3255 -0.70516692496269695
2944 3255 -0
2945 3255 -0
2946 3255 -0
1411 3256 0
1412 3256 0
1413 3256 0
1414 3256 0.49726039206134737
1415 3256 0
1416 3256 0
1417 3256 -0.99668365524927938
1418 3256 0.067678768813813697
1419 3256 -0
1420 3256 -0.49611791657971721
1421 3256 0.067532010077255816
1422 3256 -0
2575 3256 0
2576 3256 0
2577 3256 0
2578 3256 0.70516692496269695
2579 3256 0
2580 3256 0
2941 3256 -0
2942 3256 -0
2943 3256 -0
2944 3256 -0.70516692496269695
2945 3256 -0
2946 3256 -0
1411 3257 0
1412 3257 0
1413 3257 0
1414 3257 0
1415 3257 0.49840543371991375
1416 3257 0
1417 3257 -0.067601049744234934
1418 3257 -0.99553485319114277
1419 3257 -0
1420 3257 -0.067376861357772475
1421 3257 -0.49382500867881207
1422 3257 -0
2575 3257 0
2576 3257 0
2577 3257 0
2578 3257 0
2579 3257 0.70516692496269695
2580 3257 0
2941 3257 -0
2942 3257 -0
2943 3257 -0
2944 3257 -0
2945 3257 -0.70516692496269695
2946 3257 -0
1411 3258 0
1412 3258 0
1413 3258 0
1414 3258 0
1415 3258 0
1416 3258 0.49726039206134764
1417 3258 -0
1418 3258 -0
1419 3258 -0.99668365524927816
1420 3258 -0
1421 3258 -0
1422 3258 -0.49611791657971638
2575 3258 0
2576 3258 0
2577 3258 0
2578 3258 0
2579 3258 0
2580 3258 0.70516692496269695
2941 3258 -0
2942 3258 -0
2943 3258 -0
2944 3258 -0
2945 3258 -0
2946 3258 -0.70516692496269695
1417 3259 0.01662412773633716
1418 3259 0
1419 3259 0
1420 3259 0
1421 3259 0
1422 3259 0
1423 3259 -0.016738711515653665
1424 3259 5.1859358331731552e-06
1425 3259 -0
1426 3259 -0.00011420378000142444
1427 3259 7.763820444667679e-06
1428 3259 -0
2581 3259 0.70516692496269695
2582 3259 0
2583 3259 0
2584 3259 0
2585 3259 0
2586 3259 0
2947 3259 -0.70516692496269695
2948 3259 -0
2949 3259 -0
2950 3259 -0
2951 3259 -0
2952 3259 -0
1417 3260 0
1418 3260 0.016643240039254284
1419 3260 0
1420 3260 0
1421 3260 0
1422 3260 0
1423 3260 -0
1424 3260 -0.016643240039254253
1425 3260 -0
1426 3260 -0
1427 3260 -0
1428 3260 -0
2581 3260 0
2582 3260 0.70516692496269695
2583 3260 0
2584 3260 0
2585 3260 0
2586 3260 0
2947 3260 -0
2948 3260 -0.70516692496269695
2949 3260 -0
2950 3260 -0
2951 3260 -0
2952 3260 -0
1417 3261 0
1418 3261 0
1419 3261 0.016624127736337181
1420 3261 0
1421 3261 0
1422 3261 0
1423 3261 -0
1424 3261 -0
1425 3261 -0.016585933143231667
1426 3261 -0
1427 3261 -0
1428 3261 3.8067926667141391e-05
2581 3261 0
2582 3261 0
2583 3261 0.70516692496269695
2584 3261 0
2585 3261 0
2586 3261 0
2947 3261 -0
2948 3261 -0
2949 3261 -0.70516692496269695
2950 3261 -0
2951 3261 -0
2952 3261 -0
1417 3262 0
1418 3262 0
1419 3262 0
1420 3262 0.49726039206134737
1421 3262 0
1422 3262 0
1423 3262 -0.99668365524927938
1424 3262 0.067678768813813697
1425 3262 -0
1426 3262 -0.49611791657971721
1427 3262 0.067532010077255816
1428 3262 -0
2581 3262 0
2582 3262 0
2583 3262 0
2584 3262 0.70516692496269695
2585 3262 0
2586 3262 0
2947 3262 -0
2948 3262 -0
2949 3262 -0
2950 3262 -0.70516692496269695
2951 3262 -0
2952 3262 -0
1417 3263 0
1418 3263 0
1419 3263 0
1420 3263 0
1421 3263 0.49840543371991375
1422 3263 0
1423 3263 -0.067601049744234934
1424 3263 -0.99553485319114277
1425 3263 -0
1426 3263 -0.067376861357772475
1427 3263 -0.49382500867881207
1428 3263 -0
2581 3263 0
2582 3263 0
2583 3263 0
2584 3263 0
2585 3263 0.70516692496269695
2586 3263 0
2947 3263 -0
2948 3263 -0
2949 3263 -0
2950 3263 -0
2951 3263 -0.70516692496269695
2952 3263 -0
1417 3264 0
1418 3264 0
1419 3264 0
1420 3264 0
1421 3264 0
1422 3264 0.49726039206134764
1423 3264 -0
1424 3264 -0
1425 3264 -0.99668365524927816
1426 3264 -0
1427 3264 -0
1428 3264 -0.49611791657971638
2581 3264 0
2582 3264 0
2583 3264 0
2584 3264 0
2585 3264 0
2586 3264 0.70516692496269695
2947 3264 -0
2948 3264 -0
2949 3264 -0
2950 3264 -0
2951 3264 -0
2952 3264 -0.70516692496269695
139 3265 0.01662412773633716
140 3265 0
141 3265 0
142 3265 0
143 3265 0
144 3265 0
145 3265 -0.016738711515653665
146 3265 5.1859358331731552e-06
147 3265 -0
148 3265 -0.00011420378000142444
149 3265 7.763820444667679e-06
150 3265 -0
1849 3265 -0.70516692496269695
1850 3265 -0
1851 3265 -0
1852 3265 -0
1853 3265 -0
1854 3265 -0
2947 3265 0.70516692496269695
2948 3265 0
2949 3265 0
2950 3265 0
2951 3265 0
2952 3265 0
139 3266 0
140 3266 0.016643240039254284
141 3266 0
142 3266 0
143 3266 0
144 3266 0
145 3266 -0
146 3266 -0.016643240039254253
147 3266 -0
148 3266 -0
149 3266 -0
150 3266 -0
1849 3266 -0
1850 3266 -0.70516692496269695
1851 3266 -0
1852 3266 -0
1853 3266 -0
1854 3266 -0
2947 3266 0
2948 3266 0.70516692496269695
2949 3266 0
2950 3266 0
2951 3266 0
2952 3266 0
139 3267 0
140 3267 0
141 3267 0.016624127736337181
142 3267 0
143 3267 0
144 3267 0
145 3267 -0
146 3267 -0
147 3267 -0.016585933143231667
148 3267 -0
149 3267 -0
150 3267 3.8067926667141391e-05
1849 3267 -0
1850 3267 -0
1851 3267 -0.70516692496269695
1852 3267 -0
1853 3267 -0
1854 3267 -0
2947 3267 0
2948 3267 0
2949 3267 0.70516692496269695
2950 3267 0
2951 3267 0
2952 3267 0
139 3268 0
140 3268 0
141 3268 0
142 3268 0.49726039206134737
143 3268 0
144 3268 0
145 3268 -0.99668365524927938
146 3268 0.067678768813813697
147 3268 -0
148 3268 -0.49611791657971721
149 3268 0.067532010077255816
150 3268 -0
1849 3268 -0
1850 3268 -0
1851 3268 -0
1852 3268 -0.70516692496269695
1853 3268 -0
1854 3268 -0
2947 3268 0
2948 3268 0
2949 3268 0
2950 3268 0.70516692496269695
2951 3268 0
2952 3268 0
139 3269 0
140 3269 0
141 3269 0
142 3269 0
143 3269 0.49840543371991375
144 3269 0
145 3269 -0.067601049744234934
146 3269 -0.99553485319114277
147 3269 -0
148 3269 -0.067376861357772475
149 3269 -0.49382500867881207
150 3269 -0
1849 3269 -0
1850 3269 -0
1851 3269 -0
1852 3269 -0
1853 3269 -0.70516692496269695
1854 3269 -0
2947 3269 0
2948 3269 0
2949 3269 0
2950 3269 0
2951 3269 0.70516692496269695
2952 3269 0
139 3270 0
140 3270 0
141 3270 0
142 3270 0
143 3270 0
144 3270 0.49726039206134764
145 3270 -0
146 3270 -0
147 3270 -0.99668365524927816
148 3270 -0
149 3270 -0
150 3270 -0.49611791657971638
1849 3270 -0
1850 3270 -0
1851 3270 -0
1852 3270 -0
1853 3270 -0
1854 3270 -0.70516692496269695
2947 3270 0
2948 3270 0
2949 3270 0
2950 3270 0
2951 3270 0
2952 3270 0.70516692496269695
145 3271 0.01662412773633716
146 3271 0
147 3271 0
148 3271 0
149 3271 0
150 3271 0
151 3271 -0.016738711515653665
152 3271 5.1859358331731552e-06
153 3271 -0
154 3271 -0.00011420378000142444
155 3271 7.763820444667679e-06
156 3271 -0
1855 3271 -0.70516692496269695
1856 3271 -0
1857 3271 -0
1858 3271 -0
1859 3271 -0
1860 3271 -0
2953 3271 0.70516692496269695
2954 3271 0
2955 3271 0
2956 3271 0
2957 3271 0
2958 3271 0
145 3272 0
146 3272 0.016643240039254284
147 3272 0
148 3272 0
149 3272 0
150 3272 0
151 3272 -0
152 3272 -0.016643240039254253
153 3272 -0
154 3272 -0
155 3272 -0
156 3272 -0
1855 3272 -0
1856 3272 -0.70516692496269695
1857 3272 -0
1858 3272 -0
1859 3272 -0
1860 3272 -0
2953 3272 0
2954 3272 0.70516692496269695
2955 3272 0
2956 3272 0
2957 3272 0
2958 3272 0
145 3273 0
146 3273 0
147 3273 0.016624127736337181
148 3273 0
149 3273 0
150 3273 0
151 3273 -0
152 3273 -0
153 3273 -0.016585933143231667
154 3273 -0
155 3273 -0
156 3273 3.8067926667141391e-05
1855 3273 -0
1856 3273 -0
1857 3273 -0.70516692496269695
1858 3273 -0
1859 3273 -0
1860 3273 -0
2953 3273 0
2954 3273 0
2955 3273 0.70516692496269695
2956 3273 0
2957 3273 0
2958 3273 0
145 3274 0
146 3274 0
147 3274 0
148 3274 0.49726039206134737
149 3274 0
150 3274 0
151 3274 -0.99668365524927938
152 3274 0.067678768813813697
153 3274 -0
154 3274 -0.49611791657971721
155 3274 0.067532010077255816
156 3274 -0
1855 3274 -0
1856 3274 -0
1857 3274 -0
1858 3274 -0.70516692496269695
1859 3274 -0
1860 3274 -0
2953 3274 0
2954 3274 0
2955 3274 0
2956 3274 0.70516692496269695
2957 3274 0
2958 3274 0
145 3275 0
146 3275 0
147 3275 0
148 3275 0
149 3275 0.49840543371991375
150 3275 0
151 3275 -0.067601049744234934
152 3275 -0.99553485319114277
153 3275 -0
154 3275 -0.067376861357772475
155 3275 -0.49382500867881207
156 3275 -0
1855 3275 -0
1856 3275 -0
1857 3275 -0
1858 3275 -0
1859 3275 -0.70516692496269695
1860 3275 -0
2953 3275 0
2954 3275 0
2955 3275 0
2956 3275 0
2957 3275 0.70516692496269695
2958 3275 0
145 3276 0
146 3276 0
147 3276 0
148 3276 0
149 3276 0
150 3276 0.49726039206134764
151 3276 -0
152 3276 -0
153 3276 -0.99668365524927816
154 3276 -0
155 3276 -0
156 3276 -0.49611791657971638
1855 3276 -0
1856 3276 -0
1857 3276 -0
1858 3276 -0
1859 3276 -0
1860 3276 -0.70516692496269695
2953 3276 0
2954 3276 0
2955 3276 0
2956 3276 0
2957 3276 0
2958 3276 0.70516692496269695
991 3277 0.01662412773633716
992 3277 0
993 3277 0
994 3277 0
995 3277 0
996 3277 0
997 3277 -0.016738711515653665
998 3277 5.1859358331731552e-06
999 3277 -0
1000 3277 -0.00011420378000142444
1001 3277 7.763820444667679e-06
1002 3277 -0
2215 3277 0.70516692496269695
2216 3277 0
2217 3277 0
2218 3277 0
2219 3277 0
2220 3277 0
2581 3277 -0.70516692496269695
2582 3277 -0
2583 3277 -0
2584 3277 -0
2585 3277 -0
2586 3277 -0
991 3278 0
992 3278 0.016643240039254284
993 3278 0
994 3278 0
995 3278 0
996 3278 0
997 3278 -0
998 3278 -0.016643240039254253
999 3278 -0
1000 3278 -0
1001 3278 -0
1002 3278 -0
2215 3278 0
2216 3278 0.70516692496269695
2217 3278 0
2218 3278 0
2219 3278 0
2220 3278 0
2581 3278 -0
2582 3278 -0.70516692496269695
2583 3278 -0
2584 3278 -0
2585 3278 -0
2586 3278 -0
991 3279 0
992 3279 0
993 3279 0.016624127736337181
994 3279 0
995 3279 0
996 3279 0
997 3279 -0
998 3279 -0
999 3279 -0.016585933143231667
1000 3279 -0
1001 3279 -0
1002 3279 3.8067926667141391e-05
2215 3279 0
2216 3279 0
2217 3279 0.70516692496269695
2218 3279 0
2219 3279 0
2220 3279 0
2581 3279 -0
2582 3279 -0
2583 3279 -0.70516692496269695
2584 3279 -0
2585 3279 -0
2586 3279 -0
991 3280 0
992 3280 0
993 3280 0
994 3280 0.49726039206134737
995 3280 0
996 3280 0
997 3280 -0.99668365524927938
998 3280 0.067678768813813697
999 3280 -0
1000 3280 -0.49611791657971721
1001 3280 0.067532010077255816
1002 3280 -0
2215 3280 0
2216 3280 0
2217 3280 0
2218 3280 0.70516692496269695
2219 3280 0
2220 3280 0
2581 3280 -0
2582 3280 -0
2583 3280 -0
2584 3280 -0.70516692496269695
2585 3280 -0
2586 3280 -0
991 3281 0
992 3281 0
993 3281 0
994 3281 0
995 3281 0.49840543371991375
996 3281 0
997 3281 -0.067601049744234934
998 3281 -0.99553485319114277
999 3281 -0
1000 3281 -0.067376861357772475
1001 3281 -0.49382500867881207
1002 3281 -0
2215 3281 0
2216 3281 0
2217 3281 0
2218 3281 0
2219 3281 0.70516692496269695
2220 3281 0
2581 3281 -0
2582 3281 -0
2583 3281 -0
2584 3281 -0
2585 3281 -0.70516692496269695
2586 3281 -0
991 3282 0
992 3282 0
993 3282 0
994 3282 0
995 3282 0
996 3282 0.49726039206134764
997 3282 -0
998 3282 -0
999 3282 -0.99668365524927816
1000 3282 -0
1001 3282 -0
1002 3282 -0.49611791657971638
2215 3282 0
2216 3282 0
2217 3282 0
2218 3282 0
2219 3282 0
2220 3282 0.70516692496269695
2581 3282 -0
2582 3282 -0
2583 3282 -0
2584 3282 -0
2585 3282 -0
2586 3282 -0.70516692496269695
997 3283 0.01662412773633716
998 3283 0
999 3283 0
1000 3283 0
1001 3283 0
1002 3283 0
1003 3283 -0.016738711515653665
1004 3283 5.1859358331731552e-06
1005 3283 -0
1006 3283 -0.00011420378000142444
1007 3283 7.763820444667679e-06
1008 3283 -0
2221 3283 0.70516692496269695
2222 3283 0
2223 3283 0
2224 3283 0
2225 3283 0
2226 3283 0
2587 3283 -0.70516692496269695
2588 3283 -0
2589 3283 -0
2590 3283 -0
2591 3283 -0
2592 3283 -0
997 3284 0
998 3284 0.016643240039254284
999 3284 0
1000 3284 0
1001 3284 0
1002 3284 0
1003 3284 -0
1004 3284 -0.016643240039254253
1005 3284 -0
1006 3284 -0
1007 3284 -0
1008 3284 -0
2221 3284 0
2222 3284 0.70516692496269695
2223 3284 0
2224 3284 0
2225 3284 0
2226 3284 0
2587 3284 -0
2588 3284 -0.70516692496269695
2589 3284 -0
2590 3284 -0
2591 3284 -0
2592 3284 -0
997 3285 0
998 3285 0
999 3285 0.016624127736337181
1000 3285 0
1001 3285 0
1002 3285 0
1003 3285 -0
1004 3285 -0
1005 3285 -0.016585933143231667
1006 3285 -0
1007 3285 -0
1008 3285 3.8067926667141391e-05
2221 3285 0
2222 3285 0
2223 3285 0.70516692496269695
2224 3285 0
2225 3285 0
2226 3285 0
2587 3285 -0
2588 3285 -0
2589 3285 -0.70516692496269695
2590 3285 -0
2591 3285 -0
2592 3285 -0
997 3286 0
998 3286 0
999 3286 0
1000 3286 0.49726039206134737
1001 3286 0
1002 3286 0
1003 3286 -0.99668365524927938
1004 3286 0.067678768813813697
1005 3286 -0
1006 3286 -0.49611791657971721
1007 3286 0.067532010077255816
1008 3286 -0
2221 3286 0
2222 3286 0
2223 3286 0
2224 3286 0.70516692496269695
2225 3286 0
2226 3286 0
2587 3286 -0
2588 3286 -0
2589 3286 -0
2590 3286 -0.70516692496269695
2591 3286 -0
2592 3286 -0
997 3287 0
998 3287 0
999 3287 0
1000 3287 0
1001 3287 0.49840543371991375
1002 3287 0
1003 3287 -0.067601049744234934
1004 3287 -0.99553485319114277
1005 3287 -0
1006 3287 -0.067376861357772475
1007 3287 -0.49382500867881207
1008 3287 -0
2221 3287 0
2222 3287 0
2223 3287 0
2224 3287 0
2225 3287 0.70516692496269695
2226 3287 0
2587 3287 -0
2588 3287 -0
2589 3287 -0
2590 3287 -0
2591 3287 -0.70516692496269695
2592 3287 -0
997 3288 0
998 3288 0
999 3288 0
1000 3288 0
1001 3288 0
1002 3288 0.49726039206134764
1003 3288 -0
1004 3288 -0
1005 3288 -0.99668365524927816
1006 3288 -0
1007 3288 -0
1008 3288 -0.49611791657971638
2221 3288 0
2222 3288 0
2223 3288 0
2224 3288 0
2225 3288 0
2226 3288 0.70516692496269695
2587 3288 -0
2588 3288 -0
2589 3288 -0
2590 3288 -0
2591 3288 -0
2592 3288 -0.70516692496269695
1423 3289 0.01662412773633716
1424 3289 0
1425 3289 0
1426 3289 0
1427 3289 0
1428 3289 0
1429 3289 -0.016738711515653665
1430 3289 5.1859358331731552e-06
1431 3289 -0
1432 3289 -0.00011420378000142444
1433 3289 7.763820444667679e-06
1434 3289 -0
2587 3289 0.70516692496269695
2588 3289 0
2589 3289 0
2590 3289 0
2591 3289 0
2592 3289 0
2953 3289 -0.70516692496269695
2954 3289 -0
2955 3289 -0
2956 3289 -0
2957 3289 -0
2958 3289 -0
1423 3290 0
1424 3290 0.016643240039254284
1425 3290 0
1426 3290 0
1427 3290 0
1428 3290 0
1429 3290 -0
1430 3290 -0.016643240039254253
1431 3290 -0
1432 3290 -0
1433 3290 -0
1434 3290 -0
2587 3290 0
2588 3290 0.70516692496269695
2589 3290 0
2590 3290 0
2591 3290 0
2592 3290 0
2953 3290 -0
2954 3290 -0.70516692496269695
2955 3290 -0
2956 3290 -0
2957 3290 -0
2958 3290 -0
1423 3291 0
1424 3291 0
1425 3291 0.016624127736337181
1426 3291 0
1427 3291 0
1428 3291 0
1429 3291 -0
1430 3291 -0
1431 3291 -0.016585933143231667
1432 3291 -0
1433 3291 -0
1434 3291 3.8067926667141391e-05
2587 3291 0
2588 3291 0
2589 3291 0.70516692496269695
2590 3291 0
2591 3291 0
2592 3291 0
2953 3291 -0
2954 3291 -0
2955 3291 -0.70516692496269695
2956 3291 -0
2957 3291 -0
2958 3291 -0
1423 3292 0
1424 3292 0
1425 3292 0
1426 3292 0.49726039206134737
1427 3292 0
1428 3292 0
1429 3292 -0.99668365524927938
1430 3292 0.067678768813813697
1431 3292 -0
1432 3292 -0.49611791657971721
1433 3292 0.067532010077255816
1434 3292 -0
2587 3292 0
2588 3292 0
2589 3292 0
2590 3292 0.70516692496269695
2591 3292 0
2592 3292 0
2953 3292 -0
2954 3292 -0
2955 3292 -0
2956 3292 -0.70516692496269695
2957 3292 -0
2958 3292 -0
1423 3293 0
1424 3293 0
1425 3293 0
1426 3293 0
1427 3293 0.49840543371991375
1428 3293 0
1429 3293 -0.067601049744234934
1430 3293 -0.99553485319114277
1431 3293 -0
1432 3293 -0.067376861357772475
1433 3293 -0.49382500867881207
1434 3293 -0
2587 3293 0
2588 3293 0
2589 3293 0
2590 3293 0
2591 3293 0.70516692496269695
2592 3293 0
2953 3293 -0
2954 3293 -0
2955 3293 -0
2956 3293 -0
2957 3293 -0.70516692496269695
2958 3293 -0
1423 3294 0
1424 3294 0
1425 3294 0
1426 3294 0
1427 3294 0
1428 3294 0.49726039206134764
1429 3294 -0
1430 3294 -0
1431 3294 -0.99668365524927816
1432 3294 -0
1433 3294 -0
1434 3294 -0.49611791657971638
2587 3294 0
2588 3294 0
2589 3294 0
2590 3294 0
2591 3294 0
2592 3294 0.70516692496269695
2953 3294 -0
2954 3294 -0
2955 3294 -0
2956 3294 -0
2957 3294 -0
2958 3294 -0.70516692496269695
1429 3295 0.01662412773633716
1430 3295 0
1431 3295 0
1432 3295 0
1433 3295 0
1434 3295 0
1435 3295 -0.016738711515653665
1436 3295 5.1859358331731552e-06
1437 3295 -0
1438 3295 -0.00011420378000142444
1439 3295 7.763820444667679e-06
1440 3295 -0
2593 3295 0.70516692496269695
2594 3295 0
2595 3295 0
2596 3295 0
2597 3295 0
2598 3295 0
2959 3295 -0.70516692496269695
2960 3295 -0
2961 3295 -0
2962 3295 -0
2963 3295 -0
2964 3295 -0
1429 3296 0
1430 3296 0.016643240039254284
1431 3296 0
1432 3296 0
1433 3296 0
1434 3296 0
1435 3296 -0
1436 3296 -0.016643240039254253
1437 3296 -0
1438 3296 -0
1439 3296 -0
1440 3296 -0
2593 3296 0
2594 3296 0.70516692496269695
2595 3296 0
2596 3296 0
2597 3296 0
2598 3296 0
2959 3296 -0
2960 3296 -0.70516692496269695
2961 3296 -0
2962 3296 -0
2963 3296 -0
2964 3296 -0
1429 3297 0
1430 3297 0
1431 3297 0.016624127736337181
1432 3297 0
1433 3297 0
1434 3297 0
1435 3297 -0
1436 3297 -0
1437 3297 -0.016585933143231667
1438 3297 -0
1439 3297 -0
1440 3297 3.8067926667141391e-05
2593 3297 0
2594 3297 0
2595 3297 0.70516692496269695
2596 3297 0
2597 3297 0
2598 3297 0
2959 3297 -0
2960 3297 -0
2961 3297 -0.70516692496269695
2962 3297 -0
2963 3297 -0
2964 3297 -0
1429 3298 0
1430 3298 0
1431 3298 0
1432 3298 0.49726039206134737
1433 3298 0
1434 3298 0
1435 3298 -0.99668365524927938
1436 3298 0.067678768813813697
1437 3298 -0
1438 3298 -0.49611791657971721
1439 3298 0.067532010077255816
1440 3298 -0
2593 3298 0
2594 3298 0
2595 3298 0
2596 3298 0.70516692496269695
2597 3298 0
2598 3298 0
2959 3298 -0
2960 3298 -0
2961 3298 -0
2962 3298 -0.70516692496269695
2963 3298 -0
2964 3298 -0
1429 3299 0
1430 3299 0
1431 3299 0
1432 3299 0
1433 3299 0.49840543371991375
1434 3299 0
1435 3299 -0.067601049744234934
1436 3299 -0.99553485319114277
1437 3299 -0
1438 3299 -0.067376861357772475
1439 3299 -0.49382500867881207
1440 3299 -0
2593 3299 0
2594 3299 0
2595 3299 0
2596 3299 0
2597 3299 0.70516692496269695
2598 3299 0
2959 3299 -0
2960 3299 -0
2961 3299 -0
2962 3299 -0
2963 3299 -0.70516692496269695
2964 3299 -0
1429 3300 0
1430 3300 0
1431 3300 0
1432 3300 0
1433 3300 0
1434 3300 0.49726039206134764
1435 3300 -0
1436 3300 -0
1437 3300 -0.99668365524927816
1438 3300 -0
1439 3300 -0
1440 3300 -0.49611791657971638
2593 3300 0
2594 3300 0
2595 3300 0
2596 3300 0
2597 3300 0
2598 3300 0.70516692496269695
2959 3300 -0
2960 3300 -0
2961 3300 -0
2962 3300 -0
2963 3300 -0
2964 3300 -0.70516692496269695
571 3301 0.01662412773633716
572 3301 0
573 3301 0
574 3301 0
575 3301 0
576 3301 0
577 3301 -0.016738711515653665
578 3301 5.1859358331731552e-06
579 3301 -0
580 3301 -0.00011420378000142444
581 3301 7.763820444667679e-06
582 3301 -0
1855 3301 0.70516692496269695
1856 3301 0
1857 3301 0
1858 3301 0
1859 3301 0
1860 3301 0
2221 3301 -0.70516692496269695
2222 3301 -0
2223 3301 -0
2224 3301 -0
2225 3301 -0
2226 3301 -0
571 3302 0
572 3302 0.016643240039254284
573 3302 0
574 3302 0
575 3302 0
576 3302 0
577 3302 -0
578 3302 -0.016643240039254253
579 3302 -0
580 3302 -0
581 3302 -0
582 3302 -0
1855 3302 0
1856 3302 0.70516692496269695
1857 3302 0
1858 3302 0
1859 3302 0
1860 3302 0
2221 3302 -0
2222 3302 -0.70516692496269695
2223 3302 -0
2224 3302 -0
2225 3302 -0
2226 3302 -0
571 3303 0
572 3303 0
573 3303 0.016624127736337181
574 3303 0
575 3303 0
576 3303 0
577 3303 -0
578 3303 -0
579 3303 -0.016585933143231667
580 3303 -0
581 3303 -0
582 3303 3.8067926667141391e-05
1855 3303 0
1856 3303 0
1857 3303 0.70516692496269695
1858 3303 0
1859 3303 0
1860 3303 0
2221 3303 -0
2222 3303 -0
2223 3303 -0.70516692496269695
2224 3303 -0
2225 3303 -0
2226 3303 -0
571 3304 0
572 3304 0
573 3304 0
574 3304 0.49726039206134737
575 3304 0
576 3304 0
577 3304 -0.99668365524927938
578 3304 0.067678768813813697
579 3304 -0
580 3304 -0.49611791657971721
581 3304 0.067532010077255816
582 3304 -0
1855 3304 0
1856 3304 0
1857 3304 0
1858 3304 0.70516692496269695
1859 3304 0
1860 3304 0
2221 3304 -0
2222 3304 -0
2223 3304 -0
2224 3304 -0.70516692496269695
2225 3304 -0
2226 3304 -0
571 3305 0
572 3305 0
573 3305 0
574 3305 0
575 3305 0.49840543371991375
576 3305 0
577 3305 -0.067601049744234934
578 3305 -0.99553485319114277
579 3305 -0
580 3305 -0.067376861357772475
581 3305 -0.49382500867881207
582 3305 -0
1855 3305 0
1856 3305 0
1857 3305 0
1858 3305 0
1859 3305 0.70516692496269695
1860 3305 0
2221 3305 -0
2222 3305 -0
2223 3305 -0
2224 3305 -0
2225 3305 -0.70516692496269695
2226 3305 -0
571 3306 0
572 3306 0
573 3306 0
574 3306 0
575 3306 0
576 3306 0.49726039206134764
577 3306 -0
578 3306 -0
579 3306 -0.99668365524927816
580 3306 -0
581 3306 -0
582 3306 -0.49611791657971638
1855 3306 0
1856 3306 0
1857 3306 0
1858 3306 0
1859 3306 0
1860 3306 0.70516692496269695
2221 3306 -0
2222 3306 -0
2223 3306 -0
2224 3306 -0
2225 3306 -0
2226 3306 -0.70516692496269695
577 3307 0.01662412773633716
578 3307 0
579 3307 0
580 3307 0
581 3307 0
582 3307 0
583 3307 -0.016738711515653665
584 3307 5.1859358331731552e-06
585 3307 -0
586 3307 -0.00011420378000142444
587 3307 7.763820444667679e-06
588 3307 -0
1861 3307 0.70516692496269695
1862 3307 0
1863 3307 0
1864 3307 0
1865 3307 0
1866 3307 0
2227 3307 -0.70516692496269695
2228 3307 -0
2229 3307 -0
2230 3307 -0
2231 3307 -0
2232 3307 -0
577 3308 0
578 3308 0.016643240039254284
579 3308 0
580 3308 0
581 3308 0
582 3308 0
583 3308 -0
584 3308 -0.016643240039254253
585 3308 -0
586 3308 -0
587 3308 -0
588 3308 -0
1861 3308 0
1862 3308 0.70516692496269695
1863 3308 0
1864 3308 0
1865 3308 0
1866 3308 0
2227 3308 -0
2228 3308 -0.70516692496269695
2229 3308 -0
2230 3308 -0
2231 3308 -0
2232 3308 -0
577 3309 0
578 3309 0
579 3309 0.016624127736337181
580 3309 0
581 3309 0
582 3309 0
583 3309 -0
584 3309 -0
585 3309 -0.016585933143231667
586 3309 -0
587 3309 -0
588 3309 3.8067926667141391e-05
1861 3309 0
1862 3309 0
1863 3309 0.70516692496269695
1864 3309 0
1865 3309 0
1866 3309 0
2227 3309 -0
2228 3309 -0
2229 3309 -0.70516692496269695
2230 3309 -0
2231 3309 -0
2232 3309 -0
577 3310 0
578 3310 0
579 3310 0
580 3310 0.49726039206134737
581 3310 0
582 3310 0
583 3310 -0.99668365524927938
584 3310 0.067678768813813697
585 3310 -0
586 3310 -0.49611791657971721
587 3310 0.067532010077255816
588 3310 -0
1861 3310 0
1862 3310 0
1863 3310 0
1864 3310 0.70516692496269695
1865 3310 0
1866 3310 0
2227 3310 -0
2228 3310 -0
2229 3310 -0
2230 3310 -0.70516692496269695
2231 3310 -0
2232 3310 -0
577 3311 0
578 3311 0
579 3311 0
580 3311 0
581 3311 0.49840543371991375
582 3311 0
583 3311 -0.067601049744234934
584 3311 -0.99553485319114277
585 3311 -0
586 3311 -0.067376861357772475
587 3311 -0.49382500867881207
588 3311 -0
1861 3311 0
1862 3311 0
1863 3311 0
1864 3311 0
1865 3311 0.70516692496269695
1866 3311 0
2227 3311 -0
2228 3311 -0
2229 3311 -0
2230 3311 -0
2231 3311 -0.70516692496269695
2232 3311 -0
577 3312 0
578 3312 0
579 3312 0
580 3312 0
581 3312 0
582 3312 0.49726039206134764
583 3312 -0
584 3312 -0
585 3312 -0.99668365524927816
586 3312 -0
587 3312 -0
588 3312 -0.49611791657971638
1861 3312 0
1862 3312 0
1863 3312 0
1864 3312 0
1865 3312 0
1866 3312 0.70516692496269695
2227 3312 -0
2228 3312 -0
2229 3312 -0
2230 3312 -0
2231 3312 -0
2232 3312 -0.70516692496269695
1003 3313 0.01662412773633716
1004 3313 0
1005 3313 0
1006 3313 0
1007 3313 0
1008 3313 0
1009 3313 -0.016738711515653665
1010 3313 5.1859358331731552e-06
1011 3313 -0
1012 3313 -0.00011420378000142444
1013 3313 7.763820444667679e-06
1014 3313 -0
2227 3313 0.70516692496269695
2228 3313 0
2229 3313 0
2230 3313 0
2231 3313 0
2232 3313 0
2593 3313 -0.70516692496269695
2594 3313 -0
2595 3313 -0
2596 3313 -0
2597 3313 -0
2598 3313 -0
1003 3314 0
1004 3314 0.016643240039254284
1005 3314 0
1006 3314 0
1007 3314 0
1008 3314 0
1009 3314 -0
1010 3314 -0.016643240039254253
1011 3314 -0
1012 3314 -0
1013 3314 -0
1014 3314 -0
2227 3314 0
2228 3314 0.70516692496269695
2229 3314 0
2230 3314 0
2231 3314 0
2232 3314 0
2593 3314 -0
2594 3314 -0.70516692496269695
2595 3314 -0
2596 3314 -0
2597 3314 -0
2598 3314 -0
1003 3315 0
1004 3315 0
1005 3315 0.016624127736337181
1006 3315 0
1007 3315 0
1008 3315 0
1009 3315 -0
1010 3315 -0
1011 3315 -0.016585933143231667
1012 3315 -0
1013 3315 -0
1014 3315 3.8067926667141391e-05
2227 3315 0
2228 3315 0
2229 3315 0.70516692496269695
2230 3315 0
2231 3315 0
2232 3315 0
2593 3315 -0
2594 3315 -0
2595 3315 -0.70516692496269695
2596 3315 -0
2597 3315 -0
2598 3315 -0
1003 3316 0
1004 3316 0
1005 3316 0
1006 3316 0.49726039206134737
1007 3316 0
1008 3316 0
1009 3316 -0.99668365524927938
1010 3316 0.067678768813813697
1011 3316 -0
1012 3316 -0.49611791657971721
1013 3316 0.067532010077255816
1014 3316 -0
2227 3316 0
2228 3316 0
2229 3316 0
2230 3316 0.70516692496269695
2231 3316 0
2232 3316 0
2593 3316 -0
2594 3316 -0
2595 3316 -0
2596 3316 -0.70516692496269695
2597 3316 -0
2598 3316 -0
1003 3317 0
1004 3317 0
1005 3317 0
1006 3317 0
1007 3317 0.49840543371991375
1008 3317 0
1009 3317 -0.067601049744234934
1010 3317 -0.99553485319114277
1011 3317 -0
1012 3317 -0.067376861357772475
1013 3317 -0.49382500867881207
1014 3317 -0
2227 3317 0
2228 3317 0
2229 3317 0
2230 3317 0
2231 3317 0.70516692496269695
2232 3317 0
2593 3317 -0
2594 3317 -0
2595 3317 -0
2596 3317 -0
2597 3317 -0.70516692496269695
2598 3317 -0
1003 3318 0
1004 3318 0
1005 3318 0
1006 3318 0
1007 3318 0
1008 3318 0.49726039206134764
1009 3318 -0
1010 3318 -0
1011 3318 -0.99668365524927816
1012 3318 -0
1013 3318 -0
1014 3318 -0.49611791657971638
2227 3318 0
2228 3318 0
2229 3318 0
2230 3318 0
2231 3318 0
2232 3318 0.70516692496269695
2593 3318 -0
2594 3318 -0
2595 3318 -0
2596 3318 -0
2597 3318 -0
2598 3318 -0.70516692496269695
1009 3319 0.01662412773633716
1010 3319 0
1011 3319 0
1012 3319 0
1013 3319 0
1014 3319 0
1015 3319 -0.016738711515653665
1016 3319 5.1859358331731552e-06
1017 3319 -0
1018 3319 -0.00011420378000142444
1019 3319 7.763820444667679e-06
1020 3319 -0
2233 3319 0.70516692496269695
2234 3319 0
2235 3319 0
2236 3319 0
2237 3319 0
2238 3319 0
2599 3319 -0.70516692496269695
2600 3319 -0
2601 3319 -0
2602 3319 -0
2603 3319 -0
2604 3319 -0
1009 3320 0
1010 3320 0.016643240039254284
1011 3320 0
1012 3320 0
1013 3320 0
1014 3320 0
1015 3320 -0
1016 3320 -0.016643240039254253
1017 3320 -0
1018 3320 -0
1019 3320 -0
1020 3320 -0
2233 3320 0
2234 3320 0.70516692496269695
2235 3320 0
2236 3320 0
2237 3320 0
2238 3320 0
2599 3320 -0
2600 3320 -0.70516692496269695
2601 3320 -0
2602 3320 -0
2603 3320 -0
2604 3320 -0
1009 3321 0
1010 3321 0
1011 3321 0.016624127736337181
1012 3321 0
1013 3321 0
1014 3321 0
1015 3321 -0
1016 3321 -0
1017 3321 -0.016585933143231667
1018 3321 -0
1019 3321 -0
1020 3321 3.8067926667141391e-05
2233 3321 0
2234 3321 0
2235 3321 0.70516692496269695
2236 3321 0
2237 3321 0
2238 3321 0
2599 3321 -0
2600 3321 -0
2601 3321 -0.70516692496269695
2602 3321 -0
2603 3321 -0
2604 3321 -0
1009 3322 0
1010 3322 0
1011 3322 0
1012 3322 0.49726039206134737
1013 3322 0
1014 3322 0
1015 3322 -0.99668365524927938
1016 3322 0.067678768813813697
1017 3322 -0
1018 3322 -0.49611791657971721
1019 3322 0.067532010077255816
1020 3322 -0
2233 3322 0
2234 3322 0
2235 3322 0
2236 3322 0.70516692496269695
2237 3322 0
2238 3322 0
2599 3322 -0
2600 3322 -0
2601 3322 -0
2602 3322 -0.70516692496269695
2603 3322 -0
2604 3322 -0
1009 3323 0
1010 3323 0
1011 3323 0
1012 3323 0
1013 3323 0.49840543371991375
1014 3323 0
1015 3323 -0.067601049744234934
1016 3323 -0.99553485319114277
1017 3323 -0
1018 3323 -0.067376861357772475
1019 3323 -0.49382500867881207
1020 3323 -0
2233 3323 0
2234 3323 0
2235 3323 0
2236 3323 0
2237 3323 0.70516692496269695
2238 3323 0
2599 3323 -0
2600 3323 -0
2601 3323 -0
2602 3323 -0
2603 3323 -0.70516692496269695
2604 3323 -0
1009 3324 0
1010 3324 0
1011 3324 0
1012 3324 0
1013 3324 0
1014 3324 0.49726039206134764
1015 3324 -0
1016 3324 -0
1017 3324 -0.99668365524927816
1018 3324 -0
1019 3324 -0
1020 3324 -0.49611791657971638
2233 3324 0
2234 3324 0
2235 3324 0
2236 3324 0
2237 3324 0
2238 3324 0.70516692496269695
2599 3324 -0
2600 3324 -0
2601 3324 -0
2602 3324 -0
2603 3324 -0
2604 3324 -0.70516692496269695
151 3325 0.01662412773633716
152 3325 0
153 3325 0
154 3325 0
155 3325 0
156 3325 0
157 3325 -0.016738711515653665
158 3325 5.1859358331731552e-06
159 3325 -0
160 3325 -0.00011420378000142444
161 3325 7.763820444667679e-06
162 3325 -0
1861 3325 -0.70516692496269695
1862 3325 -0
1863 3325 -0
1864 3325 -0
1865 3325 -0
1866 3325 -0
2959 3325 0.70516692496269695
2960 3325 0
2961 3325 0
2962 3325 0
2963 3325 0
2964 3325 0
151 3326 0
152 3326 0.016643240039254284
153 3326 0
154 3326 0
155 3326 0
156 3326 0
157 3326 -0
158 3326 -0.016643240039254253
159 3326 -0
160 3326 -0
161 3326 -0
162 3326 -0
1861 3326 -0
1862 3326 -0.70516692496269695
1863 3326 -0
1864 3326 -0
1865 3326 -0
1866 3326 -0
2959 3326 0
2960 3326 0.70516692496269695
2961 3326 0
2962 3326 0
2963 3326 0
2964 3326 0
151 3327 0
152 3327 0
153 3327 0.016624127736337181
154 3327 0
155 3327 0
156 3327 0
157 3327 -0
158 3327 -0
159 3327 -0.016585933143231667
160 3327 -0
161 3327 -0
162 3327 3.8067926667141391e-05
1861 3327 -0
1862 3327 -0
1863 3327 -0.70516692496269695
1864 3327 -0
1865 3327 -0
1866 3327 -0
2959 3327 0
2960 3327 0
2961 3327 0.70516692496269695
2962 3327 0
2963 3327 0
2964 3327 0
151 3328 0
152 3328 0
153 3328 0
154 3328 0.49726039206134737
155 3328 0
156 3328 0
157 3328 -0.99668365524927938
158 3328 0.067678768813813697
159 3328 -0
160 3328 -0.49611791657971721
161 3328 0.067532010077255816
162 3328 -0
1861 3328 -0
1862 3328 -0
1863 3328 -0
1864 3328 -0.70516692496269695
1865 3328 -0
1866 3328 -0
2959 3328 0
2960 3328 0
2961 3328 0
2962 3328 0.70516692496269695
2963 3328 0
2964 3328 0
151 3329 0
152 3329 0
153 3329 0
154 3329 0
155 3329 0.49840543371991375
156 3329 0
157 3329 -0.067601049744234934
158 3329 -0.99553485319114277
159 3329 -0
160 3329 -0.067376861357772475
161 3329 -0.49382500867881207
162 3329 -0
1861 3329 -0
1862 3329 -0
1863 3329 -0
1864 3329 -0
1865 3329 -0.70516692496269695
1866 3329 -0
2959 3329 0
2960 3329 0
2961 3329 0
2962 3329 0
2963 3329 0.70516692496269695
2964 3329 0
151 3330 0
152 3330 0
153 3330 0
154 3330 0
155 3330 0
156 3330 0.49726039206134764
157 3330 -0
158 3330 -0
159 3330 -0.99668365524927816
160 3330 -0
161 3330 -0
162 3330 -0.49611791657971638
1861 3330 -0
1862 3330 -0
1863 3330 -0
1864 3330 -0
1865 3330 -0
1866 3330 -0.70516692496269695
2959 3330 0
2960 3330 0
2961 3330 0
2962 3330 0
2963 3330 0
2964 3330 0.70516692496269695
157 3331 0.01662412773633716
158 3331 0
159 3331 0
160 3331 0
161 3331 0
162 3331 0
163 3331 -0.016738711515653665
164 3331 5.1859358331731552e-06
165 3331 -0
166 3331 -0.00011420378000142444
167 3331 7.763820444667679e-06
168 3331 -0
1867 3331 -0.70516692496269695
1868 3331 -0
1869 3331 -0
1870 3331 -0
1871 3331 -0
1872 3331 -0
2965 3331 0.70516692496269695
2966 3331 0
2967 3331 0
2968 3331 0
2969 3331 0
2970 3331 0
157 3332 0
158 3332 0.016643240039254284
159 3332 0
160 3332 0
161 3332 0
162 3332 0
163 3332 -0
164 3332 -0.016643240039254253
165 3332 -0
166 3332 -0
167 3332 -0
168 3332 -0
1867 3332 -0
1868 3332 -0.70516692496269695
1869 3332 -0
1870 3332 -0
1871 3332 -0
1872 3332 -0
2965 3332 0
2966 3332 0.70516692496269695
2967 3332 0
2968 3332 0
2969 3332 0
2970 3332 0
157 3333 0
158 3333 0
159 3333 0.016624127736337181
160 3333 0
161 3333 0
162 3333 0
163 3333 -0
164 3333 -0
165 3333 -0.016585933143231667
166 3333 -0
167 3333 -0
168 3333 3.8067926667141391e-05
1867 3333 -0
1868 3333 -0
1869 3333 -0.70516692496269695
1870 3333 -0
1871 3333 -0
1872 3333 -0
2965 3333 0
2966 3333 0
2967 3333 0.70516692496269695
2968 3333 0
2969 3333 0
2970 3333 0
157 3334 0
158 3334 0
159 3334 0
160 3334 0.49726039206134737
161 3334 0
162 3334 0
163 3334 -0.99668365524927938
164 3334 0.067678768813813697
165 3334 -0
166 3334 -0.49611791657971721
167 3334 0.067532010077255816
168 3334 -0
1867 3334 -0
1868 3334 -0
1869 3334 -0
1870 3334 -0.70516692496269695
1871 3334 -0
1872 3334 -0
2965 3334 0
2966 3334 0
2967 3334 0
2968 3334 0.70516692496269695
2969 3334 0
2970 3334 0
157 3335 0
158 3335 0
159 3335 0
160 3335 0
161 3335 0.49840543371991375
162 3335 0
163 3335 -0.067601049744234934
164 3335 -0.99553485319114277
165 3335 -0
166 3335 -0.067376861357772475
167 3335 -0.49382500867881207
168 3335 -0
1867 3335 -0
1868 3335 -0
1869 3335 -0
1870 3335 -0
1871 3335 -0.70516692496269695
1872 3335 -0
2965 3335 0
2966 3335 0
2967 3335 0
2968 3335 0
2969 3335 0.70516692496269695
2970 3335 0
157 3336 0
158 3336 0
159 3336 0
160 3336 0
161 3336 0
162 3336 0.49726039206134764
163 3336 -0
164 3336 -0
165 3336 -0.99668365524927816
166 3336 -0
167 3336 -0
168 3336 -0.49611791657971638
1867 3336 -0
1868 3336 -0
1869 3336 -0
1870 3336 -0
1871 3336 -0
1872 3336 -0.70516692496269695
2965 3336 0
2966 3336 0
2967 3336 0
2968 3336 0
2969 3336 0
2970 3336 0.70516692496269695
583 3337 0.01662412773633716
584 3337 0
585 3337 0
586 3337 0
587 3337 0
588 3337 0
589 3337 -0.016738711515653665
590 3337 5.1859358331731552e-06
591 3337 -0
592 3337 -0.00011420378000142444
593 3337 7.763820444667679e-06
594 3337 -0
1867 3337 0.70516692496269695
1868 3337 0
1869 3337 0
1870 3337 0
1871 3337 0
1872 3337 0
2233 3337 -0.70516692496269695
2234 3337 -0
2235 3337 -0
2236 3337 -0
2237 3337 -0
2238 3337 -0
583 3338 0
584 3338 0.016643240039254284
585 3338 0
586 3338 0
587 3338 0
588 3338 0
589 3338 -0
590 3338 -0.016643240039254253
591 3338 -0
592 3338 -0
593 3338 -0
594 3338 -0
1867 3338 0
1868 3338 0.70516692496269695
1869 3338 0
1870 3338 0
1871 3338 0
1872 3338 0
2233 3338 -0
2234 3338 -0.70516692496269695
2235 3338 -0
2236 3338 -0
2237 3338 -0
2238 3338 -0
583 3339 0
584 3339 0
585 3339 0.016624127736337181
586 3339 0
587 3339 0
588 3339 0
589 3339 -0
590 3339 -0
591 3339 -0.016585933143231667
592 3339 -0
593 3339 -0
594 3339 3.8067926667141391e-05
1867 3339 0
1868 3339 0
1869 3339 0.70516692496269695
1870 3339 0
1871 3339 0
1872 3339 0
2233 3339 -0
2234 3339 -0
2235 3339 -0.70516692496269695
2236 3339 -0
2237 3339 -0
2238 3339 -0
583 3340 0
584 3340 0
585 3340 0
586 3340 0.49726039206134737
587 3340 0
588 3340 0
589 3340 -0.99668365524927938
590 3340 0.067678768813813697
591 3340 -0
592 3340 -0.49611791657971721
593 3340 0.067532010077255816
594 3340 -0
1867 3340 0
1868 3340 0
1869 3340 0
1870 3340 0.70516692496269695
1871 3340 0
1872 3340 0
2233 3340 -0
2234 3340 -0
2235 3340 -0
2236 3340 -0.70516692496269695
2237 3340 -0
2238 3340 -0
583 3341 0
584 3341 0
585 3341 0
586 3341 0
587 3341 0.49840543371991375
588 3341 0
589 3341 -0.067601049744234934
590 3341 -0.99553485319114277
591 3341 -0
592 3341 -0.067376861357772475
593 3341 -0.49382500867881207
594 3341 -0
1867 3341 0
1868 3341 0
1869 3341 0
1870 3341 0
1871 3341 0.70516692496269695
1872 3341 0
2233 3341 -0
2234 3341 -0
2235 3341 -0
2236 3341 -0
2237 3341 -0.70516692496269695
2238 3341 -0
583 3342 0
584 3342 0
585 3342 0
586 3342 0
587 3342 0
588 3342 0.49726039206134764
589 3342 -0
590 3342 -0
591 3342 -0.99668365524927816
592 3342 -0
593 3342 -0
594 3342 -0.49611791657971638
1867 3342 0
1868 3342 0
1869 3342 0
1870 3342 0
1871 3342 0
1872 3342 0.70516692496269695
2233 3342 -0
2234 3342 -0
2235 3342 -0
2236 3342 -0
2237 3342 -0
2238 3342 -0.70516692496269695
589 3343 0.01662412773633716
590 3343 0
591 3343 0
592 3343 0
593 3343 0
594 3343 0
595 3343 -0.016738711515653665
596 3343 5.1859358331731552e-06
597 3343 -0
598 3343 -0.00011420378000142444
599 3343 7.763820444667679e-06
600 3343 -0
1873 3343 0.70516692496269695
1874 3343 0
1875 3343 0
1876 3343 0
1877 3343 0
1878 3343 0
2239 3343 -0.70516692496269695
2240 3343 -0
2241 3343 -0
2242 3343 -0
2243 3343 -0
2244 3343 -0
589 3344 0
590 3344 0.016643240039254284
591 3344 0
592 3344 0
593 3344 0
594 3344 0
595 3344 -0
596 3344 -0.016643240039254253
597 3344 -0
598 3344 -0
599 3344 -0
600 3344 -0
1873 3344 0
1874 3344 0.70516692496269695
1875 3344 0
1876 3344 0
1877 3344 0
1878 3344 0
2239 3344 -0
2240 3344 -0.70516692496269695
2241 3344 -0
2242 3344 -0
2243 3344 -0
2244 3344 -0
589 3345 0
590 3345 0
591 3345 0.016624127736337181
592 3345 0
593 3345 0
594 3345 0
595 3345 -0
596 3345 -0
597 3345 -0.016585933143231667
598 3345 -0
599 3345 -0
600 3345 3.8067926667141391e-05
1873 3345 0
1874 3345 0
1875 3345 0.70516692496269695
1876 3345 0
1877 3345 0
1878 3345 0
2239 3345 -0
2240 3345 -0
2241 3345 -0.70516692496269695
2242 3345 -0
2243 3345 -0
2244 3345 -0
589 3346 0
590 3346 0
591 3346 0
592 3346 0.49726039206134737
593 3346 0
594 3346 0
595 3346 -0.99668365524927938
596 3346 0.067678768813813697
597 3346 -0
598 3346 -0.49611791657971721
599 3346 0.067532010077255816
600 3346 -0
1873 3346 0
1874 3346 0
1875 3346 0
1876 3346 0.70516692496269695
1877 3346 0
1878 3346 0
2239 3346 -0
2240 3346 -0
2241 3346 -0
2242 3346 -0.70516692496269695
2243 3346 -0
2244 3346 -0
589 3347 0
590 3347 0
591 3347 0
592 3347 0
593 3347 0.49840543371991375
594 3347 0
595 3347 -0.067601049744234934
596 3347 -0.99553485319114277
597 3347 -0
598 3347 -0.067376861357772475
599 3347 -0.49382500867881207
600 3347 -0
1873 3347 0
1874 3347 0
1875 3347 0
1876 3347 0
1877 3347 0.70516692496269695
1878 3347 0
2239 3347 -0
2240 3347 -0
2241 3347 -0
2242 3347 -0
2243 3347 -0.70516692496269695
2244 3347 -0
589 3348 0
590 3348 0
591 3348 0
592 3348 0
593 3348 0
594 3348 0.49726039206134764
595 3348 -0
596 3348 -0
597 3348 -0.99668365524927816
598 3348 -0
599 3348 -0
600 3348 -0.49611791657971638
1873 3348 0
1874 3348 0
1875 3348 0
1876 3348 0
1877 3348 0
1878 3348 0.70516692496269695
2239 3348 -0
2240 3348 -0
2241 3348 -0
2242 3348 -0
2243 3348 -0
2244 3348 -0.70516692496269695
1435 3349 0.01662412773633716
1436 3349 0
1437 3349 0
1438 3349 0
1439 3349 0
1440 3349 0
1441 3349 -0.016738711515653665
1442 3349 5.1859358331731552e-06
1443 3349 -0
1444 3349 -0.00011420378000142444
1445 3349 7.763820444667679e-06
1446 3349 -0
2599 3349 0.70516692496269695
2600 3349 0
2601 3349 0
2602 3349 0
2603 3349 0
2604 3349 0
2965 3349 -0.70516692496269695
2966 3349 -0
2967 3349 -0
2968 3349 -0
2969 3349 -0
2970 3349 -0
1435 3350 0
1436 3350 0.016643240039254284
1437 3350 0
1438 3350 0
1439 3350 0
1440 3350 0
1441 3350 -0
1442 3350 -0.016643240039254253
1443 3350 -0
1444 3350 -0
1445 3350 -0
1446 3350 -0
2599 3350 0
2600 3350 0.70516692496269695
2601 3350 0
2602 3350 0
2603 3350 0
2604 3350 0
2965 3350 -0
2966 3350 -0.70516692496269695
2967 3350 -0
2968 3350 -0
2969 3350 -0
2970 3350 -0
1435 3351 0
1436 3351 0
1437 3351 0.016624127736337181
1438 3351 0
1439 3351 0
1440 3351 0
1441 3351 -0
1442 3351 -0
1443 3351 -0.016585933143231667
1444 3351 -0
1445 3351 -0
1446 3351 3.8067926667141391e-05
2599 3351 0
2600 3351 0
2601 3351 0.70516692496269695
2602 3351 0
2603 3351 0
2604 3351 0
2965 3351 -0
2966 3351 -0
2967 3351 -0.70516692496269695
2968 3351 -0
2969 3351 -0
2970 3351 -0
1435 3352 0
1436 3352 0
1437 3352 0
1438 3352 0.49726039206134737
1439 3352 0
1440 3352 0
1441 3352 -0.99668365524927938
1442 3352 0.067678768813813697
1443 3352 -0
1444 3352 -0.49611791657971721
1445 3352 0.067532010077255816
1446 3352 -0
2599 3352 0
2600 3352 0
2601 3352 0
2602 3352 0.70516692496269695
2603 3352 0
2604 3352 0
2965 3352 -0
2966 3352 -0
2967 3352 -0
2968 3352 -0.70516692496269695
2969 3352 -0
2970 3352 -0
1435 3353 0
1436 3353 0
1437 3353 0
1438 3353 0
1439 3353 0.49840543371991375
1440 3353 0
1441 3353 -0.067601049744234934
1442 3353 -0.99553485319114277
1443 3353 -0
1444 3353 -0.067376861357772475
1445 3353 -0.49382500867881207
1446 3353 -0
2599 3353 0
2600 3353 0
2601 3353 0
2602 3353 0
2603 3353 0.70516692496269695
2604 3353 0
2965 3353 -0
2966 3353 -0
2967 3353 -0
2968 3353 -0
2969 3353 -0.70516692496269695
2970 3353 -0
1435 3354 0
1436 3354 0
1437 3354 0
1438 3354 0
1439 3354 0
1440 3354 0.49726039206134764
1441 3354 -0
1442 3354 -0
1443 3354 -0.99668365524927816
1444 3354 -0
1445 3354 -0
1446 3354 -0.49611791657971638
2599 3354 0
2600 3354 0
2601 3354 0
2602 3354 0
2603 3354 0
2604 3354 0.70516692496269695
2965 3354 -0
2966 3354 -0
2967 3354 -0
2968 3354 -0
2969 3354 -0
2970 3354 -0.70516692496269695
1441 3355 0.01662412773633716
1442 3355 0
1443 3355 0
1444 3355 0
1445 3355 0
1446 3355 0
1447 3355 -0.016738711515653665
1448 3355 5.1859358331731552e-06
1449 3355 -0
1450 3355 -0.00011420378000142444
1451 3355 7.763820444667679e-06
1452 3355 -0
2605 3355 0.70516692496269695
2606 3355 0
2607 3355 0
2608 3355 0
2609 3355 0
2610 3355 0
2971 3355 -0.70516692496269695
2972 3355 -0
2973 3355 -0
2974 3355 -0
2975 3355 -0
2976 3355 -0
1441 3356 0
1442 3356 0.016643240039254284
1443 3356 0
1444 3356 0
1445 3356 0
1446 3356 0
1447 3356 -0
1448 3356 -0.016643240039254253
1449 3356 -0
1450 3356 -0
1451 3356 -0
1452 3356 -0
2605 3356 0
2606 3356 0.70516692496269695
2607 3356 0
2608 3356 0
2609 3356 0
2610 3356 0
2971 3356 -0
2972 3356 -0.70516692496269695
2973 3356 -0
2974 3356 -0
2975 3356 -0
2976 3356 -0
1441 3357 0
1442 3357 0
1443 3357 0.016624127736337181
1444 3357 0
1445 3357 0
1446 3357 0
1447 3357 -0
1448 3357 -0
1449 3357 -0.016585933143231667
1450 3357 -0
1451 3357 -0
1452 3357 3.8067926667141391e-05
2605 3357 0
2606 3357 0
2607 3357 0.70516692496269695
2608 3357 0
2609 3357 0
2610 3357 0
2971 3357 -0
2972 3357 -0
2973 3357 -0.70516692496269695
2974 3357 -0
2975 3357 -0
2976 3357 -0
1441 3358 0
1442 3358 0
1443 3358 0
1444 3358 0.49726039206134737
1445 3358 0
1446 3358 0
1447 3358 -0.99668365524927938
1448 3358 0.067678768813813697
1449 3358 -0
1450 3358 -0.49611791657971721
1451 3358 0.067532010077255816
1452 3358 -0
2605 3358 0
2606 3358 0
2607 3358 0
2608 3358 0.70516692496269695
2609 3358 0
2610 3358 0
2971 3358 -0
2972 3358 -0
2973 3358 -0
2974 3358 -0.70516692496269695
2975 3358 -0
2976 3358 -0
1441 3359 0
1442 3359 0
1443 3359 0
1444 3359 0
1445 3359 0.49840543371991375
1446 3359 0
1447 3359 -0.067601049744234934
1448 3359 -0.99553485319114277
1449 3359 -0
1450 3359 -0.067376861357772475
1451 3359 -0.49382500867881207
1452 3359 -0
2605 3359 0
2606 3359 0
2607 3359 0
2608 3359 0
2609 3359 0.70516692496269695
2610 3359 0
2971 3359 -0
2972 3359 -0
2973 3359 -0
2974 3359 -0
2975 3359 -0.70516692496269695
2976 3359 -0
1441 3360 0
1442 3360 0
1443 3360 0
1444 3360 0
1445 3360 0
1446 3360 0.49726039206134764
1447 3360 -0
1448 3360 -0
1449 3360 -0.99668365524927816
1450 3360 -0
1451 3360 -0
1452 3360 -0.49611791657971638
2605 3360 0
2606 3360 0
2607 3360 0
2608 3360 0
2609 3360 0
2610 3360 0.70516692496269695
2971 3360 -0
2972 3360 -0
2973 3360 -0
2974 3360 -0
2975 3360 -0
2976 3360 -0.70516692496269695
163 3361 0.01662412773633716
164 3361 0
165 3361 0
166 3361 0
167 3361 0
168 3361 0
169 3361 -0.016738711515653665
170 3361 5.1859358331731552e-06
171 3361 -0
172 3361 -0.00011420378000142444
173 3361 7.763820444667679e-06
174 3361 -0
1873 3361 -0.70516692496269695
1874 3361 -0
1875 3361 -0
1876 3361 -0
1877 3361 -0
1878 3361 -0
2971 3361 0.70516692496269695
2972 3361 0
2973 3361 0
2974 3361 0
2975 3361 0
2976 3361 0
163 3362 0
164 3362 0.016643240039254284
165 3362 0
166 3362 0
167 3362 0
168 3362 0
169 3362 -0
170 3362 -0.016643240039254253
171 3362 -0
172 3362 -0
173 3362 -0
174 3362 -0
1873 3362 -0
1874 3362 -0.70516692496269695
1875 3362 -0
1876 3362 -0
1877 3362 -0
1878 3362 -0
2971 3362 0
2972 3362 0.70516692496269695
2973 3362 0
2974 3362 0
2975 3362 0
2976 3362 0
163 3363 0
164 3363 0
165 3363 0.016624127736337181
166 3363 0
167 3363 0
168 3363 0
169 3363 -0
170 3363 -0
171 3363 -0.016585933143231667
172 3363 -0
173 3363 -0
174 3363 3.8067926667141391e-05
1873 3363 -0
1874 3363 -0
1875 3363 -0.70516692496269695
1876 3363 -0
1877 3363 -0
1878 3363 -0
2971 3363 0
2972 3363 0
2973 3363 0.70516692496269695
2974 3363 0
2975 3363 0
2976 3363 0
163 3364 0
164 3364 0
165 3364 0
166 3364 0.49726039206134737
167 3364 0
168 3364 0
169 3364 -0.99668365524927938
170 3364 0.067678768813813697
171 3364 -0
172 3364 -0.49611791657971721
173 3364 0.067532010077255816
174 3364 -0
1873 3364 -0
1874 3364 -0
1875 3364 -0
1876 3364 -0.70516692496269695
1877 3364 -0
1878 3364 -0
2971 3364 0
2972 3364 0
2973 3364 0
2974 3364 0.70516692496269695
2975 3364 0
2976 3364 0
163 3365 0
164 3365 0
165 3365 0
166 3365 0
167 3365 0.49840543371991375
168 3365 0
169 3365 -0.067601049744234934
170 3365 -0.99553485319114277
171 3365 -0
172 3365 -0.067376861357772475
173 3365 -0.49382500867881207
174 3365 -0
1873 3365 -0
1874 3365 -0
1875 3365 -0
1876 3365 -0
1877 3365 -0.70516692496269695
1878 3365 -0
2971 3365 0
2972 3365 0
2973 3365 0
2974 3365 0
2975 3365 0.70516692496269695
2976 3365 0
163 3366 0
164 3366 0
165 3366 0
166 3366 0
167 3366 0
168 3366 0.49726039206134764
169 3366 -0
170 3366 -0
171 3366 -0.99668365524927816
172 3366 -0
173 3366 -0
174 3366 -0.49611791657971638
1873 3366 -0
1874 3366 -0
1875 3366 -0
1876 3366 -0
1877 3366 -0
1878 3366 -0.70516692496269695
2971 3366 0
2972 3366 0
2973 3366 0
2974 3366 0
2975 3366 0
2976 3366 0.70516692496269695
169 3367 0.01662412773633716
170 3367 0
171 3367 0
172 3367 0
173 3367 0
174 3367 0
175 3367 -0.016738711515653665
176 3367 5.1859358331731552e-06
177 3367 -0
178 3367 -0.00011420378000142444
179 3367 7.763820444667679e-06
180 3367 -0
1879 3367 -0.70516692496269695
1880 3367 -0
1881 3367 -0
1882 3367 -0
1883 3367 -0
1884 3367 -0
2977 3367 0.70516692496269695
2978 3367 0
2979 3367 0
2980 3367 0
2981 3367 0
2982 3367 0
169 3368 0
170 3368 0.016643240039254284
171 3368 0
172 3368 0
173 3368 0
174 3368 0
175 3368 -0
176 3368 -0.016643240039254253
177 3368 -0
178 3368 -0
179 3368 -0
180 3368 -0
1879 3368 -0
1880 3368 -0.70516692496269695
1881 3368 -0
1882 3368 -0
1883 3368 -0
1884 3368 -0
2977 3368 0
2978 3368 0.70516692496269695
2979 3368 0
2980 3368 0
2981 3368 0
2982 3368 0
169 3369 0
170 3369 0
171 3369 0.016624127736337181
172 3369 0
173 3369 0
174 3369 0
175 3369 -0
176 3369 -0
177 3369 -0.016585933143231667
178 3369 -0
179 3369 -0
180 3369 3.8067926667141391e-05
1879 3369 -0
1880 3369 -0
1881 3369 -0.70516692496269695
1882 3369 -0
1883 3369 -0
1884 3369 -0
2977 3369 0
2978 3369 0
2979 3369 0.70516692496269695
2980 3369 0
2981 3369 0
2982 3369 0
169 3370 0
170 3370 0
171 3370 0
172 3370 0.49726039206134737
173 3370 0
174 3370 0
175 3370 -0.99668365524927938
176 3370 0.067678768813813697
177 3370 -0
178 3370 -0.49611791657971721
179 3370 0.067532010077255816
180 3370 -0
1879 3370 -0
1880 3370 -0
1881 3370 -0
1882 3370 -0.70516692496269695
1883 3370 -0
1884 3370 -0
2977 3370 0
2978 3370 0
2979 3370 0
2980 3370 0.70516692496269695
2981 3370 0
2982 3370 0
169 3371 0
170 3371 0
171 3371 0
172 3371 0
173 3371 0.49840543371991375
174 3371 0
175 3371 -0.067601049744234934
176 3371 -0.99553485319114277
177 3371 -0
178 3371 -0.067376861357772475
179 3371 -0.49382500867881207
180 3371 -0
1879 3371 -0
1880 3371 -0
1881 3371 -0
1882 3371 -0
1883 3371 -0.70516692496269695
1884 3371 -0
2977 3371 0
2978 3371 0
2979 3371 0
2980 3371 0
2981 3371 0.70516692496269695
2982 3371 0
169 3372 0
170 3372 0
171 3372 0
172 3372 0
173 3372 0
174 3372 0.49726039206134764
175 3372 -0
176 3372 -0
177 3372 -0.99668365524927816
178 3372 -0
179 3372 -0
180 3372 -0.49611791657971638
1879 3372 -0
1880 3372 -0
1881 3372 -0
1882 3372 -0
1883 3372 -0
1884 3372 -0.70516692496269695
2977 3372 0
2978 3372 0
2979 3372 0
2980 3372 0
2981 3372 0
2982 3372 0.70516692496269695
1015 3373 0.01662412773633716
1016 3373 0
1017 3373 0
1018 3373 0
1019 3373 0
1020 3373 0
1021 3373 -0.016738711515653665
1022 3373 5.1859358331731552e-06
1023 3373 -0
1024 3373 -0.00011420378000142444
1025 3373 7.763820444667679e-06
1026 3373 -0
2239 3373 0.70516692496269695
2240 3373 0
2241 3373 0
2242 3373 0
2243 3373 0
2244 3373 0
2605 3373 -0.70516692496269695
2606 3373 -0
2607 3373 -0
2608 3373 -0
2609 3373 -0
2610 3373 -0
1015 3374 0
1016 3374 0.016643240039254284
1017 3374 0
1018 3374 0
1019 3374 0
1020 3374 0
1021 3374 -0
1022 3374 -0.016643240039254253
1023 3374 -0
1024 3374 -0
1025 3374 -0
1026 3374 -0
2239 3374 0
2240 3374 0.70516692496269695
2241 3374 0
2242 3374 0
2243 3374 0
2244 3374 0
2605 3374 -0
2606 3374 -0.70516692496269695
2607 3374 -0
2608 3374 -0
2609 3374 -0
2610 3374 -0
1015 3375 0
1016 3375 0
1017 3375 0.016624127736337181
1018 3375 0
1019 3375 0
1020 3375 0
1021 3375 -0
1022 3375 -0
1023 3375 -0.016585933143231667
1024 3375 -0
1025 3375 -0
1026 3375 3.8067926667141391e-05
2239 3375 0
2240 3375 0
2241 3375 0.70516692496269695
2242 3375 0
2243 3375 0
2244 3375 0
2605 3375 -0
2606 3375 -0
2607 3375 -0.70516692496269695
2608 3375 -0
2609 3375 -0
2610 3375 -0
1015 3376 0
1016 3376 0
1017 3376 0
1018 3376 0.49726039206134737
1019 3376 0
1020 3376 0
1021 3376 -0.99668365524927938
1022 3376 0.067678768813813697
1023 3376 -0
1024 3376 -0.49611791657971721
1025 3376 0.067532010077255816
1026 3376 -0
2239 3376 0
2240 3376 0
2241 3376 0
2242 3376 0.70516692496269695
2243 3376 0
2244 3376 0
2605 3376 -0
2606 3376 -0
2607 3376 -0
2608 3376 -0.70516692496269695
2609 3376 -0
2610 3376 -0
1015 3377 0
1016 3377 0
1017 3377 0
1018 3377 0
1019 3377 0.49840543371991375
1020 3377 0
1021 3377 -0.067601049744234934
1022 3377 -0.99553485319114277
1023 3377 -0
1024 3377 -0.067376861357772475
1025 3377 -0.49382500867881207
1026 3377 -0
2239 3377 0
2240 3377 0
2241 3377 0
2242 3377 0
2243 3377 0.70516692496269695
2244 3377 0
2605 3377 -0
2606 3377 -0
2607 3377 -0
2608 3377 -0
2609 3377 -0.70516692496269695
2610 3377 -0
1015 3378 0
1016 3378 0
1017 3378 0
1018 3378 0
1019 3378 0
1020 3378 0.49726039206134764
1021 3378 -0
1022 3378 -0
1023 3378 -0.99668365524927816
1024 3378 -0
1025 3378 -0
1026 3378 -0.49611791657971638
2239 3378 0
2240 3378 0
2241 3378 0
2242 3378 0
2243 3378 0
2244 3378 0.70516692496269695
2605 3378 -0
2606 3378 -0
2607 3378 -0
2608 3378 -0
2609 3378 -0
2610 3378 -0.70516692496269695
1021 3379 0.01662412773633716
1022 3379 0
1023 3379 0
1024 3379 0
1025 3379 0
1026 3379 0
1027 3379 -0.016738711515653665
1028 3379 5.1859358331731552e-06
1029 3379 -0
1030 3379 -0.00011420378000142444
1031 3379 7.763820444667679e-06
1032 3379 -0
2245 3379 0.70516692496269695
2246 3379 0
2247 3379 0
2248 3379 0
2249 3379 0
2250 3379 0
2611 3379 -0.70516692496269695
2612 3379 -0
2613 3379 -0
2614 3379 -0
2615 3379 -0
2616 3379 -0
1021 3380 0
1022 3380 0.016643240039254284
1023 3380 0
1024 3380 0
1025 3380 0
1026 3380 0
1027 3380 -0
1028 3380 -0.016643240039254253
1029 3380 -0
1030 3380 -0
1031 3380 -0
1032 3380 -0
2245 3380 0
2246 3380 0.70516692496269695
2247 3380 0
2248 3380 0
2249 3380 0
2250 3380 0
2611 3380 -0
2612 3380 -0.70516692496269695
2613 3380 -0
2614 3380 -0
2615 3380 -0
2616 3380 -0
1021 3381 0
1022 3381 0
1023 3381 0.016624127736337181
1024 3381 0
1025 3381 0
1026 3381 0
1027 3381 -0
1028 3381 -0
1029 3381 -0.016585933143231667
1030 3381 -0
1031 3381 -0
1032 3381 3.8067926667141391e-05
2245 3381 0
2246 3381 0
2247 3381 0.70516692496269695
2248 3381 0
2249 3381 0
2250 3381 0
2611 3381 -0
2612 3381 -0
2613 3381 -0.70516692496269695
2614 3381 -0
2615 3381 -0
2616 3381 -0
1021 3382 0
1022 3382 0
1023 3382 0
1024 3382 0.49726039206134737
1025 3382 0
1026 3382 0
1027 3382 -0.99668365524927938
1028 3382 0.067678768813813697
1029 3382 -0
1030 3382 -0.49611791657971721
1031 3382 0.067532010077255816
1032 3382 -0
2245 3382 0
2246 3382 0
2247 3382 0
2248 3382 0.70516692496269695
2249 3382 0
2250 3382 0
2611 3382 -0
2612 3382 -0
2613 3382 -0
2614 3382 -0.70516692496269695
2615 3382 -0
2616 3382 -0
1021 3383 0
1022 3383 0
1023 3383 0
1024 3383 0
1025 3383 0.49840543371991375
1026 3383 0
1027 3383 -0.067601049744234934
1028 3383 -0.99553485319114277
1029 3383 -0
1030 3383 -0.067376861357772475
1031 3383 -0.49382500867881207
1032 3383 -0
2245 3383 0
2246 3383 0
2247 3383 0
2248 3383 0
2249 3383 0.70516692496269695
2250 3383 0
2611 3383 -0
2612 3383 -0
2613 3383 -0
2614 3383 -0
2615 3383 -0.70516692496269695
2616 3383 -0
1021 3384 0
1022 3384 0
1023 3384 0
1024 3384 0
1025 3384 0
1026 3384 0.49726039206134764
1027 3384 -0
1028 3384 -0
1029 3384 -0.99668365524927816
1030 3384 -0
1031 3384 -0
1032 3384 -0.49611791657971638
2245 3384 0
2246 3384 0
2247 3384 0
2248 3384 0
2249 3384 0
2250 3384 0.70516692496269695
2611 3384 -0
2612 3384 -0
2613 3384 -0
2614 3384 -0
2615 3384 -0
2616 3384 -0.70516692496269695
1447 3385 0.01662412773633716
1448 3385 0
1449 3385 0
1450 3385 0
1451 3385 0
1452 3385 0
1453 3385 -0.016738711515653665
1454 3385 5.1859358331731552e-06
1455 3385 -0
1456 3385 -0.00011420378000142444
1457 3385 7.763820444667679e-06
1458 3385 -0
2611 3385 0.70516692496269695
2612 3385 0
2613 3385 0
2614 3385 0
2615 3385 0
2616 3385 0
2977 3385 -0.70516692496269695
2978 3385 -0
2979 3385 -0
2980 3385 -0
2981 3385 -0
2982 3385 -0
1447 3386 0
1448 3386 0.016643240039254284
1449 3386 0
1450 3386 0
1451 3386 0
1452 3386 0
1453 3386 -0
1454 3386 -0.016643240039254253
1455 3386 -0
1456 3386 -0
1457 3386 -0
1458 3386 -0
2611 3386 0
2612 3386 0.70516692496269695
2613 3386 0
2614 3386 0
2615 3386 0
2616 3386 0
2977 3386 -0
2978 3386 -0.70516692496269695
2979 3386 -0
2980 3386 -0
2981 3386 -0
2982 3386 -0
1447 3387 0
1448 3387 0
1449 3387 0.016624127736337181
1450 3387 0
1451 3387 0
1452 3387 0
1453 3387 -0
1454 3387 -0
1455 3387 -0.016585933143231667
1456 3387 -0
1457 3387 -0
1458 3387 3.8067926667141391e-05
2611 3387 0
2612 3387 0
2613 3387 0.70516692496269695
2614 3387 0
2615 3387 0
2616 3387 0
2977 3387 -0
2978 3387 -0
2979 3387 -0.70516692496269695
2980 3387 -0
2981 3387 -0
2982 3387 -0
1447 3388 0
1448 3388 0
1449 3388 0
1450 3388 0.49726039206134737
1451 3388 0
1452 3388 0
1453 3388 -0.99668365524927938
1454 3388 0.067678768813813697
1455 3388 -0
1456 3388 -0.49611791657971721
1457 3388 0.067532010077255816
1458 3388 -0
2611 3388 0
2612 3388 0
2613 3388 0
2614 3388 0.70516692496269695
2615 3388 0
2616 3388 0
2977 3388 -0
2978 3388 -0
2979 3388 -0
2980 3388 -0.70516692496269695
2981 3388 -0
2982 3388 -0
1447 3389 0
1448 3389 0
1449 3389 0
1450 3389 0
1451 3389 0.49840543371991375
1452 3389 0
1453 3389 -0.067601049744234934
1454 3389 -0.99553485319114277
1455 3389 -0
1456 3389 -0.067376861357772475
1457 3389 -0.49382500867881207
1458 3389 -0
2611 3389 0
2612 3389 0
2613 3389 0
2614 3389 0
2615 3389 0.70516692496269695
2616 3389 0
2977 3389 -0
2978 3389 -0
2979 3389 -0
2980 3389 -0
2981 3389 -0.70516692496269695
2982 3389 -0
1447 3390 0
1448 3390 0
1449 3390 0
1450 3390 0
1451 3390 0
1452 3390 0.49726039206134764
1453 3390 -0
1454 3390 -0
1455 3390 -0.99668365524927816
1456 3390 -0
1457 3390 -0
1458 3390 -0.49611791657971638
2611 3390 0
2612 3390 0
2613 3390 0
2614 3390 0
2615 3390 0
2616 3390 0.70516692496269695
2977 3390 -0
2978 3390 -0
2979 3390 -0
2980 3390 -0
2981 3390 -0
2982 3390 -0.70516692496269695
1453 3391 0.01662412773633716
1454 3391 0
1455 3391 0
1456 3391 0
1457 3391 0
1458 3391 0
1459 3391 -0.016738711515653665
1460 3391 5.1859358331731552e-06
1461 3391 -0
1462 3391 -0.00011420378000142444
1463 3391 7.763820444667679e-06
1464 3391 -0
2617 3391 0.70516692496269695
2618 3391 0
2619 3391 0
2620 3391 0
2621 3391 0
2622 3391 0
2983 3391 -0.70516692496269695
2984 3391 -0
2985 3391 -0
2986 3391 -0
2987 3391 -0
2988 3391 -0
1453 3392 0
1454 3392 0.016643240039254284
1455 3392 0
1456 3392 0
1457 3392 0
1458 3392 0
1459 3392 -0
1460 3392 -0.016643240039254253
1461 3392 -0
1462 3392 -0
1463 3392 -0
1464 3392 -0
2617 3392 0
2618 3392 0.70516692496269695
2619 3392 0
2620 3392 0
2621 3392 0
2622 3392 0
2983 3392 -0
2984 3392 -0.70516692496269695
2985 3392 -0
2986 3392 -0
2987 3392 -0
2988 3392 -0
1453 3393 0
1454 3393 0
1455 3393 0.016624127736337181
1456 3393 0
1457 3393 0
1458 3393 0
1459 3393 -0
1460 3393 -0
1461 3393 -0.016585933143231667
1462 3393 -0
1463 3393 -0
1464 3393 3.8067926667141391e-05
2617 3393 0
2618 3393 0
2619 3393 0.70516692496269695
2620 3393 0
2621 3393 0
2622 3393 0
2983 3393 -0
2984 3393 -0
2985 3393 -0.70516692496269695
2986 3393 -0
2987 3393 -0
2988 3393 -0
1453 3394 0
1454 3394 0
1455 3394 0
1456 3394 0.49726039206134737
1457 3394 0
1458 3394 0
1459 3394 -0.99668365524927938
1460 3394 0.067678768813813697
1461 3394 -0
1462 3394 -0.49611791657971721
1463 3394 0.067532010077255816
1464 3394 -0
2617 3394 0
2618 3394 0
2619 3394 0
2620 3394 0.70516692496269695
2621 3394 0
2622 3394 0
2983 3394 -0
2984 3394 -0
2985 3394 -0
2986 3394 -0.70516692496269695
2987 3394 -0
2988 3394 -0
1453 3395 0
1454 3395 0
1455 3395 0
1456 3395 0
1457 3395 0.49840543371991375
1458 3395 0
1459 3395 -0.067601049744234934
1460 3395 -0.99553485319114277
1461 3395 -0
1462 3395 -0.067376861357772475
1463 3395 -0.49382500867881207
1464 3395 -0
2617 3395 0
2618 3395 0
2619 3395 0
2620 3395 0
2621 3395 0.70516692496269695
2622 3395 0
2983 3395 -0
2984 3395 -0
2985 3395 -0
2986 3395 -0
2987 3395 -0.70516692496269695
2988 3395 -0
1453 3396 0
1454 3396 0
1455 3396 0
1456 3396 0
1457 3396 0
1458 3396 0.49726039206134764
1459 3396 -0
1460 3396 -0
1461 3396 -0.99668365524927816
1462 3396 -0
1463 3396 -0
1464 3396 -0.49611791657971638
2617 3396 0
2618 3396 0
2619 3396 0
2620 3396 0
2621 3396 0
2622 3396 0.70516692496269695
2983 3396 -0
2984 3396 -0
2985 3396 -0
2986 3396 -0
2987 3396 -0
2988 3396 -0.70516692496269695
595 3397 0.01662412773633716
596 3397 0
597 3397 0
598 3397 0
599 3397 0
600 3397 0
601 3397 -0.016738711515653665
602 3397 5.1859358331731552e-06
603 3397 -0
604 3397 -0.00011420378000142444
605 3397 7.763820444667679e-06
606 3397 -0
1879 3397 0.70516692496269695
1880 3397 0
1881 3397 0
1882 3397 0
1883 3397 0
1884 3397 0
2245 3397 -0.70516692496269695
2246 3397 -0
2247 3397 -0
2248 3397 -0
2249 3397 -0
2250 3397 -0
595 3398 0
596 3398 0.016643240039254284
597 3398 0
598 3398 0
599 3398 0
600 3398 0
601 3398 -0
602 3398 -0.016643240039254253
603 3398 -0
604 3398 -0
605 3398 -0
606 3398 -0
1879 3398 0
1880 3398 0.70516692496269695
1881 3398 0
1882 3398 0
1883 3398 0
1884 3398 0
2245 3398 -0
2246 3398 -0.70516692496269695
2247 3398 -0
2248 3398 -0
2249 3398 -0
2250 3398 -0
595 3399 0
596 3399 0
597 3399 0.016624127736337181
598 3399 0
599 3399 0
600 3399 0
601 3399 -0
602 3399 -0
603 3399 -0.016585933143231667
604 3399 -0
605 3399 -0
606 3399 3.8067926667141391e-05
1879 3399 0
1880 3399 0
1881 3399 0.70516692496269695
1882 3399 0
1883 3399 0
1884 3399 0
2245 3399 -0
2246 3399 -0
2247 3399 -0.70516692496269695
2248 3399 -0
2249 3399 -0
2250 3399 -0
595 3400 0
596 3400 0
597 3400 0
598 3400 0.49726039206134737
599 3400 0
600 3400 0
601 3400 -0.99668365524927938
602 3400 0.067678768813813697
603 3400 -0
604 3400 -0.49611791657971721
605 3400 0.067532010077255816
606 3400 -0
1879 3400 0
1880 3400 0
1881 3400 0
1882 3400 0.70516692496269695
1883 3400 0
1884 3400 0
2245 3400 -0
2246 3400 -0
2247 3400 -0
2248 3400 -0.70516692496269695
2249 3400 -0
2250 3400 -0
595 3401 0
596 3401 0
597 3401 0
598 3401 0
599 3401 0.49840543371991375
600 3401 0
601 3401 -0.067601049744234934
602 3401 -0.99553485319114277
603 3401 -0
604 3401 -0.067376861357772475
605 3401 -0.49382500867881207
606 3401 -0
1879 3401 0
1880 3401 0
1881 3401 0
1882 3401 0
1883 3401 0.70516692496269695
1884 3401 0
2245 3401 -0
2246 3401 -0
2247 3401 -0
2248 3401 -0
2249 3401 -0.70516692496269695
2250 3401 -0
595 3402 0
596 3402 0
597 3402 0
598 3402 0
599 3402 0
600 3402 0.49726039206134764
601 3402 -0
602 3402 -0
603 3402 -0.99668365524927816
604 3402 -0
605 3402 -0
606 3402 -0.49611791657971638
1879 3402 0
1880 3402 0
1881 3402 0
1882 3402 0
1883 3402 0
1884 3402 0.70516692496269695
2245 3402 -0
2246 3402 -0
2247 3402 -0
2248 3402 -0
2249 3402 -0
2250 3402 -0.70516692496269695
601 3403 0.01662412773633716
602 3403 0
603 3403 0
604 3403 0
605 3403 0
606 3403 0
607 3403 -0.016738711515653665
608 3403 5.1859358331731552e-06
609 3403 -0
610 3403 -0.00011420378000142444
611 3403 7.763820444667679e-06
612 3403 -0
1885 3403 0.70516692496269695
1886 3403 0
1887 3403 0
1888 3403 0
1889 3403 0
1890 3403 0
2251 3403 -0.70516692496269695
2252 3403 -0
2253 3403 -0
2254 3403 -0
2255 3403 -0
2256 3403 -0
601 3404 0
602 3404 0.016643240039254284
603 3404 0
604 3404 0
605 3404 0
606 3404 0
607 3404 -0
608 3404 -0.016643240039254253
609 3404 -0
610 3404 -0
611 3404 -0
612 3404 -0
1885 3404 0
1886 3404 0.70516692496269695
1887 3404 0
1888 3404 0
1889 3404 0
1890 3404 0
2251 3404 -0
2252 3404 -0.70516692496269695
2253 3404 -0
2254 3404 -0
2255 3404 -0
2256 3404 -0
601 3405 0
602 3405 0
603 3405 0.016624127736337181
604 3405 0
605 3405 0
606 3405 0
607 3405 -0
608 3405 -0
609 3405 -0.016585933143231667
610 3405 -0
611 3405 -0
612 3405 3.8067926667141391e-05
1885 3405 0
1886 3405 0
1887 3405 0.70516692496269695
1888 3405 0
1889 3405 0
1890 3405 0
2251 3405 -0
2252 3405 -0
2253 3405 -0.70516692496269695
2254 3405 -0
2255 3405 -0
2256 3405 -0
601 3406 0
602 3406 0
603 3406 0
604 3406 0.49726039206134737
605 3406 0
606 3406 0
607 3406 -0.99668365524927938
608 3406 0.067678768813813697
609 3406 -0
610 3406 -0.49611791657971721
611 3406 0.067532010077255816
612 3406 -0
1885 3406 0
1886 3406 0
1887 3406 0
1888 3406 0.70516692496269695
1889 3406 0
1890 3406 0
2251 3406 -0
2252 3406 -0
2253 3406 -0
2254 3406 -0.70516692496269695
2255 3406 -0
2256 3406 -0
601 3407 0
602 3407 0
603 3407 0
604 3407 0
605 3407 0.49840543371991375
606 3407 0
607 3407 -0.067601049744234934
608 3407 -0.99553485319114277
609 3407 -0
610 3407 -0.067376861357772475
611 3407 -0.49382500867881207
612 3407 -0
1885 3407 0
1886 3407 0
1887 3407 0
1888 3407 0
1889 3407 0.70516692496269695
1890 3407 0
2251 3407 -0
2252 3407 -0
2253 3407 -0
2254 3407 -0
2255 3407 -0.70516692496269695
2256 3407 -0
601 3408 0
602 3408 0
603 3408 0
604 3408 0
605 3408 0
606 3408 0.49726039206134764
607 3408 -0
608 3408 -0
609 3408 -0.99668365524927816
610 3408 -0
611 3408 -0
612 3408 -0.49611791657971638
1885 3408 0
1886 3408 0
1887 3408 0
1888 3408 0
1889 3408 0
1890 3408 0.70516692496269695
2251 3408 -0
2252 3408 -0
2253 3408 -0
2254 3408 -0
2255 3408 -0
2256 3408 -0.70516692496269695
1027 3409 0.01662412773633716
1028 3409 0
1029 3409 0
1030 3409 0
1031 3409 0
1032 3409 0
1033 3409 -0.016738711515653665
1034 3409 5.1859358331731552e-06
1035 3409 -0
1036 3409 -0.00011420378000142444
1037 3409 7.763820444667679e-06
1038 3409 -0
2251 3409 0.70516692496269695
2252 3409 0
2253 3409 0
2254 3409 0
2255 3409 0
2256 3409 0
2617 3409 -0.70516692496269695
2618 3409 -0
2619 3409 -0
2620 3409 -0
2621 3409 -0
2622 3409 -0
1027 3410 0
1028 3410 0.016643240039254284
1029 3410 0
1030 3410 0
1031 3410 0
1032 3410 0
1033 3410 -0
1034 3410 -0.016643240039254253
1035 3410 -0
1036 3410 -0
1037 3410 -0
1038 3410 -0
2251 3410 0
2252 3410 0.70516692496269695
2253 3410 0
2254 3410 0
2255 3410 0
2256 3410 0
2617 3410 -0
2618 3410 -0.70516692496269695
2619 3410 -0
2620 3410 -0
2621 3410 -0
2622 3410 -0
1027 3411 0
1028 3411 0
1029 3411 0.016624127736337181
1030 3411 0
1031 3411 0
1032 3411 0
1033 3411 -0
1034 3411 -0
1035 3411 -0.016585933143231667
1036 3411 -0
1037 3411 -0
1038 3411 3.8067926667141391e-05
2251 3411 0
2252 3411 0
2253 3411 0.70516692496269695
2254 3411 0
2255 3411 0
2256 3411 0
2617 3411 -0
2618 3411 -0
2619 3411 -0.70516692496269695
2620 3411 -0
2621 3411 -0
2622 3411 -0
1027 3412 0
1028 3412 0
1029 3412 0
1030 3412 0.49726039206134737
1031 3412 0
1032 3412 0
1033 3412 -0.99668365524927938
1034 3412 0.067678768813813697
1035 3412 -0
1036 3412 -0.49611791657971721
1037 3412 0.067532010077255816
1038 3412 -0
2251 3412 0
2252 3412 0
2253 3412 0
2254 3412 0.70516692496269695
2255 3412 0
2256 3412 0
2617 3412 -0
2618 3412 -0
2619 3412 -0
2620 3412 -0.70516692496269695
2621 3412 -0
2622 3412 -0
1027 3413 0
1028 3413 0
1029 3413 0
1030 3413 0
1031 3413 0.49840543371991375
1032 3413 0
1033 3413 -0.067601049744234934
1034 3413 -0.99553485319114277
1035 3413 -0
1036 3413 -0.067376861357772475
1037 3413 -0.49382500867881207
1038 3413 -0
2251 3413 0
2252 3413 0
2253 3413 0
2254 3413 0
2255 3413 0.70516692496269695
2256 3413 0
2617 3413 -0
2618 3413 -0
2619 3413 -0
2620 3413 -0
2621 3413 -0.70516692496269695
2622 3413 -0
1027 3414 0
1028 3414 0
1029 3414 0
1030 3414 0
1031 3414 0
1032 3414 0.49726039206134764
1033 3414 -0
1034 3414 -0
1035 3414 -0.99668365524927816
1036 3414 -0
1037 3414 -0
1038 3414 -0.49611791657971638
2251 3414 0
2252 3414 0
2253 3414 0
2254 3414 0
2255 3414 0
2256 3414 0.70516692496269695
2617 3414 -0
2618 3414 -0
2619 3414 -0
2620 3414 -0
2621 3414 -0
2622 3414 -0.70516692496269695
1033 3415 0.01662412773633716
1034 3415 0
1035 3415 0
1036 3415 0
1037 3415 0
1038 3415 0
1039 3415 -0.016738711515653665
1040 3415 5.1859358331731552e-06
1041 3415 -0
1042 3415 -0.00011420378000142444
1043 3415 7.763820444667679e-06
1044 3415 -0
2257 3415 0.70516692496269695
2258 3415 0
2259 3415 0
2260 3415 0
2261 3415 0
2262 3415 0
2623 3415 -0.70516692496269695
2624 3415 -0
2625 3415 -0
2626 3415 -0
2627 3415 -0
2628 3415 -0
1033 3416 0
1034 3416 0.016643240039254284
1035 3416 0
1036 3416 0
1037 3416 0
1038 3416 0
1039 3416 -0
1040 3416 -0.016643240039254253
1041 3416 -0
1042 3416 -0
1043 3416 -0
1044 3416 -0
2257 3416 0
2258 3416 0.70516692496269695
2259 3416 0
2260 3416 0
2261 3416 0
2262 3416 0
2623 3416 -0
2624 3416 -0.70516692496269695
2625 3416 -0
2626 3416 -0
2627 3416 -0
2628 3416 -0
1033 3417 0
1034 3417 0
1035 3417 0.016624127736337181
1036 3417 0
1037 3417 0
1038 3417 0
1039 3417 -0
1040 3417 -0
1041 3417 -0.016585933143231667
1042 3417 -0
1043 3417 -0
1044 3417 3.8067926667141391e-05
2257 3417 0
2258 3417 0
2259 3417 0.70516692496269695
2260 3417 0
2261 3417 0
2262 3417 0
2623 3417 -0
2624 3417 -0
2625 3417 -0.70516692496269695
2626 3417 -0
2627 3417 -0
2628 3417 -0
1033 3418 0
1034 3418 0
1035 3418 0
1036 3418 0.49726039206134737
1037 3418 0
1038 3418 0
1039 3418 -0.99668365524927938
1040 3418 0.067678768813813697
1041 3418 -0
1042 3418 -0.49611791657971721
1043 3418 0.067532010077255816
1044 3418 -0
2257 3418 0
2258 3418 0
2259 3418 0
2260 3418 0.70516692496269695
2261 3418 0
2262 3418 0
2623 3418 -0
2624 3418 -0
2625 3418 -0
2626 3418 -0.70516692496269695
2627 3418 -0
2628 3418 -0
1033 3419 0
1034 3419 0
1035 3419 0
1036 3419 0
1037 3419 0.49840543371991375
1038 3419 0
1039 3419 -0.067601049744234934
1040 3419 -0.99553485319114277
1041 3419 -0
1042 3419 -0.067376861357772475
1043 3419 -0.49382500867881207
1044 3419 -0
2257 3419 0
2258 3419 0
2259 3419 0
2260 3419 0
2261 3419 0.70516692496269695
2262 3419 0
2623 3419 -0
2624 3419 -0
2625 3419 -0
2626 3419 -0
2627 3419 -0.70516692496269695
2628 3419 -0
1033 3420 0
1034 3420 0
1035 3420 0
1036 3420 0
1037 3420 0
1038 3420 0.49726039206134764
1039 3420 -0
1040 3420 -0
1041 3420 -0.99668365524927816
1042 3420 -0
1043 3420 -0
1044 3420 -0.49611791657971638
2257 3420 0
2258 3420 0
2259 3420 0
2260 3420 0
2261 3420 0
2262 3420 0.70516692496269695
2623 3420 -0
2624 3420 -0
2625 3420 -0
2626 3420 -0
2627 3420 -0
2628 3420 -0.70516692496269695
175 3421 0.01662412773633716
176 3421 0
177 3421 0
178 3421 0
179 3421 0
180 3421 0
181 3421 -0.016738711515653665
182 3421 5.1859358331731552e-06
183 3421 -0
184 3421 -0.00011420378000142444
185 3421 7.763820444667679e-06
186 3421 -0
1885 3421 -0.70516692496269695
1886 3421 -0
1887 3421 -0
1888 3421 -0
1889 3421 -0
1890 3421 -0
2983 3421 0.70516692496269695
2984 3421 0
2985 3421 0
2986 3421 0
2987 3421 0
2988 3421 0
175 3422 0
176 3422 0.016643240039254284
177 3422 0
178 3422 0
179 3422 0
180 3422 0
181 3422 -0
182 3422 -0.016643240039254253
183 3422 -0
184 3422 -0
185 3422 -0
186 3422 -0
1885 3422 -0
1886 3422 -0.70516692496269695
1887 3422 -0
1888 3422 -0
1889 3422 -0
1890 3422 -0
2983 3422 0
2984 3422 0.70516692496269695
2985 3422 0
2986 3422 0
2987 3422 0
2988 3422 0
175 3423 0
176 3423 0
177 3423 0.016624127736337181
178 3423 0
179 3423 0
180 3423 0
181 3423 -0
182 3423 -0
183 3423 -0.016585933143231667
184 3423 -0
185 3423 -0
186 3423 3.8067926667141391e-05
1885 3423 -0
1886 3423 -0
1887 3423 -0.70516692496269695
1888 3423 -0
1889 3423 -0
1890 3423 -0
2983 3423 0
2984 3423 0
2985 3423 0.70516692496269695
2986 3423 0
2987 3423 0
2988 3423 0
175 3424 0
176 3424 0
177 3424 0
178 3424 0.49726039206134737
179 3424 0
180 3424 0
181 3424 -0.99668365524927938
182 3424 0.067678768813813697
183 3424 -0
184 3424 -0.49611791657971721
185 3424 0.067532010077255816
186 3424 -0
1885 3424 -0
1886 3424 -0
1887 3424 -0
1888 3424 -0.70516692496269695
1889 3424 -0
1890 3424 -0
2983 3424 0
2984 3424 0
2985 3424 0
2986 3424 0.70516692496269695
2987 3424 0
2988 3424 0
175 3425 0
176 3425 0
177 3425 0
178 3425 0
179 3425 0.49840543371991375
180 3425 0
181 3425 -0.067601049744234934
182 3425 -0.99553485319114277
183 3425 -0
184 3425 -0.067376861357772475
185 3425 -0.49382500867881207
186 3425 -0
1885 3425 -0
1886 3425 -0
1887 3425 -0
1888 3425 -0
1889 3425 -0.70516692496269695
1890 3425 -0
2983 3425 0
2984 3425 0
2985 3425 0
2986 3425 0
2987 3425 0.70516692496269695
2988 3425 0
175 3426 0
176 3426 0
177 3426 0
178 3426 0
179 3426 0
180 3426 0.49726039206134764
181 3426 -0
182 3426 -0
183 3426 -0.99668365524927816
184 3426 -0
185 3426 -0
186 3426 -0.49611791657971638
1885 3426 -0
1886 3426 -0
1887 3426 -0
1888 3426 -0
1889 3426 -0
1890 3426 -0.70516692496269695
2983 3426 0
2984 3426 0
2985 3426 0
2986 3426 0
2987 3426 0
2988 3426 0.70516692496269695
181 3427 0.01662412773633716
182 3427 0
183 3427 0
184 3427 0
185 3427 0
186 3427 0
187 3427 -0.016738711515653665
188 3427 5.1859358331731552e-06
189 3427 -0
190 3427 -0.00011420378000142444
191 3427 7.763820444667679e-06
192 3427 -0
1891 3427 -0.70516692496269695
1892 3427 -0
1893 3427 -0
1894 3427 -0
1895 3427 -0
1896 3427 -0
2989 3427 0.70516692496269695
2990 3427 0
2991 3427 0
2992 3427 0
2993 3427 0
2994 3427 0
181 3428 0
182 3428 0.016643240039254284
183 3428 0
184 3428 0
185 3428 0
186 3428 0
187 3428 -0
188 3428 -0.016643240039254253
189 3428 -0
190 3428 -0
191 3428 -0
192 3428 -0
1891 3428 -0
1892 3428 -0.70516692496269695
1893 3428 -0
1894 3428 -0
1895 3428 -0
1896 3428 -0
2989 3428 0
2990 3428 0.70516692496269695
2991 3428 0
2992 3428 0
2993 3428 0
2994 3428 0
181 3429 0
182 3429 0
183 3429 0.016624127736337181
184 3429 0
185 3429 0
186 3429 0
187 3429 -0
188 3429 -0
189 3429 -0.016585933143231667
190 3429 -0
191 3429 -0
192 3429 3.8067926667141391e-05
1891 3429 -0
1892 3429 -0
1893 3429 -0.70516692496269695
1894 3429 -0
1895 3429 -0
1896 3429 -0
2989 3429 0
2990 3429 0
2991 3429 0.70516692496269695
2992 3429 0
2993 3429 0
2994 3429 0
181 3430 0
182 3430 0
183 3430 0
184 3430 0.49726039206134737
185 3430 0
186 3430 0
187 3430 -0.99668365524927938
188 3430 0.067678768813813697
189 3430 -0
190 3430 -0.49611791657971721
191 3430 0.067532010077255816
192 3430 -0
1891 3430 -0
1892 3430 -0
1893 3430 -0
1894 3430 -0.70516692496269695
1895 3430 -0
1896 3430 -0
2989 3430 0
2990 3430 0
2991 3430 0
2992 3430 0.70516692496269695
2993 3430 0
2994 3430 0
181 3431 0
182 3431 0
183 3431 0
184 3431 0
185 3431 0.49840543371991375
186 3431 0
187 3431 -0.067601049744234934
188 3431 -0.99553485319114277
189 3431 -0
190 3431 -0.067376861357772475
191 3431 -0.49382500867881207
192 3431 -0
1891 3431 -0
1892 3431 -0
1893 3431 -0
1894 3431 -0
1895 3431 -0.70516692496269695
1896 3431 -0
2989 3431 0
2990 3431 0
2991 3431 0
2992 3431 0
2993 3431 0.70516692496269695
2994 3431 0
181 3432 0
182 3432 0
183 3432 0
184 3432 0
185 3432 0
186 3432 0.49726039206134764
187 3432 -0
188 3432 -0
189 3432 -0.99668365524927816
190 3432 -0
191 3432 -0
192 3432 -0.49611791657971638
1891 3432 -0
1892 3432 -0
1893 3432 -0
1894 3432 -0
1895 3432 -0
1896 3432 -0.70516692496269695
2989 3432 0
2990 3432 0
2991 3432 0
2992 3432 0
2993 3432 0
2994 3432 0.70516692496269695
607 3433 0.01662412773633716
608 3433 0
609 3433 0
610 3433 0
611 3433 0
612 3433 0
613 3433 -0.016738711515653665
614 3433 5.1859358331731552e-06
615 3433 -0
616 3433 -0.00011420378000142444
617 3433 7.763820444667679e-06
618 3433 -0
1891 3433 0.70516692496269695
1892 3433 0
1893 3433 0
1894 3433 0
1895 3433 0
1896 3433 0
2257 3433 -0.70516692496269695
2258 3433 -0
2259 3433 -0
2260 3433 -0
2261 3433 -0
2262 3433 -0
607 3434 0
608 3434 0.016643240039254284
609 3434 0
610 3434 0
611 3434 0
612 3434 0
613 3434 -0
614 3434 -0.016643240039254253
615 3434 -0
616 3434 -0
617 3434 -0
618 3434 -0
1891 3434 0
1892 3434 0.70516692496269695
1893 3434 0
1894 3434 0
1895 3434 0
1896 3434 0
2257 3434 -0
2258 3434 -0.70516692496269695
2259 3434 -0
2260 3434 -0
2261 3434 -0
2262 3434 -0
607 3435 0
608 3435 0
609 3435 0.016624127736337181
610 3435 0
611 3435 0
612 3435 0
613 3435 -0
614 3435 -0
615 3435 -0.016585933143231667
616 3435 -0
617 3435 -0
618 3435 3.8067926667141391e-05
1891 3435 0
1892 3435 0
1893 3435 0.70516692496269695
1894 3435 0
1895 3435 0
1896 3435 0
2257 3435 -0
2258 3435 -0
2259 3435 -0.70516692496269695
2260 3435 -0
2261 3435 -0
2262 3435 -0
607 3436 0
608 3436 0
609 3436 0
610 3436 0.49726039206134737
611 3436 0
612 3436 0
613 3436 -0.99668365524927938
614 3436 0.067678768813813697
615 3436 -0
616 3436 -0.49611791657971721
617 3436 0.067532010077255816
618 3436 -0
1891 3436 0
1892 3436 0
1893 3436 0
1894 3436 0.70516692496269695
1895 3436 0
1896 3436 0
2257 3436 -0
2258 3436 -0
2259 3436 -0
2260 3436 -0.70516692496269695
2261 3436 -0
2262 3436 -0
607 3437 0
608 3437 0
609 3437 0
610 3437 0
611 3437 0.49840543371991375
612 3437 0
613 3437 -0.067601049744234934
614 3437 -0.99553485319114277
615 3437 -0
616 3437 -0.067376861357772475
617 3437 -0.49382500867881207
618 3437 -0
1891 3437 0
1892 3437 0
1893 3437 0
1894 3437 0
1895 3437 0.70516692496269695
1896 3437 0
2257 3437 -0
2258 3437 -0
2259 3437 -0
2260 3437 -0
2261 3437 -0.70516692496269695
2262 3437 -0
607 3438 0
608 3438 0
609 3438 0
610 3438 0
611 3438 0
612 3438 0.49726039206134764
613 3438 -0
614 3438 -0
615 3438 -0.99668365524927816
616 3438 -0
617 3438 -0
618 3438 -0.49611791657971638
1891 3438 0
1892 3438 0
1893 3438 0
1894 3438 0
1895 3438 0
1896 3438 0.70516692496269695
2257 3438 -0
2258 3438 -0
2259 3438 -0
2260 3438 -0
2261 3438 -0
2262 3438 -0.70516692496269695
613 3439 0.01662412773633716
614 3439 0
615 3439 0
616 3439 0
617 3439 0
618 3439 0
619 3439 -0.016738711515653665
620 3439 5.1859358331731552e-06
621 3439 -0
622 3439 -0.00011420378000142444
623 3439 7.763820444667679e-06
624 3439 -0
1897 3439 0.70516692496269695
1898 3439 0
1899 3439 0
1900 3439 0
1901 3439 0
1902 3439 0
2263 3439 -0.70516692496269695
2264 3439 -0
2265 3439 -0
2266 3439 -0
2267 3439 -0
2268 3439 -0
613 3440 0
614 3440 0.016643240039254284
615 3440 0
616 3440 0
617 3440 0
618 3440 0
619 3440 -0
620 3440 -0.016643240039254253
621 3440 -0
622 3440 -0
623 3440 -0
624 3440 -0
1897 3440 0
1898 3440 0.70516692496269695
1899 3440 0
1900 3440 0
1901 3440 0
1902 3440 0
2263 3440 -0
2264 3440 -0.70516692496269695
2265 3440 -0
2266 3440 -0
2267 3440 -0
2268 3440 -0
613 3441 0
614 3441 0
615 3441 0.016624127736337181
616 3441 0
617 3441 0
618 3441 0
619 3441 -0
620 3441 -0
621 3441 -0.016585933143231667
622 3441 -0
623 3441 -0
624 3441 3.8067926667141391e-05
1897 3441 0
1898 3441 0
1899 3441 0.70516692496269695
1900 3441 0
1901 3441 0
1902 3441 0
2263 3441 -0
2264 3441 -0
2265 3441 -0.70516692496269695
2266 3441 -0
2267 3441 -0
2268 3441 -0
613 3442 0
614 3442 0
615 3442 0
616 3442 0.49726039206134737
617 3442 0
618 3442 0
619 3442 -0.99668365524927938
620 3442 0.067678768813813697
621 3442 -0
622 3442 -0.49611791657971721
623 3442 0.067532010077255816
624 3442 -0
1897 3442 0
1898 3442 0
1899 3442 0
1900 3442 0.70516692496269695
1901 3442 0
1902 3442 0
2263 3442 -0
2264 3442 -0
2265 3442 -0
2266 3442 -0.70516692496269695
2267 3442 -0
2268 3442 -0
613 3443 0
614 3443 0
615 3443 0
616 3443 0
617 3443 0.49840543371991375
618 3443 0
619 3443 -0.067601049744234934
620 3443 -0.99553485319114277
621 3443 -0
622 3443 -0.067376861357772475
623 3443 -0.49382500867881207
624 3443 -0
1897 3443 0
1898 3443 0
1899 3443 0
1900 3443 0
1901 3443 0.70516692496269695
1902 3443 0
2263 3443 -0
2264 3443 -0
2265 3443 -0
2266 3443 -0
2267 3443 -0.70516692496269695
2268 3443 -0
613 3444 0
614 3444 0
615 3444 0
616 3444 0
617 3444 0
618 3444 0.49726039206134764
619 3444 -0
620 3444 -0
621 3444 -0.99668365524927816
622 3444 -0
623 3444 -0
624 3444 -0.49611791657971638
1897 3444 0
1898 3444 0
1899 3444 0
1900 3444 0
1901 3444 0
1902 3444 0.70516692496269695
2263 3444 -0
2264 3444 -0
2265 3444 -0
2266 3444 -0
2267 3444 -0
2268 3444 -0.70516692496269695
1459 3445 0.01662412773633716
1460 3445 0
1461 3445 0
1462 3445 0
1463 3445 0
1464 3445 0
1465 3445 -0.016738711515653665
1466 3445 5.1859358331731552e-06
1467 3445 -0
1468 3445 -0.00011420378000142444
1469 3445 7.763820444667679e-06
1470 3445 -0
2623 3445 0.70516692496269695
2624 3445 0
2625 3445 0
2626 3445 0
2627 3445 0
2628 3445 0
2989 3445 -0.70516692496269695
2990 3445 -0
2991 3445 -0
2992 3445 -0
2993 3445 -0
2994 3445 -0
1459 3446 0
1460 3446 0.016643240039254284
1461 3446 0
1462 3446 0
1463 3446 0
1464 3446 0
1465 3446 -0
1466 3446 -0.016643240039254253
1467 3446 -0
1468 3446 -0
1469 3446 -0
1470 3446 -0
2623 3446 0
2624 3446 0.70516692496269695
2625 3446 0
2626 3446 0
2627 3446 0
2628 3446 0
2989 3446 -0
2990 3446 -0.70516692496269695
2991 3446 -0
2992 3446 -0
2993 3446 -0
2994 3446 -0
1459 3447 0
1460 3447 0
1461 3447 0.016624127736337181
1462 3447 0
1463 3447 0
1464 3447 0
1465 3447 -0
1466 3447 -0
1467 3447 -0.016585933143231667
1468 3447 -0
1469 3447 -0
1470 3447 3.8067926667141391e-05
2623 3447 0
2624 3447 0
2625 3447 0.70516692496269695
2626 3447 0
2627 3447 0
2628 3447 0
2989 3447 -0
2990 3447 -0
2991 3447 -0.70516692496269695
2992 3447 -0
2993 3447 -0
2994 3447 -0
1459 3448 0
1460 3448 0
1461 3448 0
1462 3448 0.49726039206134737
1463 3448 0
1464 3448 0
1465 3448 -0.99668365524927938
1466 3448 0.067678768813813697
1467 3448 -0
1468 3448 -0.49611791657971721
1469 3448 0.067532010077255816
1470 3448 -0
2623 3448 0
2624 3448 0
2625 3448 0
2626 3448 0.70516692496269695
2627 3448 0
2628 3448 0
2989 3448 -0
2990 3448 -0
2991 3448 -0
2992 3448 -0.70516692496269695
2993 3448 -0
2994 3448 -0
1459 3449 0
1460 3449 0
1461 3449 0
1462 3449 0
1463 3449 0.49840543371991375
1464 3449 0
1465 3449 -0.067601049744234934
1466 3449 -0.99553485319114277
1467 3449 -0
1468 3449 -0.067376861357772475
1469 3449 -0.49382500867881207
1470 3449 -0
2623 3449 0
2624 3449 0
2625 3449 0
2626 3449 0
2627 3449 0.70516692496269695
2628 3449 0
2989 3449 -0
2990 3449 -0
2991 3449 -0
2992 3449 -0
2993 3449 -0.70516692496269695
2994 3449 -0
1459 3450 0
1460 3450 0
1461 3450 0
1462 3450 0
1463 3450 0
1464 3450 0.49726039206134764
1465 3450 -0
1466 3450 -0
1467 3450 -0.99668365524927816
1468 3450 -0
1469 3450 -0
1470 3450 -0.49611791657971638
2623 3450 0
2624 3450 0
2625 3450 0
2626 3450 0
2627 3450 0
2628 3450 0.70516692496269695
2989 3450 -0
2990 3450 -0
2991 3450 -0
2992 3450 -0
2993 3450 -0
2994 3450 -0.70516692496269695
1465 3451 0.01662412773633716
1466 3451 0
1467 3451 0
1468 3451 0
1469 3451 0
1470 3451 0
1471 3451 -0.016738711515653665
1472 3451 5.1859358331731552e-06
1473 3451 -0
1474 3451 -0.00011420378000142444
1475 3451 7.763820444667679e-06
1476 3451 -0
2629 3451 0.70516692496269695
2630 3451 0
2631 3451 0
2632 3451 0
2633 3451 0
2634 3451 0
2995 3451 -0.70516692496269695
2996 3451 -0
2997 3451 -0
2998 3451 -0
2999 3451 -0
3000 3451 -0
1465 3452 0
1466 3452 0.016643240039254284
1467 3452 0
1468 3452 0
1469 3452 0
1470 3452 0
1471 3452 -0
1472 3452 -0.016643240039254253
1473 3452 -0
1474 3452 -0
1475 3452 -0
1476 3452 -0
2629 3452 0
2630 3452 0.70516692496269695
2631 3452 0
2632 3452 0
2633 3452 0
2634 3452 0
2995 3452 -0
2996 3452 -0.70516692496269695
2997 3452 -0
2998 3452 -0
2999 3452 -0
3000 3452 -0
1465 3453 0
1466 3453 0
1467 3453 0.016624127736337181
1468 3453 0
1469 3453 0
1470 3453 0
1471 3453 -0
1472 3453 -0
1473 3453 -0.016585933143231667
1474 3453 -0
1475 3453 -0
1476 3453 3.8067926667141391e-05
2629 3453 0
2630 3453 0
2631 3453 0.70516692496269695
2632 3453 0
2633 3453 0
2634 3453 0
2995 3453 -0
2996 3453 -0
2997 3453 -0.70516692496269695
2998 3453 -0
2999 3453 -0
3000 3453 -0
1465 3454 0
1466 3454 0
1467 3454 0
1468 3454 0.49726039206134737
1469 3454 0
1470 3454 0
1471 3454 -0.99668365524927938
1472 3454 0.067678768813813697
1473 3454 -0
1474 3454 -0.49611791657971721
1475 3454 0.067532010077255816
1476 3454 -0
2629 3454 0
2630 3454 0
2631 3454 0
2632 3454 0.70516692496269695
2633 3454 0
2634 3454 0
2995 3454 -0
2996 3454 -0
2997 3454 -0
2998 3454 -0.70516692496269695
2999 3454 -0
3000 3454 -0
1465 3455 0
1466 3455 0
1467 3455 0
1468 3455 0
1469 3455 0.49840543371991375
1470 3455 0
1471 3455 -0.067601049744234934
1472 3455 -0.99553485319114277
1473 3455 -0
1474 3455 -0.067376861357772475
1475 3455 -0.49382500867881207
1476 3455 -0
2629 3455 0
2630 3455 0
2631 3455 0
2632 3455 0
2633 3455 0.70516692496269695
2634 3455 0
2995 3455 -0
2996 3455 -0
2997 3455 -0
2998 3455 -0
2999 3455 -0.70516692496269695
3000 3455 -0
1465 3456 0
1466 3456 0
1467 3456 0
1468 3456 0
1469 3456 0
1470 3456 0.49726039206134764
1471 3456 -0
1472 3456 -0
1473 3456 -0.99668365524927816
1474 3456 -0
1475 3456 -0
1476 3456 -0.49611791657971638
2629 3456 0
2630 3456 0
2631 3456 0
2632 3456 0
2633 3456 0
2634 3456 0.70516692496269695
2995 3456 -0
2996 3456 -0
2997 3456 -0
2998 3456 -0
2999 3456 -0
3000 3456 -0.70516692496269695
187 3457 0.01662412773633716
188 3457 0
189 3457 0
190 3457 0
191 3457 0
192 3457 0
193 3457 -0.016738711515653665
194 3457 5.1859358331731552e-06
195 3457 -0
196 3457 -0.00011420378000142444
197 3457 7.763820444667679e-06
198 3457 -0
1897 3457 -0.70516692496269695
1898 3457 -0
1899 3457 -0
1900 3457 -0
1901 3457 -0
1902 3457 -0
2995 3457 0.70516692496269695
2996 3457 0
2997 3457 0
2998 3457 0
2999 3457 0
3000 3457 0
187 3458 0
188 3458 0.016643240039254284
189 3458 0
190 3458 0
191 3458 0
192 3458 0
193 3458 -0
194 3458 -0.016643240039254253
195 3458 -0
196 3458 -0
197 3458 -0
198 3458 -0
1897 3458 -0
1898 3458 -0.70516692496269695
1899 3458 -0
1900 3458 -0
1901 3458 -0
1902 3458 -0
2995 3458 0
2996 3458 0.70516692496269695
2997 3458 0
2998 3458 0
2999 3458 0
3000 3458 0
187 3459 0
188 3459 0
189 3459 0.016624127736337181
190 3459 0
191 3459 0
192 3459 0
193 3459 -0
194 3459 -0
195 3459 -0.016585933143231667
196 3459 -0
197 3459 -0
198 3459 3.8067926667141391e-05
1897 3459 -0
1898 3459 -0
1899 3459 -0.70516692496269695
1900 3459 -0
1901 3459 -0
1902 3459 -0
2995 3459 0
2996 3459 0
2997 3459 0.70516692496269695
2998 3459 0
2999 3459 0
3000 3459 0
187 3460 0
188 3460 0
189 3460 0
190 3460 0.49726039206134737
191 3460 0
192 3460 0
193 3460 -0.99668365524927938
194 3460 0.067678768813813697
195 3460 -0
196 3460 -0.49611791657971721
197 3460 0.067532010077255816
198 3460 -0
1897 3460 -0
1898 3460 -0
1899 3460 -0
1900 3460 -0.70516692496269695
1901 3460 -0
1902 3460 -0
2995 3460 0
2996 3460 0
2997 3460 0
2998 3460 0.70516692496269695
2999 3460 0
3000 3460 0
187 3461 0
188 3461 0
189 3461 0
190 3461 0
191 3461 0.49840543371991375
192 3461 0
193 3461 -0.067601049744234934
194 3461 -0.99553485319114277
195 3461 -0
196 3461 -0.067376861357772475
197 3461 -0.49382500867881207
198 3461 -0
1897 3461 -0
1898 3461 -0
1899 3461 -0
1900 3461 -0
1901 3461 -0.70516692496269695
1902 3461 -0
2995 3461 0
2996 3461 0
2997 3461 0
2998 3461 0
2999 3461 0.70516692496269695
3000 3461 0
187 3462 0
188 3462 0
189 3462 0
190 3462 0
191 3462 0
192 3462 0.49726039206134764
193 3462 -0
194 3462 -0
195 3462 -0.99668365524927816
196 3462 -0
197 3462 -0
198 3462 -0.49611791657971638
1897 3462 -0
1898 3462 -0
1899 3462 -0
1900 3462 -0
1901 3462 -0
1902 3462 -0.70516692496269695
2995 3462 0
2996 3462 0
2997 3462 0
2998 3462 0
2999 3462 0
3000 3462 0.70516692496269695
193 3463 0.01662412773633716
194 3463 0
195 3463 0
196 3463 0
197 3463 0
198 3463 0
199 3463 -0.016738711515653665
200 3463 5.1859358331731552e-06
201 3463 -0
202 3463 -0.00011420378000142444
203 3463 7.763820444667679e-06
204 3463 -0
1903 3463 -0.70516692496269695
1904 3463 -0
1905 3463 -0
1906 3463 -0
1907 3463 -0
1908 3463 -0
3001 3463 0.70516692496269695
3002 3463 0
3003 3463 0
3004 3463 0
3005 3463 0
3006 3463 0
193 3464 0
194 3464 0.016643240039254284
195 3464 0
196 3464 0
197 3464 0
198 3464 0
199 3464 -0
200 3464 -0.016643240039254253
201 3464 -0
202 3464 -0
203 3464 -0
204 3464 -0
1903 3464 -0
1904 3464 -0.70516692496269695
1905 3464 -0
1906 3464 -0
1907 3464 -0
1908 3464 -0
3001 3464 0
3002 3464 0.70516692496269695
3003 3464 0
3004 3464 0
3005 3464 0
3006 3464 0
193 3465 0
194 3465 0
195 3465 0.016624127736337181
196 3465 0
197 3465 0
198 3465 0
199 3465 -0
200 3465 -0
201 3465 -0.016585933143231667
202 3465 -0
203 3465 -0
204 3465 3.8067926667141391e-05
1903 3465 -0
1904 3465 -0
1905 3465 -0.70516692496269695
1906 3465 -0
1907 3465 -0
1908 3465 -0
3001 3465 0
3002 3465 0
3003 3465 0.70516692496269695
3004 3465 0
3005 3465 0
3006 3465 0
193 3466 0
194 3466 0
195 3466 0
196 3466 0.49726039206134737
197 3466 0
198 3466 0
199 3466 -0.99668365524927938
200 3466 0.067678768813813697
201 3466 -0
202 3466 -0.49611791657971721
203 3466 0.067532010077255816
204 3466 -0
1903 3466 -0
1904 3466 -0
1905 3466 -0
1906 3466 -0.70516692496269695
1907 3466 -0
1908 3466 -0
3001 3466 0
3002 3466 0
3003 3466 0
3004 3466 0.70516692496269695
3005 3466 0
3006 3466 0
193 3467 0
194 3467 0
195 3467 0
196 3467 0
197 3467 0.49840543371991375
198 3467 0
199 3467 -0.067601049744234934
200 3467 -0.99553485319114277
201 3467 -0
202 3467 -0.067376861357772475
203 3467 -0.49382500867881207
204 3467 -0
1903 3467 -0
1904 3467 -0
1905 3467 -0
1906 3467 -0
1907 3467 -0.70516692496269695
1908 3467 -0
3001 3467 0
3002 3467 0
3003 3467 0
3004 3467 0
3005 3467 0.70516692496269695
3006 3467 0
193 3468 0
194 3468 0
195 3468 0
196 3468 0
197 3468 0
198 3468 0.49726039206134764
199 3468 -0
200 3468 -0
201 3468 -0.99668365524927816
202 3468 -0
203 3468 -0
204 3468 -0.49611791657971638
1903 3468 -0
1904 3468 -0
1905 3468 -0
1906 3468 -0
1907 3468 -0
1908 3468 -0.70516692496269695
3001 3468 0
3002 3468 0
3003 3468 0
3004 3468 0
3005 3468 0
3006 3468 0.70516692496269695
1039 3469 0.01662412773633716
1040 3469 0
1041 3469 0
1042 3469 0
1043 3469 0
1044 3469 0
1045 3469 -0.016738711515653665
1046 3469 5.1859358331731552e-06
1047 3469 -0
1048 3469 -0.00011420378000142444
1049 3469 7.763820444667679e-06
1050 3469 -0
2263 3469 0.70516692496269695
2264 3469 0
2265 3469 0
2266 3469 0
2267 3469 0
2268 3469 0
2629 3469 -0.70516692496269695
2630 3469 -0
2631 3469 -0
2632 3469 -0
2633 3469 -0
2634 3469 -0
1039 3470 0
1040 3470 0.016643240039254284
1041 3470 0
1042 3470 0
1043 3470 0
1044 3470 0
1045 3470 -0
1046 3470 -0.016643240039254253
1047 3470 -0
1048 3470 -0
1049 3470 -0
1050 3470 -0
2263 3470 0
2264 3470 0.70516692496269695
2265 3470 0
2266 3470 0
2267 3470 0
2268 3470 0
2629 3470 -0
2630 3470 -0.70516692496269695
2631 3470 -0
2632 3470 -0
2633 3470 -0
2634 3470 -0
1039 3471 0
1040 3471 0
1041 3471 0.016624127736337181
1042 3471 0
1043 3471 0
1044 3471 0
1045 3471 -0
1046 3471 -0
1047 3471 -0.016585933143231667
1048 3471 -0
1049 3471 -0
1050 3471 3.8067926667141391e-05
2263 3471 0
2264 3471 0
2265 3471 0.70516692496269695
2266 3471 0
2267 3471 0
2268 3471 0
2629 3471 -0
2630 3471 -0
2631 3471 -0.70516692496269695
2632 3471 -0
2633 3471 -0
2634 3471 -0
1039 3472 0
1040 3472 0
1041 3472 0
1042 3472 0.49726039206134737
1043 3472 0
1044 3472 0
1045 3472 -0.99668365524927938
1046 3472 0.067678768813813697
1047 3472 -0
1048 3472 -0.49611791657971721
1049 3472 0.067532010077255816
1050 3472 -0
2263 3472 0
2264 3472 0
2265 3472 0
2266 3472 0.70516692496269695
2267 3472 0
2268 3472 0
2629 3472 -0
2630 3472 -0
2631 3472 -0
2632 3472 -0.70516692496269695
2633 3472 -0
2634 3472 -0
1039 3473 0
1040 3473 0
1041 3473 0
1042 3473 0
1043 3473 0.49840543371991375
1044 3473 0
1045 3473 -0.067601049744234934
1046 3473 -0.99553485319114277
1047 3473 -0
1048 3473 -0.067376861357772475
1049 3473 -0.49382500867881207
1050 3473 -0
2263 3473 0
2264 3473 0
2265 3473 0
2266 3473 0
2267 3473 0.70516692496269695
2268 3473 0
2629 3473 -0
2630 3473 -0
2631 3473 -0
2632 3473 -0
2633 3473 -0.70516692496269695
2634 3473 -0
1039 3474 0
1040 3474 0
1041 3474 0
1042 3474 0
1043 3474 0
1044 3474 0.49726039206134764
1045 3474 -0
1046 3474 -0
1047 3474 -0.99668365524927816
1048 3474 -0
1049 3474 -0
1050 3474 -0.49611791657971638
2263 3474 0
2264 3474 0
2265 3474 0
2266 3474 0
2267 3474 0
2268 3474 0.70516692496269695
2629 3474 -0
2630 3474 -0
2631 3474 -0
2632 3474 -0
2633 3474 -0
2634 3474 -0.70516692496269695
1045 3475 0.01662412773633716
1046 3475 0
1047 3475 0
1048 3475 0
1049 3475 0
1050 3475 0
1051 3475 -0.016738711515653665
1052 3475 5.1859358331731552e-06
1053 3475 -0
1054 3475 -0.00011420378000142444
1055 3475 7.763820444667679e-06
1056 3475 -0
2269 3475 0.70516692496269695
2270 3475 0
2271 3475 0
2272 3475 0
2273 3475 0
2274 3475 0
2635 3475 -0.70516692496269695
2636 3475 -0
2637 3475 -0
2638 3475 -0
2639 3475 -0
2640 3475 -0
1045 3476 0
1046 3476 0.016643240039254284
1047 3476 0
1048 3476 0
1049 3476 0
1050 3476 0
1051 3476 -0
1052 3476 -0.016643240039254253
1053 3476 -0
1054 3476 -0
1055 3476 -0
1056 3476 -0
2269 3476 0
2270 3476 0.70516692496269695
2271 3476 0
2272 3476 0
2273 3476 0
2274 3476 0
2635 3476 -0
2636 3476 -0.70516692496269695
2637 3476 -0
2638 3476 -0
2639 3476 -0
2640 3476 -0
1045 3477 0
1046 3477 0
1047 3477 0.016624127736337181
1048 3477 0
1049 3477 0
1050 3477 0
1051 3477 -0
1052 3477 -0
1053 3477 -0.016585933143231667
1054 3477 -0
1055 3477 -0
1056 3477 3.8067926667141391e-05
2269 3477 0
2270 3477 0
2271 3477 0.70516692496269695
2272 3477 0
2273 3477 0
2274 3477 0
2635 3477 -0
2636 3477 -0
2637 3477 -0.70516692496269695
2638 3477 -0
2639 3477 -0
2640 3477 -0
1045 3478 0
1046 3478 0
1047 3478 0
1048 3478 0.49726039206134737
1049 3478 0
1050 3478 0
1051 3478 -0.99668365524927938
1052 3478 0.067678768813813697
1053 3478 -0
1054 3478 -0.49611791657971721
1055 3478 0.067532010077255816
1056 3478 -0
2269 3478 0
2270 3478 0
2271 3478 0
2272 3478 0.70516692496269695
2273 3478 0
2274 3478 0
2635 3478 -0
2636 3478 -0
2637 3478 -0
2638 3478 -0.70516692496269695
2639 3478 -0
2640 3478 -0
1045 3479 0
1046 3479 0
1047 3479 0
1048 3479 0
1049 3479 0.49840543371991375
1050 3479 0
1051 3479 -0.067601049744234934
1052 3479 -0.99553485319114277
1053 3479 -0
1054 3479 -0.067376861357772475
1055 3479 -0.49382500867881207
1056 3479 -0
2269 3479 0
2270 3479 0
2271 3479 0
2272 3479 0
2273 3479 0.70516692496269695
2274 3479 0
2635 3479 -0
2636 3479 -0
2637 3479 -0
2638 3479 -0
2639 3479 -0.70516692496269695
2640 3479 -0
1045 3480 0
1046 3480 0
1047 3480 0
1048 3480 0
1049 3480 0
1050 3480 0.49726039206134764
1051 3480 -0
1052 3480 -0
1053 3480 -0.99668365524927816
1054 3480 -0
1055 3480 -0
1056 3480 -0.49611791657971638
2269 3480 0
2270 3480 0
2271 3480 0
2272 3480 0
2273 3480 0
2274 3480 0.70516692496269695
2635 3480 -0
2636 3480 -0
2637 3480 -0
2638 3480 -0
2639 3480 -0
2640 3480 -0.70516692496269695
1471 3481 0.01662412773633716
1472 3481 0
1473 3481 0
1474 3481 0
1475 3481 0
1476 3481 0
1477 3481 -0.016738711515653665
1478 3481 5.1859358331731552e-06
1479 3481 -0
1480 3481 -0.00011420378000142444
1481 3481 7.763820444667679e-06
1482 3481 -0
2635 3481 0.70516692496269695
2636 3481 0
2637 3481 0
2638 3481 0
2639 3481 0
2640 3481 0
3001 3481 -0.70516692496269695
3002 3481 -0
3003 3481 -0
3004 3481 -0
3005 3481 -0
3006 3481 -0
1471 3482 0
1472 3482 0.016643240039254284
1473 3482 0
1474 3482 0
1475 3482 0
1476 3482 0
1477 3482 -0
1478 3482 -0.016643240039254253
1479 3482 -0
1480 3482 -0
1481 3482 -0
1482 3482 -0
2635 3482 0
2636 3482 0.70516692496269695
2637 3482 0
2638 3482 0
2639 3482 0
2640 3482 0
3001 3482 -0
3002 3482 -0.70516692496269695
3003 3482 -0
3004 3482 -0
3005 3482 -0
3006 3482 -0
1471 3483 0
1472 3483 0
1473 3483 0.016624127736337181
1474 3483 0
1475 3483 0
1476 3483 0
1477 3483 -0
1478 3483 -0
1479 3483 -0.016585933143231667
1480 3483 -0
1481 3483 -0
1482 3483 3.8067926667141391e-05
2635 3483 0
2636 3483 0
2637 3483 0.70516692496269695
2638 3483 0
2639 3483 0
2640 3483 0
3001 3483 -0
3002 3483 -0
3003 3483 -0.70516692496269695
3004 3483 -0
3005 3483 -0
3006 3483 -0
1471 3484 0
1472 3484 0
1473 3484 0
1474 3484 0.49726039206134737
1475 3484 0
1476 3484 0
1477 3484 -0.99668365524927938
1478 3484 0.067678768813813697
1479 3484 -0
1480 3484 -0.49611791657971721
1481 3484 0.067532010077255816
1482 3484 -0
2635 3484 0
2636 3484 0
2637 3484 0
2638 3484 0.70516692496269695
2639 3484 0
2640 3484 0
3001 3484 -0
3002 3484 -0
3003 3484 -0
3004 3484 -0.70516692496269695
3005 3484 -0
3006 3484 -0
1471 3485 0
1472 3485 0
1473 3485 0
1474 3485 0
1475 3485 0.49840543371991375
1476 3485 0
1477 3485 -0.067601049744234934
1478 3485 -0.99553485319114277
1479 3485 -0
1480 3485 -0.067376861357772475
1481 3485 -0.49382500867881207
1482 3485 -0
2635 3485 0
2636 3485 0
2637 3485 0
2638 3485 0
2639 3485 0.70516692496269695
2640 3485 0
3001 3485 -0
3002 3485 -0
3003 3485 -0
3004 3485 -0
3005 3485 -0.70516692496269695
3006 3485 -0
1471 3486 0
1472 3486 0
1473 3486 0
1474 3486 0
1475 3486 0
1476 3486 0.49726039206134764
1477 3486 -0
1478 3486 -0
1479 3486 -0.99668365524927816
1480 3486 -0
1481 3486 -0
1482 3486 -0.49611791657971638
2635 3486 0
2636 3486 0
2637 3486 0
2638 3486 0
2639 3486 0
2640 3486 0.70516692496269695
3001 3486 -0
3002 3486 -0
3003 3486 -0
3004 3486 -0
3005 3486 -0
3006 3486 -0.70516692496269695
1477 3487 0.01662412773633716
1478 3487 0
1479 3487 0
1480 3487 0
1481 3487 0
1482 3487 0
1483 3487 -0.016738711515653665
1484 3487 5.1859358331731552e-06
1485 3487 -0
1486 3487 -0.00011420378000142444
1487 3487 7.763820444667679e-06
1488 3487 -0
2641 3487 0.70516692496269695
2642 3487 0
2643 3487 0
2644 3487 0
2645 3487 0
2646 3487 0
3007 3487 -0.70516692496269695
3008 3487 -0
3009 3487 -0
3010 3487 -0
3011 3487 -0
3012 3487 -0
1477 3488 0
1478 3488 0.016643240039254284
1479 3488 0
1480 3488 0
1481 3488 0
1482 3488 0
1483 3488 -0
1484 3488 -0.016643240039254253
1485 3488 -0
1486 3488 -0
1487 3488 -0
1488 3488 -0
2641 3488 0
2642 3488 0.70516692496269695
2643 3488 0
2644 3488 0
2645 3488 0
2646 3488 0
3007 3488 -0
3008 3488 -0.70516692496269695
3009 3488 -0
3010 3488 -0
3011 3488 -0
3012 3488 -0
1477 3489 0
1478 3489 0
1479 3489 0.016624127736337181
1480 3489 0
1481 3489 0
1482 3489 0
1483 3489 -0
1484 3489 -0
1485 3489 -0.016585933143231667
1486 3489 -0
1487 3489 -0
1488 3489 3.8067926667141391e-05
2641 3489 0
2642 3489 0
2643 3489 0.70516692496269695
2644 3489 0
2645 3489 0
2646 3489 0
3007 3489 -0
3008 3489 -0
3009 3489 -0.70516692496269695
3010 3489 -0
3011 3489 -0
3012 3489 -0
1477 3490 0
1478 3490 0
1479 3490 0
1480 3490 0.49726039206134737
1481 3490 0
1482 3490 0
1483 3490 -0.99668365524927938
1484 3490 0.067678768813813697
1485 3490 -0
1486 3490 -0.49611791657971721
1487 3490 0.067532010077255816
1488 3490 -0
2641 3490 0
2642 3490 0
2643 3490 0
2644 3490 0.70516692496269695
2645 3490 0
2646 3490 0
3007 3490 -0
3008 3490 -0
3009 3490 -0
3010 3490 -0.70516692496269695
3011 3490 -0
3012 3490 -0
1477 3491 0
1478 3491 0
1479 3491 0
1480 3491 0
1481 3491 0.49840543371991375
1482 3491 0
1483 3491 -0.067601049744234934
1484 3491 -0.99553485319114277
1485 3491 -0
1486 3491 -0.067376861357772475
1487 3491 -0.49382500867881207
1488 3491 -0
2641 3491 0
2642 3491 0
2643 3491 0
2644 3491 0
2645 3491 0.70516692496269695
2646 3491 0
3007 3491 -0
3008 3491 -0
3009 3491 -0
3010 3491 -0
3011 3491 -0.70516692496269695
3012 3491 -0
1477 3492 0
1478 3492 0
1479 3492 0
1480 3492 0
1481 3492 0
1482 3492 0.49726039206134764
1483 3492 -0
1484 3492 -0
1485 3492 -0.99668365524927816
1486 3492 -0
1487 3492 -0
1488 3492 -0.49611791657971638
2641 3492 0
2642 3492 0
2643 3492 0
2644 3492 0
2645 3492 0
2646 3492 0.70516692496269695
3007 3492 -0
3008 3492 -0
3009 3492 -0
3010 3492 -0
3011 3492 -0
3012 3492 -0.70516692496269695
619 3493 0.01662412773633716
620 3493 0
621 3493 0
622 3493 0
623 3493 0
624 3493 0
625 3493 -0.016738711515653665
626 3493 5.1859358331731552e-06
627 3493 -0
628 3493 -0.00011420378000142444
629 3493 7.763820444667679e-06
630 3493 -0
1903 3493 0.70516692496269695
1904 3493 0
1905 3493 0
1906 3493 0
1907 3493 0
1908 3493 0
2269 3493 -0.70516692496269695
2270 3493 -0
2271 3493 -0
2272 3493 -0
2273 3493 -0
2274 3493 -0
619 3494 0
620 3494 0.016643240039254284
621 3494 0
622 3494 0
623 3494 0
624 3494 0
625 3494 -0
626 3494 -0.016643240039254253
627 3494 -0
628 3494 -0
629 3494 -0
630 3494 -0
1903 3494 0
1904 3494 0.70516692496269695
1905 3494 0
1906 3494 0
1907 3494 0
1908 3494 0
2269 3494 -0
2270 3494 -0.70516692496269695
2271 3494 -0
2272 3494 -0
2273 3494 -0
2274 3494 -0
619 3495 0
620 3495 0
621 3495 0.016624127736337181
622 3495 0
623 3495 0
624 3495 0
625 3495 -0
626 3495 -0
627 3495 -0.016585933143231667
628 3495 -0
629 3495 -0
630 3495 3.8067926667141391e-05
1903 3495 0
1904 3495 0
1905 3495 0.70516692496269695
1906 3495 0
1907 3495 0
1908 3495 0
2269 3495 -0
2270 3495 -0
2271 3495 -0.70516692496269695
2272 3495 -0
2273 3495 -0
2274 3495 -0
619 3496 0
620 3496 0
621 3496 0
622 3496 0.49726039206134737
623 3496 0
624 3496 0
625 3496 -0.99668365524927938
626 3496 0.067678768813813697
627 3496 -0
628 3496 -0.49611791657971721
629 3496 0.067532010077255816
630 3496 -0
1903 3496 0
1904 3496 0
1905 3496 0
1906 3496 0.70516692496269695
1907 3496 0
1908 3496 0
2269 3496 -0
2270 3496 -0
2271 3496 -0
2272 3496 -0.70516692496269695
2273 3496 -0
2274 3496 -0
619 3497 0
620 3497 0
621 3497 0
622 3497 0
623 3497 0.49840543371991375
624 3497 0
625 3497 -0.067601049744234934
626 3497 -0.99553485319114277
627 3497 -0
628 3497 -0.067376861357772475
629 3497 -0.49382500867881207
630 3497 -0
1903 3497 0
1904 3497 0
1905 3497 0
1906 3497 0
1907 3497 0.70516692496269695
1908 3497 0
2269 3497 -0
2270 3497 -0
2271 3497 -0
2272 3497 -0
2273 3497 -0.70516692496269695
2274 3497 -0
619 3498 0
620 3498 0
621 3498 0
622 3498 0
623 3498 0
624 3498 0.49726039206134764
625 3498 -0
626 3498 -0
627 3498 -0.99668365524927816
628 3498 -0
629 3498 -0
630 3498 -0.49611791657971638
1903 3498 0
1904 3498 0
1905 3498 0
1906 3498 0
1907 3498 0
1908 3498 0.70516692496269695
2269 3498 -0
2270 3498 -0
2271 3498 -0
2272 3498 -0
2273 3498 -0
2274 3498 -0.70516692496269695
625 3499 0.01662412773633716
626 3499 0
627 3499 0
628 3499 0
629 3499 0
630 3499 0
631 3499 -0.016738711515653665
632 3499 5.1859358331731552e-06
633 3499 -0
634 3499 -0.00011420378000142444
635 3499 7.763820444667679e-06
636 3499 -0
1909 3499 0.70516692496269695
1910 3499 0
1911 3499 0
1912 3499 0
1913 3499 0
1914 3499 0
2275 3499 -0.70516692496269695
2276 3499 -0
2277 3499 -0
2278 3499 -0
2279 3499 -0
2280 3499 -0
625 3500 0
626 3500 0.016643240039254284
627 3500 0
628 3500 0
629 3500 0
630 3500 0
631 3500 -0
632 3500 -0.016643240039254253
633 3500 -0
634 3500 -0
635 3500 -0
636 3500 -0
1909 3500 0
1910 3500 0.70516692496269695
1911 3500 0
1912 3500 0
1913 3500 0
1914 3500 0
2275 3500 -0
2276 3500 -0.70516692496269695
2277 3500 -0
2278 3500 -0
2279 3500 -0
2280 3500 -0
625 3501 0
626 3501 0
627 3501 0.016624127736337181
628 3501 0
629 3501 0
630 3501 0
631 3501 -0
632 3501 -0
633 3501 -0.016585933143231667
634 3501 -0
635 3501 -0
636 3501 3.8067926667141391e-05
1909 3501 0
1910 3501 0
1911 3501 0.70516692496269695
1912 3501 0
1913 3501 0
1914 3501 0
2275 3501 -0
2276 3501 -0
2277 3501 -0.70516692496269695
2278 3501 -0
2279 3501 -0
2280 3501 -0
625 3502 0
626 3502 0
627 3502 0
628 3502 0.49726039206134737
629 3502 0
630 3502 0
631 3502 -0.99668365524927938
632 3502 0.067678768813813697
633 3502 -0
634 3502 -0.49611791657971721
635 3502 0.067532010077255816
636 3502 -0
1909 3502 0
1910 3502 0
1911 3502 0
1912 3502 0.70516692496269695
1913 3502 0
1914 3502 0
2275 3502 -0
2276 3502 -0
2277 3502 -0
2278 3502 -0.70516692496269695
2279 3502 -0
2280 3502 -0
625 3503 0
626 3503 0
627 3503 0
628 3503 0
629 3503 0.49840543371991375
630 3503 0
631 3503 -0.067601049744234934
632 3503 -0.99553485319114277
633 3503 -0
634 3503 -0.067376861357772475
635 3503 -0.49382500867881207
636 3503 -0
1909 3503 0
1910 3503 0
1911 3503 0
1912 3503 0
1913 3503 0.70516692496269695
1914 3503 0
2275 3503 -0
2276 3503 -0
2277 3503 -0
2278 3503 -0
2279 3503 -0.70516692496269695
2280 3503 -0
625 3504 0
626 3504 0
627 3504 0
628 3504 0
629 3504 0
630 3504 0.49726039206134764
631 3504 -0
632 3504 -0
633 3504 -0.99668365524927816
634 3504 -0
635 3504 -0
636 3504 -0.49611791657971638
1909 3504 0
1910 3504 0
1911 3504 0
1912 3504 0
1913 3504 0
1914 3504 0.70516692496269695
2275 3504 -0
2276 3504 -0
2277 3504 -0
2278 3504 -0
2279 3504 -0
2280 3504 -0.70516692496269695
1051 3505 0.01662412773633716
1052 3505 0
1053 3505 0
1054 3505 0
1055 3505 0
1056 3505 0
1057 3505 -0.016738711515653665
1058 3505 5.1859358331731552e-06
1059 3505 -0
1060 3505 -0.00011420378000142444
1061 3505 7.763820444667679e-06
1062 3505 -0
2275 3505 0.70516692496269695
2276 3505 0
2277 3505 0
2278 3505 0
2279 3505 0
2280 3505 0
2641 3505 -0.70516692496269695
2642 3505 -0
2643 3505 -0
2644 3505 -0
2645 3505 -0
2646 3505 -0
1051 3506 0
1052 3506 0.016643240039254284
1053 3506 0
1054 3506 0
1055 3506 0
1056 3506 0
1057 3506 -0
1058 3506 -0.016643240039254253
1059 3506 -0
1060 3506 -0
1061 3506 -0
1062 3506 -0
2275 3506 0
2276 3506 0.70516692496269695
2277 3506 0
2278 3506 0
2279 3506 0
2280 3506 0
2641 3506 -0
2642 3506 -0.70516692496269695
2643 3506 -0
2644 3506 -0
2645 3506 -0
2646 3506 -0
1051 3507 0
1052 3507 0
1053 3507 0.016624127736337181
1054 3507 0
1055 3507 0
1056 3507 0
1057 3507 -0
1058 3507 -0
1059 3507 -0.016585933143231667
1060 3507 -0
1061 3507 -0
1062 3507 3.8067926667141391e-05
2275 3507 0
2276 3507 0
2277 3507 0.70516692496269695
2278 3507 0
2279 3507 0
2280 3507 0
2641 3507 -0
2642 3507 -0
2643 3507 -0.70516692496269695
2644 3507 -0
2645 3507 -0
2646 3507 -0
1051 3508 0
1052 3508 0
1053 3508 0
1054 3508 0.49726039206134737
1055 3508 0
1056 3508 0
1057 3508 -0.99668365524927938
1058 3508 0.067678768813813697
1059 3508 -0
1060 3508 -0.49611791657971721
1061 3508 0.067532010077255816
1062 3508 -0
2275 3508 0
2276 3508 0
2277 3508 0
2278 3508 0.70516692496269695
2279 3508 0
2280 3508 0
2641 3508 -0
2642 3508 -0
2643 3508 -0
2644 3508 -0.70516692496269695
2645 3508 -0
2646 3508 -0
1051 3509 0
1052 3509 0
1053 3509 0
1054 3509 0
1055 3509 0.49840543371991375
1056 3509 0
1057 3509 -0.067601049744234934
1058 3509 -0.99553485319114277
1059 3509 -0
1060 3509 -0.067376861357772475
1061 3509 -0.49382500867881207
1062 3509 -0
2275 3509 0
2276 3509 0
2277 3509 0
2278 3509 0
2279 3509 0.70516692496269695
2280 3509 0
2641 3509 -0
2642 3509 -0
2643 3509 -0
2644 3509 -0
2645 3509 -0.70516692496269695
2646 3509 -0
1051 3510 0
1052 3510 0
1053 3510 0
1054 3510 0
1055 3510 0
1056 3510 0.49726039206134764
1057 3510 -0
1058 3510 -0
1059 3510 -0.99668365524927816
1060 3510 -0
1061 3510 -0
1062 3510 -0.49611791657971638
2275 3510 0
2276 3510 0
2277 3510 0
2278 3510 0
2279 3510 0
2280 3510 0.70516692496269695
2641 3510 -0
2642 3510 -0
2643 3510 -0
2644 3510 -0
2645 3510 -0
2646 3510 -0.70516692496269695
1057 3511 0.01662412773633716
1058 3511 0
1059 3511 0
1060 3511 0
1061 3511 0
1062 3511 0
1063 3511 -0.016738711515653665
1064 3511 5.1859358331731552e-06
1065 3511 -0
1066 3511 -0.00011420378000142444
1067 3511 7.763820444667679e-06
1068 3511 -0
2281 3511 0.70516692496269695
2282 3511 0
2283 3511 0
2284 3511 0
2285 3511 0
2286 3511 0
2647 3511 -0.70516692496269695
2648 3511 -0
2649 3511 -0
2650 3511 -0
2651 3511 -0
2652 3511 -0
1057 3512 0
1058 3512 0.016643240039254284
1059 3512 0
1060 3512 0
1061 3512 0
1062 3512 0
1063 3512 -0
1064 3512 -0.016643240039254253
1065 3512 -0
1066 3512 -0
1067 3512 -0
1068 3512 -0
2281 3512 0
2282 3512 0.70516692496269695
2283 3512 0
2284 3512 0
2285 3512 0
2286 3512 0
2647 3512 -0
2648 3512 -0.70516692496269695
2649 3512 -0
2650 3512 -0
2651 3512 -0
2652 3512 -0
1057 3513 0
1058 3513 0
1059 3513 0.016624127736337181
1060 3513 0
1061 3513 0
1062 3513 0
1063 3513 -0
1064 3513 -0
1065 3513 -0.016585933143231667
1066 3513 -0
1067 3513 -0
1068 3513 3.8067926667141391e-05
2281 3513 0
2282 3513 0
2283 3513 0.70516692496269695
2284 3513 0
2285 3513 0
2286 3513 0
2647 3513 -0
2648 3513 -0
2649 3513 -0.70516692496269695
2650 3513 -0
2651 3513 -0
2652 3513 -0
1057 3514 0
1058 3514 0
1059 3514 0
1060 3514 0.49726039206134737
1061 3514 0
1062 3514 0
1063 3514 -0.99668365524927938
1064 3514 0.067678768813813697
1065 3514 -0
1066 3514 -0.49611791657971721
1067 3514 0.067532010077255816
1068 3514 -0
2281 3514 0
2282 3514 0
2283 3514 0
2284 3514 0.70516692496269695
2285 3514 0
2286 3514 0
2647 3514 -0
2648 3514 -0
2649 3514 -0
2650 3514 -0.70516692496269695
2651 3514 -0
2652 3514 -0
1057 3515 0
1058 3515 0
1059 3515 0
1060 3515 0
1061 3515 0.49840543371991375
1062 3515 0
1063 3515 -0.067601049744234934
1064 3515 -0.99553485319114277
1065 3515 -0
1066 3515 -0.067376861357772475
1067 3515 -0.49382500867881207
1068 3515 -0
2281 3515 0
2282 3515 0
2283 3515 0
2284 3515 0
2285 3515 0.70516692496269695
2286 3515 0
2647 3515 -0
2648 3515 -0
2649 3515 -0
2650 3515 -0
2651 3515 -0.70516692496269695
2652 3515 -0
1057 3516 0
1058 3516 0
1059 3516 0
1060 3516 0
1061 3516 0
1062 3516 0.49726039206134764
1063 3516 -0
1064 3516 -0
1065 3516 -0.99668365524927816
1066 3516 -0
1067 3516 -0
1068 3516 -0.49611791657971638
2281 3516 0
2282 3516 0
2283 3516 0
2284 3516 0
2285 3516 0
2286 3516 0.70516692496269695
2647 3516 -0
2648 3516 -0
2649 3516 -0
2650 3516 -0
2651 3516 -0
2652 3516 -0.70516692496269695
199 3517 0.01662412773633716
200 3517 0
201 3517 0
202 3517 0
203 3517 0
204 3517 0
205 3517 -0.016738711515653665
206 3517 5.1859358331731552e-06
207 3517 -0
208 3517 -0.00011420378000142444
209 3517 7.763820444667679e-06
210 3517 -0
1909 3517 -0.70516692496269695
1910 3517 -0
1911 3517 -0
1912 3517 -0
1913 3517 -0
1914 3517 -0
3007 3517 0.70516692496269695
3008 3517 0
3009 3517 0
3010 3517 0
3011 3517 0
3012 3517 0
199 3518 0
200 3518 0.016643240039254284
201 3518 0
202 3518 0
203 3518 0
204 3518 0
205 3518 -0
206 3518 -0.016643240039254253
207 3518 -0
208 3518 -0
209 3518 -0
210 3518 -0
1909 3518 -0
1910 3518 -0.70516692496269695
1911 3518 -0
1912 3518 -0
1913 3518 -0
1914 3518 -0
3007 3518 0
3008 3518 0.70516692496269695
3009 3518 0
3010 3518 0
3011 3518 0
3012 3518 0
199 3519 0
200 3519 0
201 3519 0.016624127736337181
202 3519 0
203 3519 0
204 3519 0
205 3519 -0
206 3519 -0
207 3519 -0.016585933143231667
208 3519 -0
209 3519 -0
210 3519 3.8067926667141391e-05
1909 3519 -0
1910 3519 -0
1911 3519 -0.70516692496269695
1912 3519 -0
1913 3519 -0
1914 3519 -0
3007 3519 0
3008 3519 0
3009 3519 0.70516692496269695
3010 3519 0
3011 3519 0
3012 3519 0
199 3520 0
200 3520 0
201 3520 0
202 3520 0.49726039206134737
203 3520 0
204 3520 0
205 3520 -0.99668365524927938
206 3520 0.067678768813813697
207 3520 -0
208 3520 -0.49611791657971721
209 3520 0.067532010077255816
210 3520 -0
1909 3520 -0
1910 3520 -0
1911 3520 -0
1912 3520 -0.70516692496269695
1913 3520 -0
1914 3520 -0
3007 3520 0
3008 3520 0
3009 3520 0
3010 3520 0.70516692496269695
3011 3520 0
3012 3520 0
199 3521 0
200 3521 0
201 3521 0
202 3521 0
203 3521 0.49840543371991375
204 3521 0
205 3521 -0.067601049744234934
206 3521 -0.99553485319114277
207 3521 -0
208 3521 -0.067376861357772475
209 3521 -0.49382500867881207
210 3521 -0
1909 3521 -0
1910 3521 -0
1911 3521 -0
1912 3521 -0
1913 3521 -0.70516692496269695
1914 3521 -0
3007 3521 0
3008 3521 0
3009 3521 0
3010 3521 0
3011 3521 0.70516692496269695
3012 3521 0
199 3522 0
200 3522 0
201 3522 0
202 3522 0
203 3522 0
204 3522 0.49726039206134764
205 3522 -0
206 3522 -0
207 3522 -0.99668365524927816
208 3522 -0
209 3522 -0
210 3522 -0.49611791657971638
1909 3522 -0
1910 3522 -0
1911 3522 -0
1912 3522 -0
1913 3522 -0
1914 3522 -0.70516692496269695
3007 3522 0
3008 3522 0
3009 3522 0
3010 3522 0
3011 3522 0
3012 3522 0.70516692496269695
205 3523 0.01662412773633716
206 3523 0
207 3523 0
208 3523 0
209 3523 0
210 3523 0
211 3523 -0.016738711515653665
212 3523 5.1859358331731552e-06
213 3523 -0
214 3523 -0.00011420378000142444
215 3523 7.763820444667679e-06
216 3523 -0
1915 3523 -0.70516692496269695
1916 3523 -0
1917 3523 -0
1918 3523 -0
1919 3523 -0
1920 3523 -0
3013 3523 0.70516692496269695
3014 3523 0
3015 3523 0
3016 3523 0
3017 3523 0
3018 3523 0
205 3524 0
206 3524 0.016643240039254284
207 3524 0
208 3524 0
209 3524 0
210 3524 0
211 3524 -0
212 3524 -0.016643240039254253
213 3524 -0
214 3524 -0
215 3524 -0
216 3524 -0
1915 3524 -0
1916 3524 -0.70516692496269695
1917 3524 -0
1918 3524 -0
1919 3524 -0
1920 3524 -0
3013 3524 0
3014 3524 0.70516692496269695
3015 3524 0
3016 3524 0
3017 3524 0
3018 3524 0
205 3525 0
206 3525 0
207 3525 0.016624127736337181
208 3525 0
209 3525 0
210 3525 0
211 3525 -0
212 3525 -0
213 3525 -0.016585933143231667
214 3525 -0
215 3525 -0
216 3525 3.8067926667141391e-05
1915 3525 -0
1916 3525 -0
1917 3525 -0.70516692496269695
1918 3525 -0
1919 3525 -0
1920 3525 -0
3013 3525 0
3014 3525 0
3015 3525 0.70516692496269695
3016 3525 0
3017 3525 0
3018 3525 0
205 3526 0
206 3526 0
207 3526 0
208 3526 0.49726039206134737
209 3526 0
210 3526 0
211 3526 -0.99668365524927938
212 3526 0.067678768813813697
213 3526 -0
214 3526 -0.49611791657971721
215 3526 0.067532010077255816
216 3526 -0
1915 3526 -0
1916 3526 -0
1917 3526 -0
1918 3526 -0.70516692496269695
1919 3526 -0
1920 3526 -0
3013 3526 0
3014 3526 0
3015 3526 0
3016 3526 0.70516692496269695
3017 3526 0
3018 3526 0
205 3527 0
206 3527 0
207 3527 0
208 3527 0
209 3527 0.49840543371991375
210 3527 0
211 3527 -0.067601049744234934
212 3527 -0.99553485319114277
213 3527 -0
214 3527 -0.067376861357772475
215 3527 -0.49382500867881207
216 3527 -0
1915 3527 -0
1916 3527 -0
1917 3527 -0
1918 3527 -0
1919 3527 -0.70516692496269695
1920 3527 -0
3013 3527 0
3014 3527 0
3015 3527 0
3016 3527 0
3017 3527 0.70516692496269695
3018 3527 0
205 3528 0
206 3528 0
207 3528 0
208 3528 0
209 3528 0
210 3528 0.49726039206134764
211 3528 -0
212 3528 -0
213 3528 -0.99668365524927816
214 3528 -0
215 3528 -0
216 3528 -0.49611791657971638
1915 3528 -0
1916 3528 -0
1917 3528 -0
1918 3528 -0
1919 3528 -0
1920 3528 -0.70516692496269695
3013 3528 0
3014 3528 0
3015 3528 0
3016 3528 0
3017 3528 0
3018 3528 0.70516692496269695
631 3529 0.01662412773633716
632 3529 0
633 3529 0
634 3529 0
635 3529 0
636 3529 0
637 3529 -0.016738711515653665
638 3529 5.1859358331731552e-06
639 3529 -0
640 3529 -0.00011420378000142444
641 3529 7.763820444667679e-06
642 3529 -0
1915 3529 0.70516692496269695
1916 3529 0
1917 3529 0
1918 3529 0
1919 3529 0
1920 3529 0
2281 3529 -0.70516692496269695
2282 3529 -0
2283 3529 -0
2284 3529 -0
2285 3529 -0
2286 3529 -0
631 3530 0
632 3530 0.016643240039254284
633 3530 0
634 3530 0
635 3530 0
636 3530 0
637 3530 -0
638 3530 -0.016643240039254253
639 3530 -0
640 3530 -0
641 3530 -0
642 3530 -0
1915 3530 0
1916 3530 0.70516692496269695
1917 3530 0
1918 3530 0
1919 3530 0
1920 3530 0
2281 3530 -0
2282 3530 -0.70516692496269695
2283 3530 -0
2284 3530 -0
2285 3530 -0
2286 3530 -0
631 3531 0
632 3531 0
633 3531 0.016624127736337181
634 3531 0
635 3531 0
636 3531 0
637 3531 -0
638 3531 -0
639 3531 -0.016585933143231667
640 3531 -0
641 3531 -0
642 3531 3.8067926667141391e-05
1915 3531 0
1916 3531 0
1917 3531 0.70516692496269695
1918 3531 0
1919 3531 0
1920 3531 0
2281 3531 -0
2282 3531 -0
2283 3531 -0.70516692496269695
2284 3531 -0
2285 3531 -0
2286 3531 -0
631 3532 0
632 3532 0
633 3532 0
634 3532 0.49726039206134737
635 3532 0
636 3532 0
637 3532 -0.99668365524927938
638 3532 0.067678768813813697
639 3532 -0
640 3532 -0.49611791657971721
641 3532 0.067532010077255816
642 3532 -0
1915 3532 0
1916 3532 0
1917 3532 0
1918 3532 0.70516692496269695
1919 3532 0
1920 3532 0
2281 3532 -0
2282 3532 -0
2283 3532 -0
2284 3532 -0.70516692496269695
2285 3532 -0
2286 3532 -0
631 3533 0
632 3533 0
633 3533 0
634 3533 0
635 3533 0.49840543371991375
636 3533 0
637 3533 -0.067601049744234934
638 3533 -0.99553485319114277
639 3533 -0
640 3533 -0.067376861357772475
641 3533 -0.49382500867881207
642 3533 -0
1915 3533 0
1916 3533 0
1917 3533 0
1918 3533 0
1919 3533 0.70516692496269695
1920 3533 0
2281 3533 -0
2282 3533 -0
2283 3533 -0
2284 3533 -0
2285 3533 -0.70516692496269695
2286 3533 -0
631 3534 0
632 3534 0
633 3534 0
634 3534 0
635 3534 0
636 3534 0.49726039206134764
637 3534 -0
638 3534 -0
639 3534 -0.99668365524927816
640 3534 -0
641 3534 -0
642 3534 -0.49611791657971638
1915 3534 0
1916 3534 0
1917 3534 0
1918 3534 0
1919 3534 0
1920 3534 0.70516692496269695
2281 3534 -0
2282 3534 -0
2283 3534 -0
2284 3534 -0
2285 3534 -0
2286 3534 -0.70516692496269695
637 3535 0.01662412773633716
638 3535 0
639 3535 0
640 3535 0
641 3535 0
642 3535 0
643 3535 -0.016738711515653665
644 3535 5.1859358331731552e-06
645 3535 -0
646 3535 -0.00011420378000142444
647 3535 7.763820444667679e-06
648 3535 -0
1921 3535 0.70516692496269695
1922 3535 0
1923 3535 0
1924 3535 0
1925 3535 0
1926 3535 0
2287 3535 -0.70516692496269695
2288 3535 -0
2289 3535 -0
2290 3535 -0
2291 3535 -0
2292 3535 -0
637 3536 0
638 3536 0.016643240039254284
639 3536 0
640 3536 0
641 3536 0
642 3536 0
643 3536 -0
644 3536 -0.016643240039254253
645 3536 -0
646 3536 -0
647 3536 -0
648 3536 -0
1921 3536 0
1922 3536 0.70516692496269695
1923 3536 0
1924 3536 0
1925 3536 0
1926 3536 0
2287 3536 -0
2288 3536 -0.70516692496269695
2289 3536 -0
2290 3536 -0
2291 3536 -0
2292 3536 -0
637 3537 0
638 3537 0
639 3537 0.016624127736337181
640 3537 0
641 3537 0
642 3537 0
643 3537 -0
644 3537 -0
645 3537 -0.016585933143231667
646 3537 -0
647 3537 -0
648 3537 3.8067926667141391e-05
1921 3537 0
1922 3537 0
1923 3537 0.70516692496269695
1924 3537 0
1925 3537 0
1926 3537 0
2287 3537 -0
2288 3537 -0
2289 3537 -0.70516692496269695
2290 3537 -0
2291 3537 -0
2292 3537 -0
637 3538 0
638 3538 0
639 3538 0
640 3538 0.49726039206134737
641 3538 0
642 3538 0
643 3538 -0.99668365524927938
644 3538 0.067678768813813697
645 3538 -0
646 3538 -0.49611791657971721
647 3538 0.067532010077255816
648 3538 -0
1921 3538 0
1922 3538 0
1923 3538 0
1924 3538 0.70516692496269695
1925 3538 0
1926 3538 0
2287 3538 -0
2288 3538 -0
2289 3538 -0
2290 3538 -0.70516692496269695
2291 3538 -0
2292 3538 -0
637 3539 0
638 3539 0
639 3539 0
640 3539 0
641 3539 0.49840543371991375
642 3539 0
643 3539 -0.067601049744234934
644 3539 -0.99553485319114277
645 3539 -0
646 3539 -0.067376861357772475
647 3539 -0.49382500867881207
648 3539 -0
1921 3539 0
1922 3539 0
1923 3539 0
1924 3539 0
1925 3539 0.70516692496269695
1926 3539 0
2287 3539 -0
2288 3539 -0
2289 3539 -0
2290 3539 -0
2291 3539 -0.70516692496269695
2292 3539 -0
637 3540 0
638 3540 0
639 3540 0
640 3540 0
641 3540 0
642 3540 0.49726039206134764
643 3540 -0
644 3540 -0
645 3540 -0.99668365524927816
646 3540 -0
647 3540 -0
648 3540 -0.49611791657971638
1921 3540 0
1922 3540 0
1923 3540 0
1924 3540 0
1925 3540 0
1926 3540 0.70516692496269695
2287 3540 -0
2288 3540 -0
2289 3540 -0
2290 3540 -0
2291 3540 -0
2292 3540 -0.70516692496269695
1483 3541 0.01662412773633716
1484 3541 0
1485 3541 0
1486 3541 0
1487 3541 0
1488 3541 0
1489 3541 -0.016738711515653665
1490 3541 5.1859358331731552e-06
1491 3541 -0
1492 3541 -0.00011420378000142444
1493 3541 7.763820444667679e-06
1494 3541 -0
2647 3541 0.70516692496269695
2648 3541 0
2649 3541 0
2650 3541 0
2651 3541 0
2652 3541 0
3013 3541 -0.70516692496269695
3014 3541 -0
3015 3541 -0
3016 3541 -0
3017 3541 -0
3018 3541 -0
1483 3542 0
1484 3542 0.016643240039254284
1485 3542 0
1486 3542 0
1487 3542 0
1488 3542 0
1489 3542 -0
1490 3542 -0.016643240039254253
1491 3542 -0
1492 3542 -0
1493 3542 -0
1494 3542 -0
2647 3542 0
2648 3542 0.70516692496269695
2649 3542 0
2650 3542 0
2651 3542 0
2652 3542 0
3013 3542 -0
3014 3542 -0.70516692496269695
3015 3542 -0
3016 3542 -0
3017 3542 -0
3018 3542 -0
1483 3543 0
1484 3543 0
1485 3543 0.016624127736337181
1486 3543 0
1487 3543 0
1488 3543 0
1489 3543 -0
1490 3543 -0
1491 3543 -0.016585933143231667
1492 3543 -0
1493 3543 -0
1494 3543 3.8067926667141391e-05
2647 3543 0
2648 3543 0
2649 3543 0.70516692496269695
2650 3543 0
2651 3543 0
2652 3543 0
3013 3543 -0
3014 3543 -0
3015 3543 -0.70516692496269695
3016 3543 -0
3017 3543 -0
3018 3543 -0
1483 3544 0
1484 3544 0
1485 3544 0
1486 3544 0.49726039206134737
1487 3544 0
1488 3544 0
1489 3544 -0.99668365524927938
1490 3544 0.067678768813813697
1491 3544 -0
1492 3544 -0.49611791657971721
1493 3544 0.067532010077255816
1494 3544 -0
2647 3544 0
2648 3544 0
2649 3544 0
2650 3544 0.70516692496269695
2651 3544 0
2652 3544 0
3013 3544 -0
3014 3544 -0
3015 3544 -0
3016 3544 -0.70516692496269695
3017 3544 -0
3018 3544 -0
1483 3545 0
1484 3545 0
1485 3545 0
1486 3545 0
1487 3545 0.49840543371991375
1488 3545 0
1489 3545 -0.067601049744234934
1490 3545 -0.99553485319114277
1491 3545 -0
1492 3545 -0.067376861357772475
1493 3545 -0.49382500867881207
1494 3545 -0
2647 3545 0
2648 3545 0
2649 3545 0
2650 3545 0
2651 3545 0.70516692496269695
2652 3545 0
3013 3545 -0
3014 3545 -0
3015 3545 -0
3016 3545 -0
3017 3545 -0.70516692496269695
3018 3545 -0
1483 3546 0
1484 3546 0
1485 3546 0
1486 3546 0
1487 3546 0
1488 3546 0.49726039206134764
1489 3546 -0
1490 3546 -0
1491 3546 -0.99668365524927816
1492 3546 -0
1493 3546 -0
1494 3546 -0.49611791657971638
2647 3546 0
2648 3546 0
2649 3546 0
2650 3546 0
2651 3546 0
2652 3546 0.70516692496269695
3013 3546 -0
3014 3546 -0
3015 3546 -0
3016 3546 -0
3017 3546 -0
3018 3546 -0.70516692496269695
1489 3547 0.01662412773633716
1490 3547 0
1491 3547 0
1492 3547 0
1493 3547 0
1494 3547 0
1495 3547 -0.016738711515653665
1496 3547 5.1859358331731552e-06
1497 3547 -0
1498 3547 -0.00011420378000142444
1499 3547 7.763820444667679e-06
1500 3547 -0
2653 3547 0.70516692496269695
2654 3547 0
2655 3547 0
2656 3547 0
2657 3547 0
2658 3547 0
3019 3547 -0.70516692496269695
3020 3547 -0
3021 3547 -0
3022 3547 -0
3023 3547 -0
3024 3547 -0
1489 3548 0
1490 3548 0.016643240039254284
1491 3548 0
1492 3548 0
1493 3548 0
1494 3548 0
1495 3548 -0
1496 3548 -0.016643240039254253
1497 3548 -0
1498 3548 -0
1499 3548 -0
1500 3548 -0
2653 3548 0
2654 3548 0.70516692496269695
2655 3548 0
2656 3548 0
2657 3548 0
2658 3548 0
3019 3548 -0
3020 3548 -0.70516692496269695
3021 3548 -0
3022 3548 -0
3023 3548 -0
3024 3548 -0
1489 3549 0
1490 3549 0
1491 3549 0.016624127736337181
1492 3549 0
1493 3549 0
1494 3549 0
1495 3549 -0
1496 3549 -0
1497 3549 -0.016585933143231667
1498 3549 -0
1499 3549 -0
1500 3549 3.8067926667141391e-05
2653 3549 0
2654 3549 0
2655 3549 0.70516692496269695
2656 3549 0
2657 3549 0
2658 3549 0
3019 3549 -0
3020 3549 -0
3021 3549 -0.70516692496269695
3022 3549 -0
3023 3549 -0
3024 3549 -0
1489 3550 0
1490 3550 0
1491 3550 0
1492 3550 0.49726039206134737
1493 3550 0
1494 3550 0
1495 3550 -0.99668365524927938
1496 3550 0.067678768813813697
1497 3550 -0
1498 3550 -0.49611791657971721
1499 3550 0.067532010077255816
1500 3550 -0
2653 3550 0
2654 3550 0
2655 3550 0
2656 3550 0.70516692496269695
2657 3550 0
2658 3550 0
3019 3550 -0
3020 3550 -0
3021 3550 -0
3022 3550 -0.70516692496269695
3023 3550 -0
3024 3550 -0
1489 3551 0
1490 3551 0
1491 3551 0
1492 3551 0
1493 3551 0.49840543371991375
1494 3551 0
1495 3551 -0.067601049744234934
1496 3551 -0.99553485319114277
1497 3551 -0
1498 3551 -0.067376861357772475
1499 3551 -0.49382500867881207
1500 3551 -0
2653 3551 0
2654 3551 0
2655 3551 0
2656 3551 0
2657 3551 0.70516692496269695
2658 3551 0
3019 3551 -0
3020 3551 -0
3021 3551 -0
3022 3551 -0
3023 3551 -0.70516692496269695
3024 3551 -0
1489 3552 0
1490 3552 0
1491 3552 0
1492 3552 0
1493 3552 0
1494 3552 0.49726039206134764
1495 3552 -0
1496 3552 -0
1497 3552 -0.99668365524927816
1498 3552 -0
1499 3552 -0
1500 3552 -0.49611791657971638
2653 3552 0
2654 3552 0
2655 3552 0
2656 3552 0
2657 3552 0
2658 3552 0.70516692496269695
3019 3552 -0
3020 3552 -0
3021 3552 -0
3022 3552 -0
3023 3552 -0
3024 3552 -0.70516692496269695
211 3553 0.01662412773633716
212 3553 0
213 3553 0
214 3553 0
215 3553 0
216 3553 0
217 3553 -0.016738711515653665
218 3553 5.1859358331731552e-06
219 3553 -0
220 3553 -0.00011420378000142444
221 3553 7.763820444667679e-06
222 3553 -0
1921 3553 -0.70516692496269695
1922 3553 -0
1923 3553 -0
1924 3553 -0
1925 3553 -0
1926 3553 -0
3019 3553 0.70516692496269695
3020 3553 0
3021 3553 0
3022 3553 0
3023 3553 0
3024 3553 0
211 3554 0
212 3554 0.016643240039254284
213 3554 0
214 3554 0
215 3554 0
216 3554 0
217 3554 -0
218 3554 -0.016643240039254253
219 3554 -0
220 3554 -0
221 3554 -0
222 3554 -0
1921 3554 -0
1922 3554 -0.70516692496269695
1923 3554 -0
1924 3554 -0
1925 3554 -0
1926 3554 -0
3019 3554 0
3020 3554 0.70516692496269695
3021 3554 0
3022 3554 0
3023 3554 0
3024 3554 0
211 3555 0
212 3555 0
213 3555 0.016624127736337181
214 3555 0
215 3555 0
216 3555 0
217 3555 -0
218 3555 -0
219 3555 -0.016585933143231667
220 3555 -0
221 3555 -0
222 3555 3.8067926667141391e-05
1921 3555 -0
1922 3555 -0
1923 3555 -0.70516692496269695
1924 3555 -0
1925 3555 -0
1926 3555 -0
3019 3555 0
3020 3555 0
3021 3555 0.70516692496269695
3022 3555 0
3023 3555 0
3024 3555 0
211 3556 0
212 3556 0
213 3556 0
214 3556 0.49726039206134737
215 3556 0
216 3556 0
217 3556 -0.99668365524927938
218 3556 0.067678768813813697
219 3556 -0
220 3556 -0.49611791657971721
221 3556 0.067532010077255816
222 3556 -0
1921 3556 -0
1922 3556 -0
1923 3556 -0
1924 3556 -0.70516692496269695
1925 3556 -0
1926 3556 -0
3019 3556 0
3020 3556 0
3021 3556 0
3022 3556 0.70516692496269695
3023 3556 0
3024 3556 0
211 3557 0
212 3557 0
213 3557 0
214 3557 0
215 3557 0.49840543371991375
216 3557 0
217 3557 -0.067601049744234934
218 3557 -0.99553485319114277
219 3557 -0
220 3557 -0.067376861357772475
221 3557 -0.49382500867881207
222 3557 -0
1921 3557 -0
1922 3557 -0
1923 3557 -0
1924 3557 -0
1925 3557 -0.70516692496269695
1926 3557 -0
3019 3557 0
3020 3557 0
3021 3557 0
3022 3557 0
3023 3557 0.70516692496269695
3024 3557 0
211 3558 0
212 3558 0
213 3558 0
214 3558 0
215 3558 0
216 3558 0.49726039206134764
217 3558 -0
218 3558 -0
219 3558 -0.99668365524927816
220 3558 -0
221 3558 -0
222 3558 -0.49611791657971638
1921 3558 -0
1922 3558 -0
1923 3558 -0
1924 3558 -0
1925 3558 -0
1926 3558 -0.70516692496269695
3019 3558 0
3020 3558 0
3021 3558 0
3022 3558 0
3023 3558 0
3024 3558 0.70516692496269695
217 3559 0.01662412773633716
218 3559 0
219 3559 0
220 3559 0
221 3559 0
222 3559 0
223 3559 -0.016738711515653665
224 3559 5.1859358331731552e-06
225 3559 -0
226 3559 -0.00011420378000142444
227 3559 7.763820444667679e-06
228 3559 -0
1927 3559 -0.70516692496269695
1928 3559 -0
1929 3559 -0
1930 3559 -0
1931 3559 -0
1932 3559 -0
3025 3559 0.70516692496269695
3026 3559 0
3027 3559 0
3028 3559 0
3029 3559 0
3030 3559 0
217 3560 0
218 3560 0.016643240039254284
219 3560 0
220 3560 0
221 3560 0
222 3560 0
223 3560 -0
224 3560 -0.016643240039254253
225 3560 -0
226 3560 -0
227 3560 -0
228 3560 -0
1927 3560 -0
1928 3560 -0.70516692496269695
1929 3560 -0
1930 3560 -0
1931 3560 -0
1932 3560 -0
3025 3560 0
3026 3560 0.70516692496269695
3027 3560 0
3028 3560 0
3029 3560 0
3030 3560 0
217 3561 0
218 3561 0
219 3561 0.016624127736337181
220 3561 0
221 3561 0
222 3561 0
223 3561 -0
224 3561 -0
225 3561 -0.016585933143231667
226 3561 -0
227 3561 -0
228 3561 3.8067926667141391e-05
1927 3561 -0
1928 3561 -0
1929 3561 -0.70516692496269695
1930 3561 -0
1931 3561 -0
1932 3561 -0
3025 3561 0
3026 3561 0
3027 3561 0.70516692496269695
3028 3561 0
3029 3561 0
3030 3561 0
217 3562 0
218 3562 0
219 3562 0
220 3562 0.49726039206134737
221 3562 0
222 3562 0
223 3562 -0.99668365524927938
224 3562 0.067678768813813697
225 3562 -0
226 3562 -0.49611791657971721
227 3562 0.067532010077255816
228 3562 -0
1927 3562 -0
1928 3562 -0
1929 3562 -0
1930 3562 -0.70516692496269695
1931 3562 -0
1932 3562 -0
3025 3562 0
3026 3562 0
3027 3562 0
3028 3562 0.70516692496269695
3029 3562 0
3030 3562 0
217 3563 0
218 3563 0
219 3563 0
220 3563 0
221 3563 0.49840543371991375
222 3563 0
223 3563 -0.067601049744234934
224 3563 -0.99553485319114277
225 3563 -0
226 3563 -0.067376861357772475
227 3563 -0.49382500867881207
228 3563 -0
1927 3563 -0
1928 3563 -0
1929 3563 -0
1930 3563 -0
1931 3563 -0.70516692496269695
1932 3563 -0
3025 3563 0
3026 3563 0
3027 3563 0
3028 3563 0
3029 3563 0.70516692496269695
3030 3563 0
217 3564 0
218 3564 0
219 3564 0
220 3564 0
221 3564 0
222 3564 0.49726039206134764
223 3564 -0
224 3564 -0
225 3564 -0.99668365524927816
226 3564 -0
227 3564 -0
228 3564 -0.49611791657971638
1927 3564 -0
1928 3564 -0
1929 3564 -0
1930 3564 -0
1931 3564 -0
1932 3564 -0.70516692496269695
3025 3564 0
3026 3564 0
3027 3564 0
3028 3564 0
3029 3564 0
3030 3564 0.70516692496269695
1063 3565 0.01662412773633716
1064 3565 0
1065 3565 0
1066 3565 0
1067 3565 0
1068 3565 0
1069 3565 -0.016738711515653665
1070 3565 5.1859358331731552e-06
1071 3565 -0
1072 3565 -0.00011420378000142444
1073 3565 7.763820444667679e-06
1074 3565 -0
2287 3565 0.70516692496269695
2288 3565 0
2289 3565 0
2290 3565 0
2291 3565 0
2292 3565 0
2653 3565 -0.70516692496269695
2654 3565 -0
2655 3565 -0
2656 3565 -0
2657 3565 -0
2658 3565 -0
1063 3566 0
1064 3566 0.016643240039254284
1065 3566 0
1066 3566 0
1067 3566 0
1068 3566 0
1069 3566 -0
1070 3566 -0.016643240039254253
1071 3566 -0
1072 3566 -0
1073 3566 -0
1074 3566 -0
2287 3566 0
2288 3566 0.70516692496269695
2289 3566 0
2290 3566 0
2291 3566 0
2292 3566 0
2653 3566 -0
2654 3566 -0.70516692496269695
2655 3566 -0
2656 3566 -0
2657 3566 -0
2658 3566 -0
1063 3567 0
1064 3567 0
1065 3567 0.016624127736337181
1066 3567 0
1067 3567 0
1068 3567 0
1069 3567 -0
1070 3567 -0
1071 3567 -0.016585933143231667
1072 3567 -0
1073 3567 -0
1074 3567 3.8067926667141391e-05
2287 3567 0
2288 3567 0
2289 3567 0.70516692496269695
2290 3567 0
2291 3567 0
2292 3567 0
2653 3567 -0
2654 3567 -0
2655 3567 -0.70516692496269695
2656 3567 -0
2657 3567 -0
2658 3567 -0
1063 3568 0
1064 3568 0
1065 3568 0
1066 3568 0.49726039206134737
1067 3568 0
1068 3568 0
1069 3568 -0.99668365524927938
1070 3568 0.067678768813813697
1071 3568 -0
1072 3568 -0.49611791657971721
1073 3568 0.067532010077255816
1074 3568 -0
2287 3568 0
2288 3568 0
2289 3568 0
2290 3568 0.70516692496269695
2291 3568 0
2292 3568 0
2653 3568 -0
2654 3568 -0
2655 3568 -0
2656 3568 -0.70516692496269695
2657 3568 -0
2658 3568 -0
1063 3569 0
1064 3569 0
1065 3569 0
1066 3569 0
1067 3569 0.49840543371991375
1068 3569 0
1069 3569 -0.067601049744234934
1070 3569 -0.99553485319114277
1071 3569 -0
1072 3569 -0.067376861357772475
1073 3569 -0.49382500867881207
1074 3569 -0
2287 3569 0
2288 3569 0
2289 3569 0
2290 3569 0
2291 3569 0.70516692496269695
2292 3569 0
2653 3569 -0
2654 3569 -0
2655 3569 -0
2656 3569 -0
2657 3569 -0.70516692496269695
2658 3569 -0
1063 3570 0
1064 3570 0
1065 3570 0
1066 3570 0
1067 3570 0
1068 3570 0.49726039206134764
1069 3570 -0
1070 3570 -0
1071 3570 -0.99668365524927816
1072 3570 -0
1073 3570 -0
1074 3570 -0.49611791657971638
2287 3570 0
2288 3570 0
2289 3570 0
2290 3570 0
2291 3570 0
2292 3570 0.70516692496269695
2653 3570 -0
2654 3570 -0
2655 3570 -0
2656 3570 -0
2657 3570 -0
2658 3570 -0.70516692496269695
1069 3571 0.01662412773633716
1070 3571 0
1071 3571 0
1072 3571 0
1073 3571 0
1074 3571 0
1075 3571 -0.016738711515653665
1076 3571 5.1859358331731552e-06
1077 3571 -0
1078 3571 -0.00011420378000142444
1079 3571 7.763820444667679e-06
1080 3571 -0
2293 3571 0.70516692496269695
2294 3571 0
2295 3571 0
2296 3571 0
2297 3571 0
2298 3571 0
2659 3571 -0.70516692496269695
2660 3571 -0
2661 3571 -0
2662 3571 -0
2663 3571 -0
2664 3571 -0
1069 3572 0
1070 3572 0.016643240039254284
1071 3572 0
1072 3572 0
1073 3572 0
1074 3572 0
1075 3572 -0
1076 3572 -0.016643240039254253
1077 3572 -0
1078 3572 -0
1079 3572 -0
1080 3572 -0
2293 3572 0
2294 3572 0.70516692496269695
2295 3572 0
2296 3572 0
2297 3572 0
2298 3572 0
2659 3572 -0
2660 3572 -0.70516692496269695
2661 3572 -0
2662 3572 -0
2663 3572 -0
2664 3572 -0
1069 3573 0
1070 3573 0
1071 3573 0.016624127736337181
1072 3573 0
1073 3573 0
1074 3573 0
1075 3573 -0
1076 3573 -0
1077 3573 -0.016585933143231667
1078 3573 -0
1079 3573 -0
1080 3573 3.8067926667141391e-05
2293 3573 0
2294 3573 0
2295 3573 0.70516692496269695
2296 3573 0
2297 3573 0
2298 3573 0
2659 3573 -0
2660 3573 -0
2661 3573 -0.70516692496269695
2662 3573 -0
2663 3573 -0
2664 3573 -0
1069 3574 0
1070 3574 0
1071 3574 0
1072 3574 0.49726039206134737
1073 3574 0
1074 3574 0
1075 3574 -0.99668365524927938
1076 3574 0.067678768813813697
1077 3574 -0
1078 3574 -0.49611791657971721
1079 3574 0.067532010077255816
1080 3574 -0
2293 3574 0
2294 3574 0
2295 3574 0
2296 3574 0.70516692496269695
2297 3574 0
2298 3574 0
2659 3574 -0
2660 3574 -0
2661 3574 -0
2662 3574 -0.70516692496269695
2663 3574 -0
2664 3574 -0
1069 3575 0
1070 3575 0
1071 3575 0
1072 3575 0
1073 3575 0.49840543371991375
1074 3575 0
1075 3575 -0.067601049744234934
1076 3575 -0.99553485319114277
1077 3575 -0
1078 3575 -0.067376861357772475
1079 3575 -0.49382500867881207
1080 3575 -0
2293 3575 0
2294 3575 0
2295 3575 0
2296 3575 0
2297 3575 0.70516692496269695
2298 3575 0
2659 3575 -0
2660 3575 -0
2661 3575 -0
2662 3575 -0
2663 3575 -0.70516692496269695
2664 3575 -0
1069 3576 0
1070 3576 0
1071 3576 0
1072 3576 0
1073 3576 0
1074 3576 0.49726039206134764
1075 3576 -0
1076 3576 -0
1077 3576 -0.99668365524927816
1078 3576 -0
1079 3576 -0
1080 3576 -0.49611791657971638
2293 3576 0
2294 3576 0
2295 3576 0
2296 3576 0
2297 3576 0
2298 3576 0.70516692496269695
2659 3576 -0
2660 3576 -0
2661 3576 -0
2662 3576 -0
2663 3576 -0
2664 3576 -0.70516692496269695
1495 3577 0.01662412773633716
1496 3577 0
1497 3577 0
1498 3577 0
1499 3577 0
1500 3577 0
1501 3577 -0.016738711515653665
1502 3577 5.1859358331731552e-06
1503 3577 -0
1504 3577 -0.00011420378000142444
1505 3577 7.763820444667679e-06
1506 3577 -0
2659 3577 0.70516692496269695
2660 3577 0
2661 3577 0
2662 3577 0
2663 3577 0
2664 3577 0
3025 3577 -0.70516692496269695
3026 3577 -0
3027 3577 -0
3028 3577 -0
3029 3577 -0
3030 3577 -0
1495 3578 0
1496 3578 0.016643240039254284
1497 3578 0
1498 3578 0
1499 3578 0
1500 3578 0
1501 3578 -0
1502 3578 -0.016643240039254253
1503 3578 -0
1504 3578 -0
1505 3578 -0
1506 3578 -0
2659 3578 0
2660 3578 0.70516692496269695
2661 3578 0
2662 3578 0
2663 3578 0
2664 3578 0
3025 3578 -0
3026 3578 -0.70516692496269695
3027 3578 -0
3028 3578 -0
3029 3578 -0
3030 3578 -0
1495 3579 0
1496 3579 0
1497 3579 0.016624127736337181
1498 3579 0
1499 3579 0
1500 3579 0
1501 3579 -0
1502 3579 -0
1503 3579 -0.016585933143231667
1504 3579 -0
1505 3579 -0
1506 3579 3.8067926667141391e-05
2659 3579 0
2660 3579 0
2661 3579 0.70516692496269695
2662 3579 0
2663 3579 0
2664 3579 0
3025 3579 -0
3026 3579 -0
3027 3579 -0.70516692496269695
3028 3579 -0
3029 3579 -0
3030 3579 -0
1495 3580 0
1496 3580 0
1497 3580 0
1498 3580 0.49726039206134737
1499 3580 0
1500 3580 0
1501 3580 -0.99668365524927938
1502 3580 0.067678768813813697
1503 3580 -0
1504 3580 -0.49611791657971721
1505 3580 0.067532010077255816
1506 3580 -0
2659 3580 0
2660 3580 0
2661 3580 0
2662 3580 0.70516692496269695
2663 3580 0
2664 3580 0
3025 3580 -0
3026 3580 -0
3027 3580 -0
3028 3580 -0.70516692496269695
3029 3580 -0
3030 3580 -0
1495 3581 0
1496 3581 0
1497 3581 0
1498 3581 0
1499 3581 0.49840543371991375
1500 3581 0
1501 3581 -0.067601049744234934
1502 3581 -0.99553485319114277
1503 3581 -0
1504 3581 -0.067376861357772475
1505 3581 -0.49382500867881207
1506 3581 -0
2659 3581 0
2660 3581 0
2661 3581 0
2662 3581 0
2663 3581 0.70516692496269695
2664 3581 0
3025 3581 -0
3026 3581 -0
3027 3581 -0
3028 3581 -0
3029 3581 -0.70516692496269695
3030 3581 -0
1495 3582 0
1496 3582 0
1497 3582 0
1498 3582 0
1499 3582 0
1500 3582 0.49726039206134764
1501 3582 -0
1502 3582 -0
1503 3582 -0.99668365524927816
1504 3582 -0
1505 3582 -0
1506 3582 -0.49611791657971638
2659 3582 0
2660 3582 0
2661 3582 0
2662 3582 0
2663 3582 0
2664 3582 0.70516692496269695
3025 3582 -0
3026 3582 -0
3027 3582 -0
3028 3582 -0
3029 3582 -0
3030 3582 -0.70516692496269695
1501 3583 0.01662412773633716
1502 3583 0
1503 3583 0
1504 3583 0
1505 3583 0
1506 3583 0
1507 3583 -0.016738711515653665
1508 3583 5.1859358331731552e-06
1509 3583 -0
1510 3583 -0.00011420378000142444
1511 3583 7.763820444667679e-06
1512 3583 -0
2665 3583 0.70516692496269695
2666 3583 0
2667 3583 0
2668 3583 0
2669 3583 0
2670 3583 0
3031 3583 -0.70516692496269695
3032 3583 -0
3033 3583 -0
3034 3583 -0
3035 3583 -0
3036 3583 -0
1501 3584 0
1502 3584 0.016643240039254284
1503 3584 0
1504 3584 0
1505 3584 0
1506 3584 0
1507 3584 -0
1508 3584 -0.016643240039254253
1509 3584 -0
1510 3584 -0
1511 3584 -0
1512 3584 -0
2665 3584 0
2666 3584 0.70516692496269695
2667 3584 0
2668 3584 0
2669 3584 0
2670 3584 0
3031 3584 -0
3032 3584 -0.70516692496269695
3033 3584 -0
3034 3584 -0
3035 3584 -0
3036 3584 -0
1501 3585 0
1502 3585 0
1503 3585 0.016624127736337181
1504 3585 0
1505 3585 0
1506 3585 0
1507 3585 -0
1508 3585 -0
1509 3585 -0.016585933143231667
1510 3585 -0
1511 3585 -0
1512 3585 3.8067926667141391e-05
2665 3585 0
2666 3585 0
2667 3585 0.70516692496269695
2668 3585 0
2669 3585 0
2670 3585 0
3031 3585 -0
3032 3585 -0
3033 3585 -0.70516692496269695
3034 3585 -0
3035 3585 -0
3036 3585 -0
1501 3586 0
1502 3586 0
1503 3586 0
1504 3586 0.49726039206134737
1505 3586 0
1506 3586 0
1507 3586 -0.99668365524927938
1508 3586 0.067678768813813697
1509 3586 -0
1510 3586 -0.49611791657971721
1511 3586 0.067532010077255816
1512 3586 -0
2665 3586 0
2666 3586 0
2667 3586 0
2668 3586 0.70516692496269695
2669 3586 0
2670 3586 0
3031 3586 -0
3032 3586 -0
3033 3586 -0
3034 3586 -0.70516692496269695
3035 3586 -0
3036 3586 -0
1501 3587 0
1502 3587 0
1503 3587 0
1504 3587 0
1505 3587 0.49840543371991375
1506 3587 0
1507 3587 -0.067601049744234934
1508 3587 -0.99553485319114277
1509 3587 -0
1510 3587 -0.067376861357772475
1511 3587 -0.49382500867881207
1512 3587 -0
2665 3587 0
2666 3587 0
2667 3587 0
2668 3587 0
2669 3587 0.70516692496269695
2670 3587 0
3031 3587 -0
3032 3587 -0
3033 3587 -0
3034 3587 -0
3035 3587 -0.70516692496269695
3036 3587 -0
1501 3588 0
1502 3588 0
1503 3588 0
1504 3588 0
1505 3588 0
1506 3588 0.49726039206134764
1507 3588 -0
1508 3588 -0
1509 3588 -0.99668365524927816
1510 3588 -0
1511 3588 -0
1512 3588 -0.49611791657971638
2665 3588 0
2666 3588 0
2667 3588 0
2668 3588 0
2669 3588 0
2670 3588 0.70516692496269695
3031 3588 -0
3032 3588 -0
3033 3588 -0
3034 3588 -0
3035 3588 -0
3036 3588 -0.70516692496269695
643 3589 0.01662412773633716
644 3589 0
645 3589 0
646 3589 0
647 3589 0
648 3589 0
649 3589 -0.016738711515653665
650 3589 5.1859358331731552e-06
651 3589 -0
652 3589 -0.00011420378000142444
653 3589 7.763820444667679e-06
654 3589 -0
1927 3589 0.70516692496269695
1928 3589 0
1929 3589 0
1930 3589 0
1931 3589 0
1932 3589 0
2293 3589 -0.70516692496269695
2294 3589 -0
2295 3589 -0
2296 3589 -0
2297 3589 -0
2298 3589 -0
643 3590 0
644 3590 0.016643240039254284
645 3590 0
646 3590 0
647 3590 0
648 3590 0
649 3590 -0
650 3590 -0.016643240039254253
651 3590 -0
652 3590 -0
653 3590 -0
654 3590 -0
1927 3590 0
1928 3590 0.70516692496269695
1929 3590 0
1930 3590 0
1931 3590 0
1932 3590 0
2293 3590 -0
2294 3590 -0.70516692496269695
2295 3590 -0
2296 3590 -0
2297 3590 -0
2298 3590 -0
643 3591 0
644 3591 0
645 3591 0.016624127736337181
646 3591 0
647 3591 0
648 3591 0
649 3591 -0
650 3591 -0
651 3591 -0.016585933143231667
652 3591 -0
653 3591 -0
654 3591 3.8067926667141391e-05
1927 3591 0
1928 3591 0
1929 3591 0.70516692496269695
1930 3591 0
1931 3591 0
1932 3591 0
2293 3591 -0
2294 3591 -0
2295 3591 -0.70516692496269695
2296 3591 -0
2297 3591 -0
2298 3591 -0
643 3592 0
644 3592 0
645 3592 0
646 3592 0.49726039206134737
647 3592 0
648 3592 0
649 3592 -0.99668365524927938
650 3592 0.067678768813813697
651 3592 -0
652 3592 -0.49611791657971721
653 3592 0.067532010077255816
654 3592 -0
1927 3592 0
1928 3592 0
1929 3592 0
1930 3592 0.70516692496269695
1931 3592 0
1932 3592 0
2293 3592 -0
2294 3592 -0
2295 3592 -0
2296 3592 -0.70516692496269695
2297 3592 -0
2298 3592 -0
643 3593 0
644 3593 0
645 3593 0
646 3593 0
647 3593 0.49840543371991375
648 3593 0
649 3593 -0.067601049744234934
650 3593 -0.99553485319114277
651 3593 -0
652 3593 -0.067376861357772475
653 3593 -0.49382500867881207
654 3593 -0
1927 3593 0
1928 3593 0
1929 3593 0
1930 3593 0
1931 3593 0.70516692496269695
1932 3593 0
2293 3593 -0
2294 3593 -0
2295 3593 -0
2296 3593 -0
2297 3593 -0.70516692496269695
2298 3593 -0
643 3594 0
644 3594 0
645 3594 0
646 3594 0
647 3594 0
648 3594 0.49726039206134764
649 3594 -0
650 3594 -0
651 3594 -0.99668365524927816
652 3594 -0
653 3594 -0
654 3594 -0.49611791657971638
1927 3594 0
1928 3594 0
1929 3594 0
1930 3594 0
1931 3594 0
1932 3594 0.70516692496269695
2293 3594 -0
2294 3594 -0
2295 3594 -0
2296 3594 -0
2297 3594 -0
2298 3594 -0.70516692496269695
649 3595 0.01662412773633716
650 3595 0
651 3595 0
652 3595 0
653 3595 0
654 3595 0
655 3595 -0.016738711515653665
656 3595 5.1859358331731552e-06
657 3595 -0
658 3595 -0.00011420378000142444
659 3595 7.763820444667679e-06
660 3595 -0
1933 3595 0.70516692496269695
1934 3595 0
1935 3595 0
1936 3595 0
1937 3595 0
1938 3595 0
2299 3595 -0.70516692496269695
2300 3595 -0
2301 3595 -0
2302 3595 -0
2303 3595 -0
2304 3595 -0
649 3596 0
650 3596 0.016643240039254284
651 3596 0
652 3596 0
653 3596 0
654 3596 0
655 3596 -0
656 3596 -0.016643240039254253
657 3596 -0
658 3596 -0
659 3596 -0
660 3596 -0
1933 3596 0
1934 3596 0.70516692496269695
1935 3596 0
1936 3596 0
1937 3596 0
1938 3596 0
2299 3596 -0
2300 3596 -0.70516692496269695
2301 3596 -0
2302 3596 -0
2303 3596 -0
2304 3596 -0
649 3597 0
650 3597 0
651 3597 0.016624127736337181
652 3597 0
653 3597 0
654 3597 0
655 3597 -0
656 3597 -0
657 3597 -0.016585933143231667
658 3597 -0
659 3597 -0
660 3597 3.8067926667141391e-05
1933 3597 0
1934 3597 0
1935 3597 0.70516692496269695
1936 3597 0
1937 3597 0
1938 3597 0
2299 3597 -0
2300 3597 -0
2301 3597 -0.70516692496269695
2302 3597 -0
2303 3597 -0
2304 3597 -0
649 3598 0
650 3598 0
651 3598 0
652 3598 0.49726039206134737
653 3598 0
654 3598 0
655 3598 -0.99668365524927938
656 3598 0.067678768813813697
657 3598 -0
658 3598 -0.49611791657971721
659 3598 0.067532010077255816
660 3598 -0
1933 3598 0
1934 3598 0
1935 3598 0
1936 3598 0.70516692496269695
1937 3598 0
1938 3598 0
2299 3598 -0
2300 3598 -0
2301 3598 -0
2302 3598 -0.70516692496269695
2303 3598 -0
2304 3598 -0
649 3599 0
650 3599 0
651 3599 0
652 3599 0
653 3599 0.49840543371991375
654 3599 0
655 3599 -0.067601049744234934
656 3599 -0.99553485319114277
657 3599 -0
658 3599 -0.067376861357772475
659 3599 -0.49382500867881207
660 3599 -0
1933 3599 0
1934 3599 0
1935 3599 0
1936 3599 0
1937 3599 0.70516692496269695
1938 3599 0
2299 3599 -0
2300 3599 -0
2301 3599 -0
2302 3599 -0
2303 3599 -0.70516692496269695
2304 3599 -0
649 3600 0
650 3600 0
651 3600 0
652 3600 0
653 3600 0
654 3600 0.49726039206134764
655 3600 -0
656 3600 -0
657 3600 -0.99668365524927816
658 3600 -0
659 3600 -0
660 3600 -0.49611791657971638
1933 3600 0
1934 3600 0
1935 3600 0
1936 3600 0
1937 3600 0
1938 3600 0.70516692496269695
2299 3600 -0
2300 3600 -0
2301 3600 -0
2302 3600 -0
2303 3600 -0
2304 3600 -0.70516692496269695
1075 3601 0.01662412773633716
1076 3601 0
1077 3601 0
1078 3601 0
1079 3601 0
1080 3601 0
1081 3601 -0.016738711515653665
1082 3601 5.1859358331731552e-06
1083 3601 -0
1084 3601 -0.00011420378000142444
1085 3601 7.763820444667679e-06
1086 3601 -0
2299 3601 0.70516692496269695
2300 3601 0
2301 3601 0
2302 3601 0
2303 3601 0
2304 3601 0
2665 3601 -0.70516692496269695
2666 3601 -0
2667 3601 -0
2668 3601 -0
2669 3601 -0
2670 3601 -0
1075 3602 0
1076 3602 0.016643240039254284
1077 3602 0
1078 3602 0
1079 3602 0
1080 3602 0
1081 3602 -0
1082 3602 -0.016643240039254253
1083 3602 -0
1084 3602 -0
1085 3602 -0
1086 3602 -0
2299 3602 0
2300 3602 0.70516692496269695
2301 3602 0
2302 3602 0
2303 3602 0
2304 3602 0
2665 3602 -0
2666 3602 -0.70516692496269695
2667 3602 -0
2668 3602 -0
2669 3602 -0
2670 3602 -0
1075 3603 0
1076 3603 0
1077 3603 0.016624127736337181
1078 3603 0
1079 3603 0
1080 3603 0
1081 3603 -0
1082 3603 -0
1083 3603 -0.016585933143231667
1084 3603 -0
1085 3603 -0
1086 3603 3.8067926667141391e-05
2299 3603 0
2300 3603 0
2301 3603 0.70516692496269695
2302 3603 0
2303 3603 0
2304 3603 0
2665 3603 -0
2666 3603 -0
2667 3603 -0.70516692496269695
2668 3603 -0
2669 3603 -0
2670 3603 -0
1075 3604 0
1076 3604 0
1077 3604 0
1078 3604 0.49726039206134737
1079 3604 0
1080 3604 0
1081 3604 -0.99668365524927938
1082 3604 0.067678768813813697
1083 3604 -0
1084 3604 -0.49611791657971721
1085 3604 0.067532010077255816
1086 3604 -0
2299 3604 0
2300 3604 0
2301 3604 0
2302 3604 0.70516692496269695
2303 3604 0
2304 3604 0
2665 3604 -0
2666 3604 -0
2667 3604 -0
2668 3604 -0.70516692496269695
2669 3604 -0
2670 3604 -0
1075 3605 0
1076 3605 0
1077 3605 0
1078 3605 0
1079 3605 0.49840543371991375
1080 3605 0
1081 3605 -0.067601049744234934
1082 3605 -0.99553485319114277
1083 3605 -0
1084 3605 -0.067376861357772475
1085 3605 -0.49382500867881207
1086 3605 -0
2299 3605 0
2300 3605 0
2301 3605 0
2302 3605 0
2303 3605 0.70516692496269695
2304 3605 0
2665 3605 -0
2666 3605 -0
2667 3605 -0
2668 3605 -0
2669 3605 -0.70516692496269695
2670 3605 -0
1075 3606 0
1076 3606 0
1077 3606 0
1078 3606 0
1079 3606 0
1080 3606 0.49726039206134764
1081 3606 -0
1082 3606 -0
1083 3606 -0.99668365524927816
1084 3606 -0
1085 3606 -0
1086 3606 -0.49611791657971638
2299 3606 0
2300 3606 0
2301 3606 0
2302 3606 0
2303 3606 0
2304 3606 0.70516692496269695
2665 3606 -0
2666 3606 -0
2667 3606 -0
2668 3606 -0
2669 3606 -0
2670 3606 -0.70516692496269695
1081 3607 0.01662412773633716
1082 3607 0
1083 3607 0
1084 3607 0
1085 3607 0
1086 3607 0
1087 3607 -0.016738711515653665
1088 3607 5.1859358331731552e-06
1089 3607 -0
1090 3607 -0.00011420378000142444
1091 3607 7.763820444667679e-06
1092 3607 -0
2305 3607 0.70516692496269695
2306 3607 0
2307 3607 0
2308 3607 0
2309 3607 0
2310 3607 0
2671 3607 -0.70516692496269695
2672 3607 -0
2673 3607 -0
2674 3607 -0
2675 3607 -0
2676 3607 -0
1081 3608 0
1082 3608 0.016643240039254284
1083 3608 0
1084 3608 0
1085 3608 0
1086 3608 0
1087 3608 -0
1088 3608 -0.016643240039254253
1089 3608 -0
1090 3608 -0
1091 3608 -0
1092 3608 -0
2305 3608 0
2306 3608 0.70516692496269695
2307 3608 0
2308 3608 0
2309 3608 0
2310 3608 0
2671 3608 -0
2672 3608 -0.70516692496269695
2673 3608 -0
2674 3608 -0
2675 3608 -0
2676 3608 -0
1081 3609 0
1082 3609 0
1083 3609 0.016624127736337181
1084 3609 0
1085 3609 0
1086 3609 0
1087 3609 -0
1088 3609 -0
1089 3609 -0.016585933143231667
1090 3609 -0
1091 3609 -0
1092 3609 3.8067926667141391e-05
2305 3609 0
2306 3609 0
2307 3609 0.70516692496269695
2308 3609 0
2309 3609 0
2310 3609 0
2671 3609 -0
2672 3609 -0
2673 3609 -0.70516692496269695
2674 3609 -0
2675 3609 -0
2676 3609 -0
1081 3610 0
1082 3610 0
1083 3610 0
1084 3610 0.49726039206134737
1085 3610 0
1086 3610 0
1087 3610 -0.99668365524927938
1088 3610 0.067678768813813697
1089 3610 -0
1090 3610 -0.49611791657971721
1091 3610 0.067532010077255816
1092 3610 -0
2305 3610 0
2306 3610 0
2307 3610 0
2308 3610 0.70516692496269695
2309 3610 0
2310 3610 0
2671 3610 -0
2672 3610 -0
2673 3610 -0
2674 3610 -0.70516692496269695
2675 3610 -0
2676 3610 -0
1081 3611 0
1082 3611 0
1083 3611 0
1084 3611 0
1085 3611 0.49840543371991375
1086 3611 0
1087 3611 -0.067601049744234934
1088 3611 -0.99553485319114277
1089 3611 -0
1090 3611 -0.067376861357772475
1091 3611 -0.49382500867881207
1092 3611 -0
2305 3611 0
2306 3611 0
2307 3611 0
2308 3611 0
2309 3611 0.70516692496269695
2310 3611 0
2671 3611 -0
2672 3611 -0
2673 3611 -0
2674 3611 -0
2675 3611 -0.70516692496269695
2676 3611 -0
1081 3612 0
1082 3612 0
1083 3612 0
1084 3612 0
1085 3612 0
1086 3612 0.49726039206134764
1087 3612 -0
1088 3612 -0
1089 3612 -0.99668365524927816
1090 3612 -0
1091 3612 -0
1092 3612 -0.49611791657971638
2305 3612 0
2306 3612 0
2307 3612 0
2308 3612 0
2309 3612 0
2310 3612 0.70516692496269695
2671 3612 -0
2672 3612 -0
2673 3612 -0
2674 3612 -0
2675 3612 -0
2676 3612 -0.70516692496269695
223 3613 0.01662412773633716
224 3613 0
225 3613 0
226 3613 0
227 3613 0
228 3613 0
229 3613 -0.016738711515653665
230 3613 5.1859358331731552e-06
231 3613 -0
232 3613 -0.00011420378000142444
233 3613 7.763820444667679e-06
234 3613 -0
1933 3613 -0.70516692496269695
1934 3613 -0
1935 3613 -0
1936 3613 -0
1937 3613 -0
1938 3613 -0
3031 3613 0.70516692496269695
3032 3613 0
3033 3613 0
3034 3613 0
3035 3613 0
3036 3613 0
223 3614 0
224 3614 0.016643240039254284
225 3614 0
226 3614 0
227 3614 0
228 3614 0
229 3614 -0
230 3614 -0.016643240039254253
231 3614 -0
232 3614 -0
233 3614 -0
234 3614 -0
1933 3614 -0
1934 3614 -0.70516692496269695
1935 3614 -0
1936 3614 -0
1937 3614 -0
1938 3614 -0
3031 3614 0
3032 3614 0.70516692496269695
3033 3614 0
3034 3614 0
3035 3614 0
3036 3614 0
223 3615 0
224 3615 0
225 3615 0.016624127736337181
226 3615 0
227 3615 0
228 3615 0
229 3615 -0
230 3615 -0
231 3615 -0.016585933143231667
232 3615 -0
233 3615 -0
234 3615 3.8067926667141391e-05
1933 3615 -0
1934 3615 -0
1935 3615 -0.70516692496269695
1936 3615 -0
1937 3615 -0
1938 3615 -0
3031 3615 0
3032 3615 0
3033 3615 0.70516692496269695
3034 3615 0
3035 3615 0
3036 3615 0
223 3616 0
224 3616 0
225 3616 0
226 3616 0.49726039206134737
227 3616 0
228 3616 0
229 3616 -0.99668365524927938
230 3616 0.067678768813813697
231 3616 -0
232 3616 -0.49611791657971721
233 3616 0.067532010077255816
234 3616 -0
1933 3616 -0
1934 3616 -0
1935 3616 -0
1936 3616 -0.70516692496269695
1937 3616 -0
1938 3616 -0
3031 3616 0
3032 3616 0
3033 3616 0
3034 3616 0.70516692496269695
3035 3616 0
3036 3616 0
223 3617 0
224 3617 0
225 3617 0
226 3617 0
227 3617 0.49840543371991375
228 3617 0
229 3617 -0.067601049744234934
230 3617 -0.99553485319114277
231 3617 -0
232 3617 -0.067376861357772475
233 3617 -0.49382500867881207
234 3617 -0
1933 3617 -0
1934 3617 -0
1935 3617 -0
1936 3617 -0
1937 3617 -0.70516692496269695
1938 3617 -0
3031 3617 0
3032 3617 0
3033 3617 0
3034 3617 0
3035 3617 0.70516692496269695
3036 3617 0
223 3618 0
224 3618 0
225 3618 0
226 3618 0
227 3618 0
228 3618 0.49726039206134764
229 3618 -0
230 3618 -0
231 3618 -0.99668365524927816
232 3618 -0
233 3618 -0
234 3618 -0.49611791657971638
1933 3618 -0
1934 3618 -0
1935 3618 -0
1936 3618 -0
1937 3618 -0
1938 3618 -0.70516692496269695
3031 3618 0
3032 3618 0
3033 3618 0
3034 3618 0
3035 3618 0
3036 3618 0.70516692496269695
229 3619 0.01662412773633716
230 3619 0
231 3619 0
232 3619 0
233 3619 0
234 3619 0
235 3619 -0.016738711515653665
236 3619 5.1859358331731552e-06
237 3619 -0
238 3619 -0.00011420378000142444
239 3619 7.763820444667679e-06
240 3619 -0
1939 3619 -0.70516692496269695
1940 3619 -0
1941 3619 -0
1942 3619 -0
1943 3619 -0
1944 3619 -0
3037 3619 0.70516692496269695
3038 3619 0
3039 3619 0
3040 3619 0
3041 3619 0
3042 3619 0
229 3620 0
230 3620 0.016643240039254284
231 3620 0
232 3620 0
233 3620 0
234 3620 0
235 3620 -0
236 3620 -0.016643240039254253
237 3620 -0
238 3620 -0
239 3620 -0
240 3620 -0
1939 3620 -0
1940 3620 -0.70516692496269695
1941 3620 -0
1942 3620 -0
1943 3620 -0
1944 3620 -0
3037 3620 0
3038 3620 0.70516692496269695
3039 3620 0
3040 3620 0
3041 3620 0
3042 3620 0
229 3621 0
230 3621 0
231 3621 0.016624127736337181
232 3621 0
233 3621 0
234 3621 0
235 3621 -0
236 3621 -0
237 3621 -0.016585933143231667
238 3621 -0
239 3621 -0
240 3621 3.8067926667141391e-05
1939 3621 -0
1940 3621 -0
1941 3621 -0.70516692496269695
1942 3621 -0
1943 3621 -0
1944 3621 -0
3037 3621 0
3038 3621 0
3039 3621 0.70516692496269695
3040 3621 0
3041 3621 0
3042 3621 0
229 3622 0
230 3622 0
231 3622 0
232 3622 0.49726039206134737
233 3622 0
234 3622 0
235 3622 -0.99668365524927938
236 3622 0.067678768813813697
237 3622 -0
238 3622 -0.49611791657971721
239 3622 0.067532010077255816
240 3622 -0
1939 3622 -0
1940 3622 -0
1941 3622 -0
1942 3622 -0.70516692496269695
1943 3622 -0
1944 3622 -0
3037 3622 0
3038 3622 0
3039 3622 0
3040 3622 0.70516692496269695
3041 3622 0
3042 3622 0
229 3623 0
230 3623 0
231 3623 0
232 3623 0
233 3623 0.49840543371991375
234 3623 0
235 3623 -0.067601049744234934
236 3623 -0.99553485319114277
237 3623 -0
238 3623 -0.067376861357772475
239 3623 -0.49382500867881207
240 3623 -0
1939 3623 -0
1940 3623 -0
1941 3623 -0
1942 3623 -0
1943 3623 -0.70516692496269695
1944 3623 -0
3037 3623 0
3038 3623 0
3039 3623 0
3040 3623 0
3041 3623 0.70516692496269695
3042 3623 0
229 3624 0
230 3624 0
231 3624 0
232 3624 0
233 3624 0
234 3624 0.49726039206134764
235 3624 -0
236 3624 -0
237 3624 -0.99668365524927816
238 3624 -0
239 3624 -0
240 3624 -0.49611791657971638
1939 3624 -0
1940 3624 -0
1941 3624 -0
1942 3624 -0
1943 3624 -0
1944 3624 -0.70516692496269695
3037 3624 0
3038 3624 0
3039 3624 0
3040 3624 0
3041 3624 0
3042 3624 0.70516692496269695
655 3625 0.01662412773633716
656 3625 0
657 3625 0
658 3625 0
659 3625 0
660 3625 0
661 3625 -0.016738711515653665
662 3625 5.1859358331731552e-06
663 3625 -0
664 3625 -0.00011420378000142444
665 3625 7.763820444667679e-06
666 3625 -0
1939 3625 0.70516692496269695
1940 3625 0
1941 3625 0
1942 3625 0
1943 3625 0
1944 3625 0
2305 3625 -0.70516692496269695
2306 3625 -0
2307 3625 -0
2308 3625 -0
2309 3625 -0
2310 3625 -0
655 3626 0
656 3626 0.016643240039254284
657 3626 0
658 3626 0
659 3626 0
660 3626 0
661 3626 -0
662 3626 -0.016643240039254253
663 3626 -0
664 3626 -0
665 3626 -0
666 3626 -0
1939 3626 0
1940 3626 0.70516692496269695
1941 3626 0
1942 3626 0
1943 3626 0
1944 3626 0
2305 3626 -0
2306 3626 -0.70516692496269695
2307 3626 -0
2308 3626 -0
2309 3626 -0
2310 3626 -0
655 3627 0
656 3627 0
657 3627 0.016624127736337181
658 3627 0
659 3627 0
660 3627 0
661 3627 -0
662 3627 -0
663 3627 -0.016585933143231667
664 3627 -0
665 3627 -0
666 3627 3.8067926667141391e-05
1939 3627 0
1940 3627 0
1941 3627 0.70516692496269695
1942 3627 0
1943 3627 0
1944 3627 0
2305 3627 -0
2306 3627 -0
2307 3627 -0.70516692496269695
2308 3627 -0
2309 3627 -0
2310 3627 -0
655 3628 0
656 3628 0
657 3628 0
658 3628 0.49726039206134737
659 3628 0
660 3628 0
661 3628 -0.99668365524927938
662 3628 0.067678768813813697
663 3628 -0
664 3628 -0.49611791657971721
665 3628 0.067532010077255816
666 3628 -0
1939 3628 0
1940 3628 0
1941 3628 0
1942 3628 0.70516692496269695
1943 3628 0
1944 3628 0
2305 3628 -0
2306 3628 -0
2307 3628 -0
2308 3628 -0.70516692496269695
2309 3628 -0
2310 3628 -0
655 3629 0
656 3629 0
657 3629 0
658 3629 0
659 3629 0.49840543371991375
660 3629 0
661 3629 -0.067601049744234934
662 3629 -0.99553485319114277
663 3629 -0
664 3629 -0.067376861357772475
665 3629 -0.49382500867881207
666 3629 -0
1939 3629 0
1940 3629 0
1941 3629 0
1942 3629 0
1943 3629 0.70516692496269695
1944 3629 0
2305 3629 -0
2306 3629 -0
2307 3629 -0
2308 3629 -0
2309 3629 -0.70516692496269695
2310 3629 -0
655 3630 0
656 3630 0
657 3630 0
658 3630 0
659 3630 0
660 3630 0.49726039206134764
661 3630 -0
662 3630 -0
663 3630 -0.99668365524927816
664 3630 -0
665 3630 -0
666 3630 -0.49611791657971638
1939 3630 0
1940 3630 0
1941 3630 0
1942 3630 0
1943 3630 0
1944 3630 0.70516692496269695
2305 3630 -0
2306 3630 -0
2307 3630 -0
2308 3630 -0
2309 3630 -0
2310 3630 -0.70516692496269695
661 3631 0.01662412773633716
662 3631 0
663 3631 0
664 3631 0
665 3631 0
666 3631 0
667 3631 -0.016738711515653665
668 3631 5.1859358331731552e-06
669 3631 -0
670 3631 -0.00011420378000142444
671 3631 7.763820444667679e-06
672 3631 -0
1945 3631 0.70516692496269695
1946 3631 0
1947 3631 0
1948 3631 0
1949 3631 0
1950 3631 0
2311 3631 -0.70516692496269695
2312 3631 -0
2313 3631 -0
2314 3631 -0
2315 3631 -0
2316 3631 -0
661 3632 0
662 3632 0.016643240039254284
663 3632 0
664 3632 0
665 3632 0
666 3632 0
667 3632 -0
668 3632 -0.016643240039254253
669 3632 -0
670 3632 -0
671 3632 -0
672 3632 -0
1945 3632 0
1946 3632 0.70516692496269695
1947 3632 0
1948 3632 0
1949 3632 0
1950 3632 0
2311 3632 -0
2312 3632 -0.70516692496269695
2313 3632 -0
2314 3632 -0
2315 3632 -0
2316 3632 -0
661 3633 0
662 3633 0
663 3633 0.016624127736337181
664 3633 0
665 3633 0
666 3633 0
667 3633 -0
668 3633 -0
669 3633 -0.016585933143231667
670 3633 -0
671 3633 -0
672 3633 3.8067926667141391e-05
1945 3633 0
1946 3633 0
1947 3633 0.70516692496269695
1948 3633 0
1949 3633 0
1950 3633 0
2311 3633 -0
2312 3633 -0
2313 3633 -0.70516692496269695
2314 3633 -0
2315 3633 -0
2316 3633 -0
661 3634 0
662 3634 0
663 3634 0
664 3634 0.49726039206134737
665 3634 0
666 3634 0
667 3634 -0.99668365524927938
668 3634 0.067678768813813697
669 3634 -0
670 3634 -0.49611791657971721
671 3634 0.067532010077255816
672 3634 -0
1945 3634 0
1946 3634 0
1947 3634 0
1948 3634 0.70516692496269695
1949 3634 0
1950 3634 0
2311 3634 -0
2312 3634 -0
2313 3634 -0
2314 3634 -0.70516692496269695
2315 3634 -0
2316 3634 -0
661 3635 0
662 3635 0
663 3635 0
664 3635 0
665 3635 0.49840543371991375
666 3635 0
667 3635 -0.067601049744234934
668 3635 -0.99553485319114277
669 3635 -0
670 3635 -0.067376861357772475
671 3635 -0.49382500867881207
672 3635 -0
1945 3635 0
1946 3635 0
1947 3635 0
1948 3635 0
1949 3635 0.70516692496269695
1950 3635 0
2311 3635 -0
2312 3635 -0
2313 3635 -0
2314 3635 -0
2315 3635 -0.70516692496269695
2316 3635 -0
661 3636 0
662 3636 0
663 3636 0
664 3636 0
665 3636 0
666 3636 0.49726039206134764
667 3636 -0
668 3636 -0
669 3636 -0.99668365524927816
670 3636 -0
671 3636 -0
672 3636 -0.49611791657971638
1945 3636 0
1946 3636 0
1947 3636 0
1948 3636 0
1949 3636 0
1950 3636 0.70516692496269695
2311 3636 -0
2312 3636 -0
2313 3636 -0
2314 3636 -0
2315 3636 -0
2316 3636 -0.70516692496269695
1507 3637 0.01662412773633716
1508 3637 0
1509 3637 0
1510 3637 0
1511 3637 0
1512 3637 0
1513 3637 -0.016738711515653665
1514 3637 5.1859358331731552e-06
1515 3637 -0
1516 3637 -0.00011420378000142444
1517 3637 7.763820444667679e-06
1518 3637 -0
2671 3637 0.70516692496269695
2672 3637 0
2673 3637 0
2674 3637 0
2675 3637 0
2676 3637 0
3037 3637 -0.70516692496269695
3038 3637 -0
3039 3637 -0
3040 3637 -0
3041 3637 -0
3042 3637 -0
1507 3638 0
1508 3638 0.016643240039254284
1509 3638 0
1510 3638 0
1511 3638 0
1512 3638 0
1513 3638 -0
1514 3638 -0.016643240039254253
1515 3638 -0
1516 3638 -0
1517 3638 -0
1518 3638 -0
2671 3638 0
2672 3638 0.70516692496269695
2673 3638 0
2674 3638 0
2675 3638 0
2676 3638 0
3037 3638 -0
3038 3638 -0.70516692496269695
3039 3638 -0
3040 3638 -0
3041 3638 -0
3042 3638 -0
1507 3639 0
1508 3639 0
1509 3639 0.016624127736337181
1510 3639 0
1511 3639 0
1512 3639 0
1513 3639 -0
1514 3639 -0
1515 3639 -0.016585933143231667
1516 3639 -0
1517 3639 -0
1518 3639 3.8067926667141391e-05
2671 3639 0
2672 3639 0
2673 3639 0.70516692496269695
2674 3639 0
2675 3639 0
2676 3639 0
3037 3639 -0
3038 3639 -0
3039 3639 -0.70516692496269695
3040 3639 -0
3041 3639 -0
3042 3639 -0
1507 3640 0
1508 3640 0
1509 3640 0
1510 3640 0.49726039206134737
1511 3640 0
1512 3640 0
1513 3640 -0.99668365524927938
1514 3640 0.067678768813813697
1515 3640 -0
1516 3640 -0.49611791657971721
1517 3640 0.067532010077255816
1518 3640 -0
2671 3640 0
2672 3640 0
2673 3640 0
2674 3640 0.70516692496269695
2675 3640 0
2676 3640 0
3037 3640 -0
3038 3640 -0
3039 3640 -0
3040 3640 -0.70516692496269695
3041 3640 -0
3042 3640 -0
1507 3641 0
1508 3641 0
1509 3641 0
1510 3641 0
1511 3641 0.49840543371991375
1512 3641 0
1513 3641 -0.067601049744234934
1514 3641 -0.99553485319114277
1515 3641 -0
1516 3641 -0.067376861357772475
1517 3641 -0.49382500867881207
1518 3641 -0
2671 3641 0
2672 3641 0
2673 3641 0
2674 3641 0
2675 3641 0.70516692496269695
2676 3641 0
3037 3641 -0
3038 3641 -0
3039 3641 -0
3040 3641 -0
3041 3641 -0.70516692496269695
3042 3641 -0
1507 3642 0
1508 3642 0
1509 3642 0
1510 3642 0
1511 3642 0
1512 3642 0.49726039206134764
1513 3642 -0
1514 3642 -0
1515 3642 -0.99668365524927816
1516 3642 -0
1517 3642 -0
1518 3642 -0.49611791657971638
2671 3642 0
2672 3642 0
2673 3642 0
2674 3642 0
2675 3642 0
2676 3642 0.70516692496269695
3037 3642 -0
3038 3642 -0
3039 3642 -0
3040 3642 -0
3041 3642 -0
3042 3642 -0.70516692496269695
1513 3643 0.01662412773633716
1514 3643 0
1515 3643 0
1516 3643 0
1517 3643 0
1518 3643 0
1519 3643 -0.016738711515653665
1520 3643 5.1859358331731552e-06
1521 3643 -0
1522 3643 -0.00011420378000142444
1523 3643 7.763820444667679e-06
1524 3643 -0
2677 3643 0.70516692496269695
2678 3643 0
2679 3643 0
2680 3643 0
2681 3643 0
2682 3643 0
3043 3643 -0.70516692496269695
3044 3643 -0
3045 3643 -0
3046 3643 -0
3047 3643 -0
3048 3643 -0
1513 3644 0
1514 3644 0.016643240039254284
1515 3644 0
1516 3644 0
1517 3644 0
1518 3644 0
1519 3644 -0
1520 3644 -0.016643240039254253
1521 3644 -0
1522 3644 -0
1523 3644 -0
1524 3644 -0
2677 3644 0
2678 3644 0.70516692496269695
2679 3644 0
2680 3644 0
2681 3644 0
2682 3644 0
3043 3644 -0
3044 3644 -0.70516692496269695
3045 3644 -0
3046 3644 -0
3047 3644 -0
3048 3644 -0
1513 3645 0
1514 3645 0
1515 3645 0.016624127736337181
1516 3645 0
1517 3645 0
1518 3645 0
1519 3645 -0
1520 3645 -0
1521 3645 -0.016585933143231667
1522 3645 -0
1523 3645 -0
1524 3645 3.8067926667141391e-05
2677 3645 0
2678 3645 0
2679 3645 0.70516692496269695
2680 3645 0
2681 3645 0
2682 3645 0
3043 3645 -0
3044 3645 -0
3045 3645 -0.70516692496269695
3046 3645 -0
3047 3645 -0
3048 3645 -0
1513 3646 0
1514 3646 0
1515 3646 0
1516 3646 0.49726039206134737
1517 3646 0
1518 3646 0
1519 3646 -0.99668365524927938
1520 3646 0.067678768813813697
1521 3646 -0
1522 3646 -0.49611791657971721
1523 3646 0.067532010077255816
1524 3646 -0
2677 3646 0
2678 3646 0
2679 3646 0
2680 3646 0.70516692496269695
2681 3646 0
2682 3646 0
3043 3646 -0
3044 3646 -0
3045 3646 -0
3046 3646 -0.70516692496269695
3047 3646 -0
3048 3646 -0
1513 3647 0
1514 3647 0
1515 3647 0
1516 3647 0
1517 3647 0.49840543371991375
1518 3647 0
1519 3647 -0.067601049744234934
1520 3647 -0.99553485319114277
1521 3647 -0
1522 3647 -0.067376861357772475
1523 3647 -0.49382500867881207
1524 3647 -0
2677 3647 0
2678 3647 0
2679 3647 0
2680 3647 0
2681 3647 0.70516692496269695
2682 3647 0
3043 3647 -0
3044 3647 -0
3045 3647 -0
3046 3647 -0
3047 3647 -0.70516692496269695
3048 3647 -0
1513 3648 0
1514 3648 0
1515 3648 0
1516 3648 0
1517 3648 0
1518 3648 0.49726039206134764
1519 3648 -0
1520 3648 -0
1521 3648 -0.99668365524927816
1522 3648 -0
1523 3648 -0
1524 3648 -0.49611791657971638
2677 3648 0
2678 3648 0
2679 3648 0
2680 3648 0
2681 3648 0
2682 3648 0.70516692496269695
3043 3648 -0
3044 3648 -0
3045 3648 -0
3046 3648 -0
3047 3648 -0
3048 3648 -0.70516692496269695
235 3649 0.01662412773633716
236 3649 0
237 3649 0
238 3649 0
239 3649 0
240 3649 0
241 3649 -0.016738711515653665
242 3649 5.1859358331731552e-06
243 3649 -0
244 3649 -0.00011420378000142444
245 3649 7.763820444667679e-06
246 3649 -0
1945 3649 -0.70516692496269695
1946 3649 -0
1947 3649 -0
1948 3649 -0
1949 3649 -0
1950 3649 -0
3043 3649 0.70516692496269695
3044 3649 0
3045 3649 0
3046 3649 0
3047 3649 0
3048 3649 0
235 3650 0
236 3650 0.016643240039254284
237 3650 0
238 3650 0
239 3650 0
240 3650 0
241 3650 -0
242 3650 -0.016643240039254253
243 3650 -0
244 3650 -0
245 3650 -0
246 3650 -0
1945 3650 -0
1946 3650 -0.70516692496269695
1947 3650 -0
1948 3650 -0
1949 3650 -0
1950 3650 -0
3043 3650 0
3044 3650 0.70516692496269695
3045 3650 0
3046 3650 0
3047 3650 0
3048 3650 0
235 3651 0
236 3651 0
237 3651 0.016624127736337181
238 3651 0
239 3651 0
240 3651 0
241 3651 -0
242 3651 -0
243 3651 -0.016585933143231667
244 3651 -0
245 3651 -0
246 3651 3.8067926667141391e-05
1945 3651 -0
1946 3651 -0
1947 3651 -0.70516692496269695
1948 3651 -0
1949 3651 -0
1950 3651 -0
3043 3651 0
3044 3651 0
3045 3651 0.70516692496269695
3046 3651 0
3047 3651 0
3048 3651 0
235 3652 0
236 3652 0
237 3652 0
238 3652 0.49726039206134737
239 3652 0
240 3652 0
241 3652 -0.99668365524927938
242 3652 0.067678768813813697
243 3652 -0
244 3652 -0.49611791657971721
245 3652 0.067532010077255816
246 3652 -0
1945 3652 -0
1946 3652 -0
1947 3652 -0
1948 3652 -0.70516692496269695
1949 3652 -0
1950 3652 -0
3043 3652 0
3044 3652 0
3045 3652 0
3046 3652 0.70516692496269695
3047 3652 0
3048 3652 0
235 3653 0
236 3653 0
237 3653 0
238 3653 0
239 3653 0.49840543371991375
240 3653 0
241 3653 -0.067601049744234934
242 3653 -0.99553485319114277
243 3653 -0
244 3653 -0.067376861357772475
245 3653 -0.49382500867881207
246 3653 -0
1945 3653 -0
1946 3653 -0
1947 3653 -0
1948 3653 -0
1949 3653 -0.70516692496269695
1950 3653 -0
3043 3653 0
3044 3653 0
3045 3653 0
3046 3653 0
3047 3653 0.70516692496269695
3048 3653 0
235 3654 0
236 3654 0
237 3654 0
238 3654 0
239 3654 0
240 3654 0.49726039206134764
241 3654 -0
242 3654 -0
243 3654 -0.99668365524927816
244 3654 -0
245 3654 -0
246 3654 -0.49611791657971638
1945 3654 -0
1946 3654 -0
1947 3654 -0
1948 3654 -0
1949 3654 -0
1950 3654 -0.70516692496269695
3043 3654 0
3044 3654 0
3045 3654 0
3046 3654 0
3047 3654 0
3048 3654 0.70516692496269695
241 3655 0.01662412773633716
242 3655 0
243 3655 0
244 3655 0
245 3655 0
246 3655 0
247 3655 -0.016738711515653665
248 3655 5.1859358331731552e-06
249 3655 -0
250 3655 -0.00011420378000142444
251 3655 7.763820444667679e-06
252 3655 -0
1951 3655 -0.70516692496269695
1952 3655 -0
1953 3655 -0
1954 3655 -0
1955 3655 -0
1956 3655 -0
3049 3655 0.70516692496269695
3050 3655 0
3051 3655 0
3052 3655 0
3053 3655 0
3054 3655 0
241 3656 0
242 3656 0.016643240039254284
243 3656 0
244 3656 0
245 3656 0
246 3656 0
247 3656 -0
248 3656 -0.016643240039254253
249 3656 -0
250 3656 -0
251 3656 -0
252 3656 -0
1951 3656 -0
1952 3656 -0.70516692496269695
1953 3656 -0
1954 3656 -0
1955 3656 -0
1956 3656 -0
3049 3656 0
3050 3656 0.70516692496269695
3051 3656 0
3052 3656 0
3053 3656 0
3054 3656 0
241 3657 0
242 3657 0
243 3657 0.016624127736337181
244 3657 0
245 3657 0
246 3657 0
247 3657 -0
248 3657 -0
249 3657 -0.016585933143231667
250 3657 -0
251 3657 -0
252 3657 3.8067926667141391e-05
1951 3657 -0
1952 3657 -0
1953 3657 -0.70516692496269695
1954 3657 -0
1955 3657 -0
1956 3657 -0
3049 3657 0
3050 3657 0
3051 3657 0.70516692496269695
3052 3657 0
3053 3657 0
3054 3657 0
241 3658 0
242 3658 0
243 3658 0
244 3658 0.49726039206134737
245 3658 0
246 3658 0
247 3658 -0.99668365524927938
248 3658 0.067678768813813697
249 3658 -0
250 3658 -0.49611791657971721
251 3658 0.067532010077255816
252 3658 -0
1951 3658 -0
1952 3658 -0
1953 3658 -0
1954 3658 -0.70516692496269695
1955 3658 -0
1956 3658 -0
3049 3658 0
3050 3658 0
3051 3658 0
3052 3658 0.70516692496269695
3053 3658 0
3054 3658 0
241 3659 0
242 3659 0
243 3659 0
244 3659 0
245 3659 0.49840543371991375
246 3659 0
247 3659 -0.067601049744234934
248 3659 -0.99553485319114277
249 3659 -0
250 3659 -0.067376861357772475
251 3659 -0.49382500867881207
252 3659 -0
1951 3659 -0
1952 3659 -0
1953 3659 -0
1954 3659 -0
1955 3659 -0.70516692496269695
1956 3659 -0
3049 3659 0
3050 3659 0
3051 3659 0
3052 3659 0
3053 3659 0.70516692496269695
3054 3659 0
241 3660 0
242 3660 0
243 3660 0
244 3660 0
245 3660 0
246 3660 0.49726039206134764
247 3660 -0
248 3660 -0
249 3660 -0.99668365524927816
250 3660 -0
251 3660 -0
252 3660 -0.49611791657971638
1951 3660 -0
1952 3660 -0
1953 3660 -0
1954 3660 -0
1955 3660 -0
1956 3660 -0.70516692496269695
3049 3660 0
3050 3660 0
3051 3660 0
3052 3660 0
3053 3660 0
3054 3660 0.70516692496269695
1087 3661 0.01662412773633716
1088 3661 0
1089 3661 0
1090 3661 0
1091 3661 0
1092 3661 0
1093 3661 -0.016738711515653665
1094 3661 5.1859358331731552e-06
1095 3661 -0
1096 3661 -0.00011420378000142444
1097 3661 7.763820444667679e-06
1098 3661 -0
2311 3661 0.70516692496269695
2312 3661 0
2313 3661 0
2314 3661 0
2315 3661 0
2316 3661 0
2677 3661 -0.70516692496269695
2678 3661 -0
2679 3661 -0
2680 3661 -0
2681 3661 -0
2682 3661 -0
1087 3662 0
1088 3662 0.016643240039254284
1089 3662 0
1090 3662 0
1091 3662 0
1092 3662 0
1093 3662 -0
1094 3662 -0.016643240039254253
1095 3662 -0
1096 3662 -0
1097 3662 -0
1098 3662 -0
2311 3662 0
2312 3662 0.70516692496269695
2313 3662 0
2314 3662 0
2315 3662 0
2316 3662 0
2677 3662 -0
2678 3662 -0.70516692496269695
2679 3662 -0
2680 3662 -0
2681 3662 -0
2682 3662 -0
1087 3663 0
1088 3663 0
1089 3663 0.016624127736337181
1090 3663 0
1091 3663 0
1092 3663 0
1093 3663 -0
1094 3663 -0
1095 3663 -0.016585933143231667
1096 3663 -0
1097 3663 -0
1098 3663 3.8067926667141391e-05
2311 3663 0
2312 3663 0
2313 3663 0.70516692496269695
2314 3663 0
2315 3663 0
2316 3663 0
2677 3663 -0
2678 3663 -0
2679 3663 -0.70516692496269695
2680 3663 -0
2681 3663 -0
2682 3663 -0
1087 3664 0
1088 3664 0
1089 3664 0
1090 3664 0.49726039206134737
1091 3664 0
1092 3664 0
1093 3664 -0.99668365524927938
1094 3664 0.067678768813813697
1095 3664 -0
1096 3664 -0.49611791657971721
1097 3664 0.067532010077255816
1098 3664 -0
2311 3664 0
2312 3664 0
2313 3664 0
2314 3664 0.70516692496269695
2315 3664 0
2316 3664 0
2677 3664 -0
2678 3664 -0
2679 3664 -0
2680 3664 -0.70516692496269695
2681 3664 -0
2682 3664 -0
1087 3665 0
1088 3665 0
1089 3665 0
1090 3665 0
1091 3665 0.49840543371991375
1092 3665 0
1093 3665 -0.067601049744234934
1094 3665 -0.99553485319114277
1095 3665 -0
1096 3665 -0.067376861357772475
1097 3665 -0.49382500867881207
1098 3665 -0
2311 3665 0
2312 3665 0
2313 3665 0
2314 3665 0
2315 3665 0.70516692496269695
2316 3665 0
2677 3665 -0
2678 3665 -0
2679 3665 -0
2680 3665 -0
2681 3665 -0.70516692496269695
2682 3665 -0
1087 3666 0
1088 3666 0
1089 3666 0
1090 3666 0
1091 3666 0
1092 3666 0.49726039206134764
1093 3666 -0
1094 3666 -0
1095 3666 -0.99668365524927816
1096 3666 -0
1097 3666 -0
1098 3666 -0.49611791657971638
2311 3666 0
2312 3666 0
2313 3666 0
2314 3666 0
2315 3666 0
2316 3666 0.70516692496269695
2677 3666 -0
2678 3666 -0
2679 3666 -0
2680 3666 -0
2681 3666 -0
2682 3666 -0.70516692496269695
1093 3667 0.01662412773633716
1094 3667 0
1095 3667 0
1096 3667 0
1097 3667 0
1098 3667 0
1099 3667 -0.016738711515653665
1100 3667 5.1859358331731552e-06
1101 3667 -0
1102 3667 -0.00011420378000142444
1103 3667 7.763820444667679e-06
1104 3667 -0
2317 3667 0.70516692496269695
2318 3667 0
2319 3667 0
2320 3667 0
2321 3667 0
2322 3667 0
2683 3667 -0.70516692496269695
2684 3667 -0
2685 3667 -0
2686 3667 -0
2687 3667 -0
2688 3667 -0
1093 3668 0
1094 3668 0.016643240039254284
1095 3668 0
1096 3668 0
1097 3668 0
1098 3668 0
1099 3668 -0
1100 3668 -0.016643240039254253
1101 3668 -0
1102 3668 -0
1103 3668 -0
1104 3668 -0
2317 3668 0
2318 3668 0.70516692496269695
2319 3668 0
2320 3668 0
2321 3668 0
2322 3668 0
2683 3668 -0
2684 3668 -0.70516692496269695
2685 3668 -0
2686 3668 -0
2687 3668 -0
2688 3668 -0
1093 3669 0
1094 3669 0
1095 3669 0.016624127736337181
1096 3669 0
1097 3669 0
1098 3669 0
1099 3669 -0
1100 3669 -0
1101 3669 -0.016585933143231667
1102 3669 -0
1103 3669 -0
1104 3669 3.8067926667141391e-05
2317 3669 0
2318 3669 0
2319 3669 0.70516692496269695
2320 3669 0
2321 3669 0
2322 3669 0
2683 3669 -0
2684 3669 -0
2685 3669 -0.70516692496269695
2686 3669 -0
2687 3669 -0
2688 3669 -0
1093 3670 0
1094 3670 0
1095 3670 0
1096 3670 0.49726039206134737
1097 3670 0
1098 3670 0
1099 3670 -0.99668365524927938
1100 3670 0.067678768813813697
1101 3670 -0
1102 3670 -0.49611791657971721
1103 3670 0.067532010077255816
1104 3670 -0
2317 3670 0
2318 3670 0
2319 3670 0
2320 3670 0.70516692496269695
2321 3670 0
2322 3670 0
2683 3670 -0
2684 3670 -0
2685 3670 -0
2686 3670 -0.70516692496269695
2687 3670 -0
2688 3670 -0
1093 3671 0
1094 3671 0
1095 3671 0
1096 3671 0
1097 3671 0.49840543371991375
1098 3671 0
1099 3671 -0.067601049744234934
1100 3671 -0.99553485319114277
1101 3671 -0
1102 3671 -0.067376861357772475
1103 3671 -0.49382500867881207
1104 3671 -0
2317 3671 0
2318 3671 0
2319 3671 0
2320 3671 0
2321 3671 0.70516692496269695
2322 3671 0
2683 3671 -0
2684 3671 -0
2685 3671 -0
2686 3671 -0
2687 3671 -0.70516692496269695
2688 3671 -0
1093 3672 0
1094 3672 0
1095 3672 0
1096 3672 0
1097 3672 0
1098 3672 0.49726039206134764
1099 3672 -0
1100 3672 -0
1101 3672 -0.99668365524927816
1102 3672 -0
1103 3672 -0
1104 3672 -0.49611791657971638
2317 3672 0
2318 3672 0
2319 3672 0
2320 3672 0
2321 3672 0
2322 3672 0.70516692496269695
2683 3672 -0
2684 3672 -0
2685 3672 -0
2686 3672 -0
2687 3672 -0
2688 3672 -0.70516692496269695
1519 3673 0.01662412773633716
1520 3673 0
1521 3673 0
1522 3673 0
1523 3673 0
1524 3673 0
1525 3673 -0.016738711515653665
1526 3673 5.1859358331731552e-06
1527 3673 -0
1528 3673 -0.00011420378000142444
1529 3673 7.763820444667679e-06
1530 3673 -0
2683 3673 0.70516692496269695
2684 3673 0
2685 3673 0
2686 3673 0
2687 3673 0
2688 3673 0
3049 3673 -0.70516692496269695
3050 3673 -0
3051 3673 -0
3052 3673 -0
3053 3673 -0
3054 3673 -0
1519 3674 0
1520 3674 0.016643240039254284
1521 3674 0
1522 3674 0
1523 3674 0
1524 3674 0
1525 3674 -0
1526 3674 -0.016643240039254253
1527 3674 -0
1528 3674 -0
1529 3674 -0
1530 3674 -0
2683 3674 0
2684 3674 0.70516692496269695
2685 3674 0
2686 3674 0
2687 3674 0
2688 3674 0
3049 3674 -0
3050 3674 -0.70516692496269695
3051 3674 -0
3052 3674 -0
3053 3674 -0
3054 3674 -0
1519 3675 0
1520 3675 0
1521 3675 0.016624127736337181
1522 3675 0
1523 3675 0
1524 3675 0
1525 3675 -0
1526 3675 -0
1527 3675 -0.016585933143231667
1528 3675 -0
1529 3675 -0
1530 3675 3.8067926667141391e-05
2683 3675 0
2684 3675 0
2685 3675 0.70516692496269695
2686 3675 0
2687 3675 0
2688 3675 0
3049 3675 -0
3050 3675 -0
3051 3675 -0.70516692496269695
3052 3675 -0
3053 3675 -0
3054 3675 -0
1519 3676 0
1520 3676 0
1521 3676 0
1522 3676 0.49726039206134737
1523 3676 0
1524 3676 0
1525 3676 -0.99668365524927938
1526 3676 0.067678768813813697
1527 3676 -0
1528 3676 -0.49611791657971721
1529 3676 0.067532010077255816
1530 3676 -0
2683 3676 0
2684 3676 0
2685 3676 0
2686 3676 0.70516692496269695
2687 3676 0
2688 3676 0
3049 3676 -0
3050 3676 -0
3051 3676 -0
3052 3676 -0.70516692496269695
3053 3676 -0
3054 3676 -0
1519 3677 0
1520 3677 0
1521 3677 0
1522 3677 0
1523 3677 0.49840543371991375
1524 3677 0
1525 3677 -0.067601049744234934
1526 3677 -0.99553485319114277
1527 3677 -0
1528 3677 -0.067376861357772475
1529 3677 -0.49382500867881207
1530 3677 -0
2683 3677 0
2684 3677 0
2685 3677 0
2686 3677 0
2687 3677 0.70516692496269695
2688 3677 0
3049 3677 -0
3050 3677 -0
3051 3677 -0
3052 3677 -0
3053 3677 -0.70516692496269695
3054 3677 -0
1519 3678 0
1520 3678 0
1521 3678 0
1522 3678 0
1523 3678 0
1524 3678 0.49726039206134764
1525 3678 -0
1526 3678 -0
1527 3678 -0.99668365524927816
1528 3678 -0
1529 3678 -0
1530 3678 -0.49611791657971638
2683 3678 0
2684 3678 0
2685 3678 0
2686 3678 0
2687 3678 0
2688 3678 0.70516692496269695
3049 3678 -0
3050 3678 -0
3051 3678 -0
3052 3678 -0
3053 3678 -0
3054 3678 -0.70516692496269695
1525 3679 0.01662412773633716
1526 3679 0
1527 3679 0
1528 3679 0
1529 3679 0
1530 3679 0
1531 3679 -0.016738711515653665
1532 3679 5.1859358331731552e-06
1533 3679 -0
1534 3679 -0.00011420378000142444
1535 3679 7.763820444667679e-06
1536 3679 -0
2689 3679 0.70516692496269695
2690 3679 0
2691 3679 0
2692 3679 0
2693 3679 0
2694 3679 0
3055 3679 -0.70516692496269695
3056 3679 -0
3057 3679 -0
3058 3679 -0
3059 3679 -0
3060 3679 -0
1525 3680 0
1526 3680 0.016643240039254284
1527 3680 0
1528 3680 0
1529 3680 0
1530 3680 0
1531 3680 -0
1532 3680 -0.016643240039254253
1533 3680 -0
1534 3680 -0
1535 3680 -0
1536 3680 -0
2689 3680 0
2690 3680 0.70516692496269695
2691 3680 0
2692 3680 0
2693 3680 0
2694 3680 0
3055 3680 -0
3056 3680 -0.70516692496269695
3057 3680 -0
3058 3680 -0
3059 3680 -0
3060 3680 -0
1525 3681 0
1526 3681 0
1527 3681 0.016624127736337181
1528 3681 0
1529 3681 0
1530 3681 0
1531 3681 -0
1532 3681 -0
1533 3681 -0.016585933143231667
1534 3681 -0
1535 3681 -0
1536 3681 3.8067926667141391e-05
2689 3681 0
2690 3681 0
2691 3681 0.70516692496269695
2692 3681 0
2693 3681 0
2694 3681 0
3055 3681 -0
3056 3681 -0
3057 3681 -0.70516692496269695
3058 3681 -0
3059 3681 -0
3060 3681 -0
1525 3682 0
1526 3682 0
1527 3682 0
1528 3682 0.49726039206134737
1529 3682 0
1530 3682 0
1531 3682 -0.99668365524927938
1532 3682 0.067678768813813697
1533 3682 -0
1534 3682 -0.49611791657971721
1535 3682 0.067532010077255816
1536 3682 -0
2689 3682 0
2690 3682 0
2691 3682 0
2692 3682 0.70516692496269695
2693 3682 0
2694 3682 0
3055 3682 -0
3056 3682 -0
3057 3682 -0
3058 3682 -0.70516692496269695
3059 3682 -0
3060 3682 -0
1525 3683 0
1526 3683 0
1527 3683 0
1528 3683 0
1529 3683 0.49840543371991375
1530 3683 0
1531 3683 -0.067601049744234934
1532 3683 -0.99553485319114277
1533 3683 -0
1534 3683 -0.067376861357772475
1535 3683 -0.49382500867881207
1536 3683 -0
2689 3683 0
2690 3683 0
2691 3683 0
2692 3683 0
2693 3683 0.70516692496269695
2694 3683 0
3055 3683 -0
3056 3683 -0
3057 3683 -0
3058 3683 -0
3059 3683 -0.70516692496269695
3060 3683 -0
1525 3684 0
1526 3684 0
1527 3684 0
1528 3684 0
1529 3684 0
1530 3684 0.49726039206134764
1531 3684 -0
1532 3684 -0
1533 3684 -0.99668365524927816
1534 3684 -0
1535 3684 -0
1536 3684 -0.49611791657971638
2689 3684 0
2690 3684 0
2691 3684 0
2692 3684 0
2693 3684 0
2694 3684 0.70516692496269695
3055 3684 -0
3056 3684 -0
3057 3684 -0
3058 3684 -0
3059 3684 -0
3060 3684 -0.70516692496269695
667 3685 0.01662412773633716
668 3685 0
669 3685 0
670 3685 0
671 3685 0
672 3685 0
673 3685 -0.016738711515653665
674 3685 5.1859358331731552e-06
675 3685 -0
676 3685 -0.00011420378000142444
677 3685 7.763820444667679e-06
678 3685 -0
1951 3685 0.70516692496269695
1952 3685 0
1953 3685 0
1954 3685 0
1955 3685 0
1956 3685 0
2317 3685 -0.70516692496269695
2318 3685 -0
2319 3685 -0
2320 3685 -0
2321 3685 -0
2322 3685 -0
667 3686 0
668 3686 0.016643240039254284
669 3686 0
670 3686 0
671 3686 0
672 3686 0
673 3686 -0
674 3686 -0.016643240039254253
675 3686 -0
676 3686 -0
677 3686 -0
678 3686 -0
1951 3686 0
1952 3686 0.70516692496269695
1953 3686 0
1954 3686 0
1955 3686 0
1956 3686 0
2317 3686 -0
2318 3686 -0.70516692496269695
2319 3686 -0
2320 3686 -0
2321 3686 -0
2322 3686 -0
667 3687 0
668 3687 0
669 3687 0.016624127736337181
670 3687 0
671 3687 0
672 3687 0
673 3687 -0
674 3687 -0
675 3687 -0.016585933143231667
676 3687 -0
677 3687 -0
678 3687 3.8067926667141391e-05
1951 3687 0
1952 3687 0
1953 3687 0.70516692496269695
1954 3687 0
1955 3687 0
1956 3687 0
2317 3687 -0
2318 3687 -0
2319 3687 -0.70516692496269695
2320 3687 -0
2321 3687 -0
2322 3687 -0
667 3688 0
668 3688 0
669 3688 0
670 3688 0.49726039206134737
671 3688 0
672 3688 0
673 3688 -0.99668365524927938
674 3688 0.067678768813813697
675 3688 -0
676 3688 -0.49611791657971721
677 3688 0.067532010077255816
678 3688 -0
1951 3688 0
1952 3688 0
1953 3688 0
1954 3688 0.70516692496269695
1955 3688 0
1956 3688 0
2317 3688 -0
2318 3688 -0
2319 3688 -0
2320 3688 -0.70516692496269695
2321 3688 -0
2322 3688 -0
667 3689 0
668 3689 0
669 3689 0
670 3689 0
671 3689 0.49840543371991375
672 3689 0
673 3689 -0.067601049744234934
674 3689 -0.99553485319114277
675 3689 -0
676 3689 -0.067376861357772475
677 3689 -0.49382500867881207
678 3689 -0
1951 3689 0
1952 3689 0
1953 3689 0
1954 3689 0
1955 3689 0.70516692496269695
1956 3689 0
2317 3689 -0
2318 3689 -0
2319 3689 -0
2320 3689 -0
2321 3689 -0.70516692496269695
2322 3689 -0
667 3690 0
668 3690 0
669 3690 0
670 3690 0
671 3690 0
672 3690 0.49726039206134764
673 3690 -0
674 3690 -0
675 3690 -0.99668365524927816
676 3690 -0
677 3690 -0
678 3690 -0.49611791657971638
1951 3690 0
1952 3690 0
1953 3690 0
1954 3690 0
1955 3690 0
1956 3690 0.70516692496269695
2317 3690 -0
2318 3690 -0
2319 3690 -0
2320 3690 -0
2321 3690 -0
2322 3690 -0.70516692496269695
673 3691 0.01662412773633716
674 3691 0
675 3691 0
676 3691 0
677 3691 0
678 3691 0
679 3691 -0.016738711515653665
680 3691 5.1859358331731552e-06
681 3691 -0
682 3691 -0.00011420378000142444
683 3691 7.763820444667679e-06
684 3691 -0
1957 3691 0.70516692496269695
1958 3691 0
1959 3691 0
1960 3691 0
1961 3691 0
1962 3691 0
2323 3691 -0.70516692496269695
2324 3691 -0
2325 3691 -0
2326 3691 -0
2327 3691 -0
2328 3691 -0
673 3692 0
674 3692 0.016643240039254284
675 3692 0
676 3692 0
677 3692 0
678 3692 0
679 3692 -0
680 3692 -0.016643240039254253
681 3692 -0
682 3692 -0
683 3692 -0
684 3692 -0
1957 3692 0
1958 3692 0.70516692496269695
1959 3692 0
1960 3692 0
1961 3692 0
1962 3692 0
2323 3692 -0
2324 3692 -0.70516692496269695
2325 3692 -0
2326 3692 -0
2327 3692 -0
2328 3692 -0
673 3693 0
674 3693 0
675 3693 0.016624127736337181
676 3693 0
677 3693 0
678 3693 0
679 3693 -0
680 3693 -0
681 3693 -0.016585933143231667
682 3693 -0
683 3693 -0
684 3693 3.8067926667141391e-05
1957 3693 0
1958 3693 0
1959 3693 0.70516692496269695
1960 3693 0
1961 3693 0
1962 3693 0
2323 3693 -0
2324 3693 -0
2325 3693 -0.70516692496269695
2326 3693 -0
2327 3693 -0
2328 3693 -0
673 3694 0
674 3694 0
675 3694 0
676 3694 0.49726039206134737
677 3694 0
678 3694 0
679 3694 -0.99668365524927938
680 3694 0.067678768813813697
681 3694 -0
682 3694 -0.49611791657971721
683 3694 0.067532010077255816
684 3694 -0
1957 3694 0
1958 3694 0
1959 3694 0
1960 3694 0.70516692496269695
1961 3694 0
1962 3694 0
2323 3694 -0
2324 3694 -0
2325 3694 -0
2326 3694 -0.70516692496269695
2327 3694 -0
2328 3694 -0
673 3695 0
674 3695 0
675 3695 0
676 3695 0
677 3695 0.49840543371991375
678 3695 0
679 3695 -0.067601049744234934
680 3695 -0.99553485319114277
681 3695 -0
682 3695 -0.067376861357772475
683 3695 -0.49382500867881207
684 3695 -0
1957 3695 0
1958 3695 0
1959 3695 0
1960 3695 0
1961 3695 0.70516692496269695
1962 3695 0
2323 3695 -0
2324 3695 -0
2325 3695 -0
2326 3695 -0
2327 3695 -0.70516692496269695
2328 3695 -0
673 3696 0
674 3696 0
675 3696 0
676 3696 0
677 3696 0
678 3696 0.49726039206134764
679 3696 -0
680 3696 -0
681 3696 -0.99668365524927816
682 3696 -0
683 3696 -0
684 3696 -0.49611791657971638
1957 3696 0
1958 3696 0
1959 3696 0
1960 3696 0
1961 3696 0
1962 3696 0.70516692496269695
2323 3696 -0
2324 3696 -0
2325 3696 -0
2326 3696 -0
2327 3696 -0
2328 3696 -0.70516692496269695
1099 3697 0.01662412773633716
1100 3697 0
1101 3697 0
1102 3697 0
1103 3697 0
1104 3697 0
1105 3697 -0.016738711515653665
1106 3697 5.1859358331731552e-06
1107 3697 -0
1108 3697 -0.00011420378000142444
1109 3697 7.763820444667679e-06
1110 3697 -0
2323 3697 0.70516692496269695
2324 3697 0
2325 3697 0
2326 3697 0
2327 3697 0
2328 3697 0
2689 3697 -0.70516692496269695
2690 3697 -0
2691 3697 -0
2692 3697 -0
2693 3697 -0
2694 3697 -0
1099 3698 0
1100 3698 0.016643240039254284
1101 3698 0
1102 3698 0
1103 3698 0
1104 3698 0
1105 3698 -0
1106 3698 -0.016643240039254253
1107 3698 -0
1108 3698 -0
1109 3698 -0
1110 3698 -0
2323 3698 0
2324 3698 0.70516692496269695
2325 3698 0
2326 3698 0
2327 3698 0
2328 3698 0
2689 3698 -0
2690 3698 -0.70516692496269695
2691 3698 -0
2692 3698 -0
2693 3698 -0
2694 3698 -0
1099 3699 0
1100 3699 0
1101 3699 0.016624127736337181
1102 3699 0
1103 3699 0
1104 3699 0
1105 3699 -0
1106 3699 -0
1107 3699 -0.016585933143231667
1108 3699 -0
1109 3699 -0
1110 3699 3.8067926667141391e-05
2323 3699 0
2324 3699 0
2325 3699 0.70516692496269695
2326 3699 0
2327 3699 0
2328 3699 0
2689 3699 -0
2690 3699 -0
2691 3699 -0.70516692496269695
2692 3699 -0
2693 3699 -0
2694 3699 -0
1099 3700 0
1100 3700 0
1101 3700 0
1102 3700 0.49726039206134737
1103 3700 0
1104 3700 0
1105 3700 -0.99668365524927938
1106 3700 0.067678768813813697
1107 3700 -0
1108 3700 -0.49611791657971721
1109 3700 0.067532010077255816
1110 3700 -0
2323 3700 0
2324 3700 0
2325 3700 0
2326 3700 0.70516692496269695
2327 3700 0
2328 3700 0
2689 3700 -0
2690 3700 -0
2691 3700 -0
2692 3700 -0.70516692496269695
2693 3700 -0
2694 3700 -0
1099 3701 0
1100 3701 0
1101 3701 0
1102 3701 0
1103 3701 0.49840543371991375
1104 3701 0
1105 3701 -0.067601049744234934
1106 3701 -0.99553485319114277
1107 3701 -0
1108 3701 -0.067376861357772475
1109 3701 -0.49382500867881207
1110 3701 -0
2323 3701 0
2324 3701 0
2325 3701 0
2326 3701 0
2327 3701 0.70516692496269695
2328 3701 0
2689 3701 -0
2690 3701 -0
2691 3701 -0
2692 3701 -0
2693 3701 -0.70516692496269695
2694 3701 -0
1099 3702 0
1100 3702 0
1101 3702 0
1102 3702 0
1103 3702 0
1104 3702 0.49726039206134764
1105 3702 -0
1106 3702 -0
1107 3702 -0.99668365524927816
1108 3702 -0
1109 3702 -0
1110 3702 -0.49611791657971638
2323 3702 0
2324 3702 0
2325 3702 0
2326 3702 0
2327 3702 0
2328 3702 0.70516692496269695
2689 3702 -0
2690 3702 -0
2691 3702 -0
2692 3702 -0
2693 3702 -0
2694 3702 -0.70516692496269695
1105 3703 0.01662412773633716
1106 3703 0
1107 3703 0
1108 3703 0
1109 3703 0
1110 3703 0
1111 3703 -0.016738711515653665
1112 3703 5.1859358331731552e-06
1113 3703 -0
1114 3703 -0.00011420378000142444
1115 3703 7.763820444667679e-06
1116 3703 -0
2329 3703 0.70516692496269695
2330 3703 0
2331 3703 0
2332 3703 0
2333 3703 0
2334 3703 0
2695 3703 -0.70516692496269695
2696 3703 -0
2697 3703 -0
2698 3703 -0
2699 3703 -0
2700 3703 -0
1105 3704 0
1106 3704 0.016643240039254284
1107 3704 0
1108 3704 0
1109 3704 0
1110 3704 0
1111 3704 -0
1112 3704 -0.016643240039254253
1113 3704 -0
1114 3704 -0
1115 3704 -0
1116 3704 -0
2329 3704 0
2330 3704 0.70516692496269695
2331 3704 0
2332 3704 0
2333 3704 0
2334 3704 0
2695 3704 -0
2696 3704 -0.70516692496269695
2697 3704 -0
2698 3704 -0
2699 3704 -0
2700 3704 -0
1105 3705 0
1106 3705 0
1107 3705 0.016624127736337181
1108 3705 0
1109 3705 0
1110 3705 0
1111 3705 -0
1112 3705 -0
1113 3705 -0.016585933143231667
1114 3705 -0
1115 3705 -0
1116 3705 3.8067926667141391e-05
2329 3705 0
2330 3705 0
2331 3705 0.70516692496269695
2332 3705 0
2333 3705 0
2334 3705 0
2695 3705 -0
2696 3705 -0
2697 3705 -0.70516692496269695
2698 3705 -0
2699 3705 -0
2700 3705 -0
1105 3706 0
1106 3706 0
1107 3706 0
1108 3706 0.49726039206134737
1109 3706 0
1110 3706 0
1111 3706 -0.99668365524927938
1112 3706 0.067678768813813697
1113 3706 -0
1114 3706 -0.49611791657971721
1115 3706 0.067532010077255816
1116 3706 -0
2329 3706 0
2330 3706 0
2331 3706 0
2332 3706 0.70516692496269695
2333 3706 0
2334 3706 0
2695 3706 -0
2696 3706 -0
2697 3706 -0
2698 3706 -0.70516692496269695
2699 3706 -0
2700 3706 -0
1105 3707 0
1106 3707 0
1107 3707 0
1108 3707 0
1109 3707 0.49840543371991375
1110 3707 0
1111 3707 -0.067601049744234934
1112 3707 -0.99553485319114277
1113 3707 -0
1114 3707 -0.067376861357772475
1115 3707 -0.49382500867881207
1116 3707 -0
2329 3707 0
2330 3707 0
2331 3707 0
2332 3707 0
2333 3707 0.70516692496269695
2334 3707 0
2695 3707 -0
2696 3707 -0
2697 3707 -0
2698 3707 -0
2699 3707 -0.70516692496269695
2700 3707 -0
1105 3708 0
1106 3708 0
1107 3708 0
1108 3708 0
1109 3708 0
1110 3708 0.49726039206134764
1111 3708 -0
1112 3708 -0
1113 3708 -0.99668365524927816
1114 3708 -0
1115 3708 -0
1116 3708 -0.49611791657971638
2329 3708 0
2330 3708 0
2331 3708 0
2332 3708 0
2333 3708 0
2334 3708 0.70516692496269695
2695 3708 -0
2696 3708 -0
2697 3708 -0
2698 3708 -0
2699 3708 -0
2700 3708 -0.70516692496269695
247 3709 0.01662412773633716
248 3709 0
249 3709 0
250 3709 0
251 3709 0
252 3709 0
253 3709 -0.016738711515653665
254 3709 5.1859358331731552e-06
255 3709 -0
256 3709 -0.00011420378000142444
257 3709 7.763820444667679e-06
258 3709 -0
1957 3709 -0.70516692496269695
1958 3709 -0
1959 3709 -0
1960 3709 -0
1961 3709 -0
1962 3709 -0
3055 3709 0.70516692496269695
3056 3709 0
3057 3709 0
3058 3709 0
3059 3709 0
3060 3709 0
247 3710 0
248 3710 0.016643240039254284
249 3710 0
250 3710 0
251 3710 0
252 3710 0
253 3710 -0
254 3710 -0.016643240039254253
255 3710 -0
256 3710 -0
257 3710 -0
258 3710 -0
1957 3710 -0
1958 3710 -0.70516692496269695
1959 3710 -0
1960 3710 -0
1961 3710 -0
1962 3710 -0
3055 3710 0
3056 3710 0.70516692496269695
3057 3710 0
3058 3710 0
3059 3710 0
3060 3710 0
247 3711 0
248 3711 0
249 3711 0.016624127736337181
250 3711 0
251 3711 0
252 3711 0
253 3711 -0
254 3711 -0
255 3711 -0.016585933143231667
256 3711 -0
257 3711 -0
258 3711 3.8067926667141391e-05
1957 3711 -0
1958 3711 -0
1959 3711 -0.70516692496269695
1960 3711 -0
1961 3711 -0
1962 3711 -0
3055 3711 0
3056 3711 0
3057 3711 0.70516692496269695
3058 3711 0
3059 3711 0
3060 3711 0
247 3712 0
248 3712 0
249 3712 0
250 3712 0.49726039206134737
251 3712 0
252 3712 0
253 3712 -0.99668365524927938
254 3712 0.067678768813813697
255 3712 -0
256 3712 -0.49611791657971721
257 3712 0.067532010077255816
258 3712 -0
1957 3712 -0
1958 3712 -0
1959 3712 -0
1960 3712 -0.70516692496269695
1961 3712 -0
1962 3712 -0
3055 3712 0
3056 3712 0
3057 3712 0
3058 3712 0.70516692496269695
3059 3712 0
3060 3712 0
247 3713 0
248 3713 0
249 3713 0
250 3713 0
251 3713 0.49840543371991375
252 3713 0
253 3713 -0.067601049744234934
254 3713 -0.99553485319114277
255 3713 -0
256 3713 -0.067376861357772475
257 3713 -0.49382500867881207
258 3713 -0
1957 3713 -0
1958 3713 -0
1959 3713 -0
1960 3713 -0
1961 3713 -0.70516692496269695
1962 3713 -0
3055 3713 0
3056 3713 0
3057 3713 0
3058 3713 0
3059 3713 0.70516692496269695
3060 3713 0
247 3714 0
248 3714 0
249 3714 0
250 3714 0
251 3714 0
252 3714 0.49726039206134764
253 3714 -0
254 3714 -0
255 3714 -0.99668365524927816
256 3714 -0
257 3714 -0
258 3714 -0.49611791657971638
1957 3714 -0
1958 3714 -0
1959 3714 -0
1960 3714 -0
1961 3714 -0
1962 3714 -0.70516692496269695
3055 3714 0
3056 3714 0
3057 3714 0
3058 3714 0
3059 3714 0
3060 3714 0.70516692496269695
253 3715 0.01662412773633716
254 3715 0
255 3715 0
256 3715 0
257 3715 0
258 3715 0
259 3715 -0.016738711515653665
260 3715 5.1859358331731552e-06
261 3715 -0
262 3715 -0.00011420378000142444
263 3715 7.763820444667679e-06
264 3715 -0
1963 3715 -0.70516692496269695
1964 3715 -0
1965 3715 -0
1966 3715 -0
1967 3715 -0
1968 3715 -0
3061 3715 0.70516692496269695
3062 3715 0
3063 3715 0
3064 3715 0
3065 3715 0
3066 3715 0
253 3716 0
254 3716 0.016643240039254284
255 3716 0
256 3716 0
257 3716 0
258 3716 0
259 3716 -0
260 3716 -0.016643240039254253
261 3716 -0
262 3716 -0
263 3716 -0
264 3716 -0
1963 3716 -0
1964 3716 -0.70516692496269695
1965 3716 -0
1966 3716 -0
1967 3716 -0
1968 3716 -0
3061 3716 0
3062 3716 0.70516692496269695
3063 3716 0
3064 3716 0
3065 3716 0
3066 3716 0
253 3717 0
254 3717 0
255 3717 0.016624127736337181
256 3717 0
257 3717 0
258 3717 0
259 3717 -0
260 3717 -0
261 3717 -0.016585933143231667
262 3717 -0
263 3717 -0
264 3717 3.8067926667141391e-05
1963 3717 -0
1964 3717 -0
1965 3717 -0.70516692496269695
1966 3717 -0
1967 3717 -0
1968 3717 -0
3061 3717 0
3062 3717 0
3063 3717 0.70516692496269695
3064 3717 0
3065 3717 0
3066 3717 0
253 3718 0
254 3718 0
255 3718 0
256 3718 0.49726039206134737
257 3718 0
258 3718 0
259 3718 -0.99668365524927938
260 3718 0.067678768813813697
261 3718 -0
262 3718 -0.49611791657971721
263 3718 0.067532010077255816
264 3718 -0
1963 3718 -0
1964 3718 -0
1965 3718 -0
1966 3718 -0.70516692496269695
1967 3718 -0
1968 3718 -0
3061 3718 0
3062 3718 0
3063 3718 0
3064 3718 0.70516692496269695
3065 3718 0
3066 3718 0
253 3719 0
254 3719 0
255 3719 0
256 3719 0
257 3719 0.49840543371991375
258 3719 0
259 3719 -0.067601049744234934
260 3719 -0.99553485319114277
261 3719 -0
262 3719 -0.067376861357772475
263 3719 -0.49382500867881207
264 3719 -0
1963 3719 -0
1964 3719 -0
1965 3719 -0
1966 3719 -0
1967 3719 -0.70516692496269695
1968 3719 -0
3061 3719 0
3062 3719 0
3063 3719 0
3064 3719 0
3065 3719 0.70516692496269695
3066 3719 0
253 3720 0
254 3720 0
255 3720 0
256 3720 0
257 3720 0
258 3720 0.49726039206134764
259 3720 -0
260 3720 -0
261 3720 -0.99668365524927816
262 3720 -0
263 3720 -0
264 3720 -0.49611791657971638
1963 3720 -0
1964 3720 -0
1965 3720 -0
1966 3720 -0
1967 3720 -0
1968 3720 -0.70516692496269695
3061 3720 0
3062 3720 0
3063 3720 0
3064 3720 0
3065 3720 0
3066 3720 0.70516692496269695
679 3721 0.01662412773633716
680 3721 0
681 3721 0
682 3721 0
683 3721 0
684 3721 0
685 3721 -0.016738711515653665
686 3721 5.1859358331731552e-06
687 3721 -0
688 3721 -0.00011420378000142444
689 3721 7.763820444667679e-06
690 3721 -0
1963 3721 0.70516692496269695
1964 3721 0
1965 3721 0
1966 3721 0
1967 3721 0
1968 3721 0
2329 3721 -0.70516692496269695
2330 3721 -0
2331 3721 -0
2332 3721 -0
2333 3721 -0
2334 3721 -0
679 3722 0
680 3722 0.016643240039254284
681 3722 0
682 3722 0
683 3722 0
684 3722 0
685 3722 -0
686 3722 -0.016643240039254253
687 3722 -0
688 3722 -0
689 3722 -0
690 3722 -0
1963 3722 0
1964 3722 0.70516692496269695
1965 3722 0
1966 3722 0
1967 3722 0
1968 3722 0
2329 3722 -0
2330 3722 -0.70516692496269695
2331 3722 -0
2332 3722 -0
2333 3722 -0
2334 3722 -0
679 3723 0
680 3723 0
681 3723 0.016624127736337181
682 3723 0
683 3723 0
684 3723 0
685 3723 -0
686 3723 -0
687 3723 -0.016585933143231667
688 3723 -0
689 3723 -0
690 3723 3.8067926667141391e-05
1963 3723 0
1964 3723 0
1965 3723 0.70516692496269695
1966 3723 0
1967 3723 0
1968 3723 0
2329 3723 -0
2330 3723 -0
2331 3723 -0.70516692496269695
2332 3723 -0
2333 3723 -0
2334 3723 -0
679 3724 0
680 3724 0
681 3724 0
682 3724 0.49726039206134737
683 3724 0
684 3724 0
685 3724 -0.99668365524927938
686 3724 0.067678768813813697
687 3724 -0
688 3724 -0.49611791657971721
689 3724 0.067532010077255816
690 3724 -0
1963 3724 0
1964 3724 0
1965 3724 0
1966 3724 0.70516692496269695
1967 3724 0
1968 3724 0
2329 3724 -0
2330 3724 -0
2331 3724 -0
2332 3724 -0.70516692496269695
2333 3724 -0
2334 3724 -0
679 3725 0
680 3725 0
681 3725 0
682 3725 0
683 3725 0.49840543371991375
684 3725 0
685 3725 -0.067601049744234934
686 3725 -0.99553485319114277
687 3725 -0
688 3725 -0.067376861357772475
689 3725 -0.49382500867881207
690 3725 -0
1963 3725 0
1964 3725 0
1965 3725 0
1966 3725 0
1967 3725 0.70516692496269695
1968 3725 0
2329 3725 -0
2330 3725 -0
2331 3725 -0
2332 3725 -0
2333 3725 -0.70516692496269695
2334 3725 -0
679 3726 0
680 3726 0
681 3726 0
682 3726 0
683 3726 0
684 3726 0.49726039206134764
685 3726 -0
686 3726 -0
687 3726 -0.99668365524927816
688 3726 -0
689 3726 -0
690 3726 -0.49611791657971638
1963 3726 0
1964 3726 0
1965 3726 0
1966 3726 0
1967 3726 0
1968 3726 0.70516692496269695
2329 3726 -0
2330 3726 -0
2331 3726 -0
2332 3726 -0
2333 3726 -0
2334 3726 -0.70516692496269695
685 3727 0.01662412773633716
686 3727 0
687 3727 0
688 3727 0
689 3727 0
690 3727 0
691 3727 -0.016738711515653665
692 3727 5.1859358331731552e-06
693 3727 -0
694 3727 -0.00011420378000142444
695 3727 7.763820444667679e-06
696 3727 -0
1969 3727 0.70516692496269695
1970 3727 0
1971 3727 0
1972 3727 0
1973 3727 0
1974 3727 0
2335 3727 -0.70516692496269695
2336 3727 -0
2337 3727 -0
2338 3727 -0
2339 3727 -0
2340 3727 -0
685 3728 0
686 3728 0.016643240039254284
687 3728 0
688 3728 0
689 3728 0
690 3728 0
691 3728 -0
692 3728 -0.016643240039254253
693 3728 -0
694 3728 -0
695 3728 -0
696 3728 -0
1969 3728 0
1970 3728 0.70516692496269695
1971 3728 0
1972 3728 0
1973 3728 0
1974 3728 0
2335 3728 -0
2336 3728 -0.70516692496269695
2337 3728 -0
2338 3728 -0
2339 3728 -0
2340 3728 -0
685 3729 0
686 3729 0
687 3729 0.016624127736337181
688 3729 0
689 3729 0
690 3729 0
691 3729 -0
692 3729 -0
693 3729 -0.016585933143231667
694 3729 -0
695 3729 -0
696 3729 3.8067926667141391e-05
1969 3729 0
1970 3729 0
1971 3729 0.70516692496269695
1972 3729 0
1973 3729 0
1974 3729 0
2335 3729 -0
2336 3729 -0
2337 3729 -0.70516692496269695
2338 3729 -0
2339 3729 -0
2340 3729 -0
685 3730 0
686 3730 0
687 3730 0
688 3730 0.49726039206134737
689 3730 0
690 3730 0
691 3730 -0.99668365524927938
692 3730 0.067678768813813697
693 3730 -0
694 3730 -0.49611791657971721
695 3730 0.067532010077255816
696 3730 -0
1969 3730 0
1970 3730 0
1971 3730 0
1972 3730 0.70516692496269695
1973 3730 0
1974 3730 0
2335 3730 -0
2336 3730 -0
2337 3730 -0
2338 3730 -0.70516692496269695
2339 3730 -0
2340 3730 -0
685 3731 0
686 3731 0
687 3731 0
688 3731 0
689 3731 0.49840543371991375
690 3731 0
691 3731 -0.067601049744234934
692 3731 -0.99553485319114277
693 3731 -0
694 3731 -0.067376861357772475
695 3731 -0.49382500867881207
696 3731 -0
1969 3731 0
1970 3731 0
1971 3731 0
1972 3731 0
1973 3731 0.70516692496269695
1974 3731 0
2335 3731 -0
2336 3731 -0
2337 3731 -0
2338 3731 -0
2339 3731 -0.70516692496269695
2340 3731 -0
685 3732 0
686 3732 0
687 3732 0
688 3732 0
689 3732 0
690 3732 0.49726039206134764
691 3732 -0
692 3732 -0
693 3732 -0.99668365524927816
694 3732 -0
695 3732 -0
696 3732 -0.49611791657971638
1969 3732 0
1970 3732 0
1971 3732 0
1972 3732 0
1973 3732 0
1974 3732 0.70516692496269695
2335 3732 -0
2336 3732 -0
2337 3732 -0
2338 3732 -0
2339 3732 -0
2340 3732 -0.70516692496269695
1531 3733 0.01662412773633716
1532 3733 0
1533 3733 0
1534 3733 0
1535 3733 0
1536 3733 0
1537 3733 -0.016738711515653665
1538 3733 5.1859358331731552e-06
1539 3733 -0
1540 3733 -0.00011420378000142444
1541 3733 7.763820444667679e-06
1542 3733 -0
2695 3733 0.70516692496269695
2696 3733 0
2697 3733 0
2698 3733 0
2699 3733 0
2700 3733 0
3061 3733 -0.70516692496269695
3062 3733 -0
3063 3733 -0
3064 3733 -0
3065 3733 -0
3066 3733 -0
1531 3734 0
1532 3734 0.016643240039254284
1533 3734 0
1534 3734 0
1535 3734 0
1536 3734 0
1537 3734 -0
1538 3734 -0.016643240039254253
1539 3734 -0
1540 3734 -0
1541 3734 -0
1542 3734 -0
2695 3734 0
2696 3734 0.70516692496269695
2697 3734 0
2698 3734 0
2699 3734 0
2700 3734 0
3061 3734 -0
3062 3734 -0.70516692496269695
3063 3734 -0
3064 3734 -0
3065 3734 -0
3066 3734 -0
1531 3735 0
1532 3735 0
1533 3735 0.016624127736337181
1534 3735 0
1535 3735 0
1536 3735 0
1537 3735 -0
1538 3735 -0
1539 3735 -0.016585933143231667
1540 3735 -0
1541 3735 -0
1542 3735 3.8067926667141391e-05
2695 3735 0
2696 3735 0
2697 3735 0.70516692496269695
2698 3735 0
2699 3735 0
2700 3735 0
3061 3735 -0
3062 3735 -0
3063 3735 -0.70516692496269695
3064 3735 -0
3065 3735 -0
3066 3735 -0
1531 3736 0
1532 3736 0
1533 3736 0
1534 3736 0.49726039206134737
1535 3736 0
1536 3736 0
1537 3736 -0.99668365524927938
1538 3736 0.067678768813813697
1539 3736 -0
1540 3736 -0.49611791657971721
1541 3736 0.067532010077255816
1542 3736 -0
2695 3736 0
2696 3736 0
2697 3736 0
2698 3736 0.70516692496269695
2699 3736 0
2700 3736 0
3061 3736 -0
3062 3736 -0
3063 3736 -0
3064 3736 -0.70516692496269695
3065 3736 -0
3066 3736 -0
1531 3737 0
1532 3737 0
1533 3737 0
1534 3737 0
1535 3737 0.49840543371991375
1536 3737 0
1537 3737 -0.067601049744234934
1538 3737 -0.99553485319114277
1539 3737 -0
1540 3737 -0.067376861357772475
1541 3737 -0.49382500867881207
1542 3737 -0
2695 3737 0
2696 3737 0
2697 3737 0
2698 3737 0
2699 3737 0.70516692496269695
2700 3737 0
3061 3737 -0
3062 3737 -0
3063 3737 -0
3064 3737 -0
3065 3737 -0.70516692496269695
3066 3737 -0
1531 3738 0
1532 3738 0
1533 3738 0
1534 3738 0
1535 3738 0
1536 3738 0.49726039206134764
1537 3738 -0
1538 3738 -0
1539 3738 -0.99668365524927816
1540 3738 -0
1541 3738 -0
1542 3738 -0.49611791657971638
2695 3738 0
2696 3738 0
2697 3738 0
2698 3738 0
2699 3738 0
2700 3738 0.70516692496269695
3061 3738 -0
3062 3738 -0
3063 3738 -0
3064 3738 -0
3065 3738 -0
3066 3738 -0.70516692496269695
1537 3739 0.01662412773633716
1538 3739 0
1539 3739 0
1540 3739 0
1541 3739 0
1542 3739 0
1543 3739 -0.016738711515653665
1544 3739 5.1859358331731552e-06
1545 3739 -0
1546 3739 -0.00011420378000142444
1547 3739 7.763820444667679e-06
1548 3739 -0
2701 3739 0.70516692496269695
2702 3739 0
2703 3739 0
2704 3739 0
2705 3739 0
2706 3739 0
3067 3739 -0.70516692496269695
3068 3739 -0
3069 3739 -0
3070 3739 -0
3071 3739 -0
3072 3739 -0
1537 3740 0
1538 3740 0.016643240039254284
1539 3740 0
1540 3740 0
1541 3740 0
1542 3740 0
1543 3740 -0
1544 3740 -0.016643240039254253
1545 3740 -0
1546 3740 -0
1547 3740 -0
1548 3740 -0
2701 3740 0
2702 3740 0.70516692496269695
2703 3740 0
2704 3740 0
2705 3740 0
2706 3740 0
3067 3740 -0
3068 3740 -0.70516692496269695
3069 3740 -0
3070 3740 -0
3071 3740 -0
3072 3740 -0
1537 3741 0
1538 3741 0
1539 3741 0.016624127736337181
1540 3741 0
1541 3741 0
1542 3741 0
1543 3741 -0
1544 3741 -0
1545 3741 -0.016585933143231667
1546 3741 -0
1547 3741 -0
1548 3741 3.8067926667141391e-05
2701 3741 0
2702 3741 0
2703 3741 0.70516692496269695
2704 3741 0
2705 3741 0
2706 3741 0
3067 3741 -0
3068 3741 -0
3069 3741 -0.70516692496269695
3070 3741 -0
3071 3741 -0
3072 3741 -0
1537 3742 0
1538 3742 0
1539 3742 0
1540 3742 0.49726039206134737
1541 3742 0
1542 3742 0
1543 3742 -0.99668365524927938
1544 3742 0.067678768813813697
1545 3742 -0
1546 3742 -0.49611791657971721
1547 3742 0.067532010077255816
1548 3742 -0
2701 3742 0
2702 3742 0
2703 3742 0
2704 3742 0.70516692496269695
2705 3742 0
2706 3742 0
3067 3742 -0
3068 3742 -0
3069 3742 -0
3070 3742 -0.70516692496269695
3071 3742 -0
3072 3742 -0
1537 3743 0
1538 3743 0
1539 3743 0
1540 3743 0
1541 3743 0.49840543371991375
1542 3743 0
1543 3743 -0.067601049744234934
1544 3743 -0.99553485319114277
1545 3743 -0
1546 3743 -0.067376861357772475
1547 3743 -0.49382500867881207
1548 3743 -0
2701 3743 0
2702 3743 0
2703 3743 0
2704 3743 0
2705 3743 0.70516692496269695
2706 3743 0
3067 3743 -0
3068 3743 -0
3069 3743 -0
3070 3743 -0
3071 3743 -0.70516692496269695
3072 3743 -0
1537 3744 0
1538 3744 0
1539 3744 0
1540 3744 0
1541 3744 0
1542 3744 0.49726039206134764
1543 3744 -0
1544 3744 -0
1545 3744 -0.99668365524927816
1546 3744 -0
1547 3744 -0
1548 3744 -0.49611791657971638
2701 3744 0
2702 3744 0
2703 3744 0
2704 3744 0
2705 3744 0
2706 3744 0.70516692496269695
3067 3744 -0
3068 3744 -0
3069 3744 -0
3070 3744 -0
3071 3744 -0
3072 3744 -0.70516692496269695
259 3745 0.01662412773633716
260 3745 0
261 3745 0
262 3745 0
263 3745 0
264 3745 0
265 3745 -0.016738711515653665
266 3745 5.1859358331731552e-06
267 3745 -0
268 3745 -0.00011420378000142444
269 3745 7.763820444667679e-06
270 3745 -0
1969 3745 -0.70516692496269695
1970 3745 -0
1971 3745 -0
1972 3745 -0
1973 3745 -0
1974 3745 -0
3067 3745 0.70516692496269695
3068 3745 0
3069 3745 0
3070 3745 0
3071 3745 0
3072 3745 0
259 3746 0
260 3746 0.016643240039254284
261 3746 0
262 3746 0
263 3746 0
264 3746 0
265 3746 -0
266 3746 -0.016643240039254253
267 3746 -0
268 3746 -0
269 3746 -0
270 3746 -0
1969 3746 -0
1970 3746 -0.70516692496269695
1971 3746 -0
1972 3746 -0
1973 3746 -0
1974 3746 -0
3067 3746 0
3068 3746 0.70516692496269695
3069 3746 0
3070 3746 0
3071 3746 0
3072 3746 0
259 3747 0
260 3747 0
261 3747 0.016624127736337181
262 3747 0
263 3747 0
264 3747 0
265 3747 -0
266 3747 -0
267 3747 -0.016585933143231667
268 3747 -0
269 3747 -0
270 3747 3.8067926667141391e-05
1969 3747 -0
1970 3747 -0
1971 3747 -0.70516692496269695
1972 3747 -0
1973 3747 -0
1974 3747 -0
3067 3747 0
3068 3747 0
3069 3747 0.70516692496269695
3070 3747 0
3071 3747 0
3072 3747 0
259 3748 0
260 3748 0
261 3748 0
262 3748 0.49726039206134737
263 3748 0
264 3748 0
265 3748 -0.99668365524927938
266 3748 0.067678768813813697
267 3748 -0
268 3748 -0.49611791657971721
269 3748 0.067532010077255816
270 3748 -0
1969 3748 -0
1970 3748 -0
1971 3748 -0
1972 3748 -0.70516692496269695
1973 3748 -0
1974 3748 -0
3067 3748 0
3068 3748 0
3069 3748 0
3070 3748 0.70516692496269695
3071 3748 0
3072 3748 0
259 3749 0
260 3749 0
261 3749 0
262 3749 0
263 3749 0.49840543371991375
264 3749 0
265 3749 -0.067601049744234934
266 3749 -0.99553485319114277
267 3749 -0
268 3749 -0.067376861357772475
269 3749 -0.49382500867881207
270 3749 -0
1969 3749 -0
1970 3749 -0
1971 3749 -0
1972 3749 -0
1973 3749 -0.70516692496269695
1974 3749 -0
3067 3749 0
3068 3749 0
3069 3749 0
3070 3749 0
3071 3749 0.70516692496269695
3072 3749 0
259 3750 0
260 3750 0
261 3750 0
262 3750 0
263 3750 0
264 3750 0.49726039206134764
265 3750 -0
266 3750 -0
267 3750 -0.99668365524927816
268 3750 -0
269 3750 -0
270 3750 -0.49611791657971638
1969 3750 -0
1970 3750 -0
1971 3750 -0
1972 3750 -0
1973 3750 -0
1974 3750 -0.70516692496269695
3067 3750 0
3068 3750 0
3069 3750 0
3070 3750 0
3071 3750 0
3072 3750 0.70516692496269695
265 3751 0.01662412773633716
266 3751 0
267 3751 0
268 3751 0
269 3751 0
270 3751 0
271 3751 -0.016738711515653665
272 3751 5.1859358331731552e-06
273 3751 -0
274 3751 -0.00011420378000142444
275 3751 7.763820444667679e-06
276 3751 -0
1975 3751 -0.70516692496269695
1976 3751 -0
1977 3751 -0
1978 3751 -0
1979 3751 -0
1980 3751 -0
3073 3751 0.70516692496269695
3074 3751 0
3075 3751 0
3076 3751 0
3077 3751 0
3078 3751 0
265 3752 0
266 3752 0.016643240039254284
267 3752 0
268 3752 0
269 3752 0
270 3752 0
271 3752 -0
272 3752 -0.016643240039254253
273 3752 -0
274 3752 -0
275 3752 -0
276 3752 -0
1975 3752 -0
1976 3752 -0.70516692496269695
1977 3752 -0
1978 3752 -0
1979 3752 -0
1980 3752 -0
3073 3752 0
3074 3752 0.70516692496269695
3075 3752 0
3076 3752 0
3077 3752 0
3078 3752 0
265 3753 0
266 3753 0
267 3753 0.016624127736337181
268 3753 0
269 3753 0
270 3753 0
271 3753 -0
272 3753 -0
273 3753 -0.016585933143231667
274 3753 -0
275 3753 -0
276 3753 3.8067926667141391e-05
1975 3753 -0
1976 3753 -0
1977 3753 -0.70516692496269695
1978 3753 -0
1979 3753 -0
1980 3753 -0
3073 3753 0
3074 3753 0
3075 3753 0.70516692496269695
3076 3753 0
3077 3753 0
3078 3753 0
265 3754 0
266 3754 0
267 3754 0
268 3754 0.49726039206134737
269 3754 0
270 3754 0
271 3754 -0.99668365524927938
272 3754 0.067678768813813697
273 3754 -0
274 3754 -0.49611791657971721
275 3754 0.067532010077255816
276 3754 -0
1975 3754 -0
1976 3754 -0
1977 3754 -0
1978 3754 -0.70516692496269695
1979 3754 -0
1980 3754 -0
3073 3754 0
3074 3754 0
3075 3754 0
3076 3754 0.70516692496269695
3077 3754 0
3078 3754 0
265 3755 0
266 3755 0
267 3755 0
268 3755 0
269 3755 0.49840543371991375
270 3755 0
271 3755 -0.067601049744234934
272 3755 -0.99553485319114277
273 3755 -0
274 3755 -0.067376861357772475
275 3755 -0.49382500867881207
276 3755 -0
1975 3755 -0
1976 3755 -0
1977 3755 -0
1978 3755 -0
1979 3755 -0.70516692496269695
1980 3755 -0
3073 3755 0
3074 3755 0
3075 3755 0
3076 3755 0
3077 3755 0.70516692496269695
3078 3755 0
265 3756 0
266 3756 0
267 3756 0
268 3756 0
269 3756 0
270 3756 0.49726039206134764
271 3756 -0
272 3756 -0
273 3756 -0.99668365524927816
274 3756 -0
275 3756 -0
276 3756 -0.49611791657971638
1975 3756 -0
1976 3756 -0
1977 3756 -0
1978 3756 -0
1979 3756 -0
1980 3756 -0.70516692496269695
3073 3756 0
3074 3756 0
3075 3756 0
3076 3756 0
3077 3756 0
3078 3756 0.70516692496269695
1111 3757 0.01662412773633716
1112 3757 0
1113 3757 0
1114 3757 0
1115 3757 0
1116 3757 0
1117 3757 -0.016738711515653665
1118 3757 5.1859358331731552e-06
1119 3757 -0
1120 3757 -0.00011420378000142444
1121 3757 7.763820444667679e-06
1122 3757 -0
2335 3757 0.70516692496269695
2336 3757 0
2337 3757 0
2338 3757 0
2339 3757 0
2340 3757 0
2701 3757 -0.70516692496269695
2702 3757 -0
2703 3757 -0
2704 3757 -0
2705 3757 -0
2706 3757 -0
1111 3758 0
1112 3758 0.016643240039254284
1113 3758 0
1114 3758 0
1115 3758 0
1116 3758 0
1117 3758 -0
1118 3758 -0.016643240039254253
1119 3758 -0
1120 3758 -0
1121 3758 -0
1122 3758 -0
2335 3758 0
2336 3758 0.70516692496269695
2337 3758 0
2338 3758 0
2339 3758 0
2340 3758 0
2701 3758 -0
2702 3758 -0.70516692496269695
2703 3758 -0
2704 3758 -0
2705 3758 -0
2706 3758 -0
1111 3759 0
1112 3759 0
1113 3759 0.016624127736337181
1114 3759 0
1115 3759 0
1116 3759 0
1117 3759 -0
1118 3759 -0
1119 3759 -0.016585933143231667
1120 3759 -0
1121 3759 -0
1122 3759 3.8067926667141391e-05
2335 3759 0
2336 3759 0
2337 3759 0.70516692496269695
2338 3759 0
2339 3759 0
2340 3759 0
2701 3759 -0
2702 3759 -0
2703 3759 -0.70516692496269695
2704 3759 -0
2705 3759 -0
2706 3759 -0
1111 3760 0
1112 3760 0
1113 3760 0
1114 3760 0.49726039206134737
1115 3760 0
1116 3760 0
1117 3760 -0.99668365524927938
1118 3760 0.067678768813813697
1119 3760 -0
1120 3760 -0.49611791657971721
1121 3760 0.067532010077255816
1122 3760 -0
2335 3760 0
2336 3760 0
2337 3760 0
2338 3760 0.70516692496269695
2339 3760 0
2340 3760 0
2701 3760 -0
2702 3760 -0
2703 3760 -0
2704 3760 -0.70516692496269695
2705 3760 -0
2706 3760 -0
1111 3761 0
1112 3761 0
1113 3761 0
1114 3761 0
1115 3761 0.49840543371991375
1116 3761 0
1117 3761 -0.067601049744234934
1118 3761 -0.99553485319114277
1119 3761 -0
1120 3761 -0.067376861357772475
1121 3761 -0.49382500867881207
1122 3761 -0
2335 3761 0
2336 3761 0
2337 3761 0
2338 3761 0
2339 3761 0.70516692496269695
2340 3761 0
2701 3761 -0
2702 3761 -0
2703 3761 -0
2704 3761 -0
2705 3761 -0.70516692496269695
2706 3761 -0
1111 3762 0
1112 3762 0
1113 3762 0
1114 3762 0
1115 3762 0
1116 3762 0.49726039206134764
1117 3762 -0
1118 3762 -0
1119 3762 -0.99668365524927816
1120 3762 -0
1121 3762 -0
1122 3762 -0.49611791657971638
2335 3762 0
2336 3762 0
2337 3762 0
2338 3762 0
2339 3762 0
2340 3762 0.70516692496269695
2701 3762 -0
2702 3762 -0
2703 3762 -0
2704 3762 -0
2705 3762 -0
2706 3762 -0.70516692496269695
1117 3763 0.01662412773633716
1118 3763 0
1119 3763 0
1120 3763 0
1121 3763 0
1122 3763 0
1123 3763 -0.016738711515653665
1124 3763 5.1859358331731552e-06
1125 3763 -0
1126 3763 -0.00011420378000142444
1127 3763 7.763820444667679e-06
1128 3763 -0
2341 3763 0.70516692496269695
2342 3763 0
2343 3763 0
2344 3763 0
2345 3763 0
2346 3763 0
2707 3763 -0.70516692496269695
2708 3763 -0
2709 3763 -0
2710 3763 -0
2711 3763 -0
2712 3763 -0
1117 3764 0
1118 3764 0.016643240039254284
1119 3764 0
1120 3764 0
1121 3764 0
1122 3764 0
1123 3764 -0
1124 3764 -0.016643240039254253
1125 3764 -0
1126 3764 -0
1127 3764 -0
1128 3764 -0
2341 3764 0
2342 3764 0.70516692496269695
2343 3764 0
2344 3764 0
2345 3764 0
2346 3764 0
2707 3764 -0
2708 3764 -0.70516692496269695
2709 3764 -0
2710 3764 -0
2711 3764 -0
2712 3764 -0
1117 3765 0
1118 3765 0
1119 3765 0.016624127736337181
1120 3765 0
1121 3765 0
1122 3765 0
1123 3765 -0
1124 3765 -0
1125 3765 -0.016585933143231667
1126 3765 -0
1127 3765 -0
1128 3765 3.8067926667141391e-05
2341 3765 0
2342 3765 0
2343 3765 0.70516692496269695
2344 3765 0
2345 3765 0
2346 3765 0
2707 3765 -0
2708 3765 -0
2709 3765 -0.70516692496269695
2710 3765 -0
2711 3765 -0
2712 3765 -0
1117 3766 0
1118 3766 0
1119 3766 0
1120 3766 0.49726039206134737
1121 3766 0
1122 3766 0
1123 3766 -0.99668365524927938
1124 3766 0.067678768813813697
1125 3766 -0
1126 3766 -0.49611791657971721
1127 3766 0.067532010077255816
1128 3766 -0
2341 3766 0
2342 3766 0
2343 3766 0
2344 3766 0.70516692496269695
2345 3766 0
2346 3766 0
2707 3766 -0
2708 3766 -0
2709 3766 -0
2710 3766 -0.70516692496269695
2711 3766 -0
2712 3766 -0
1117 3767 0
1118 3767 0
1119 3767 0
1120 3767 0
1121 3767 0.49840543371991375
1122 3767 0
1123 3767 -0.067601049744234934
1124 3767 -0.99553485319114277
1125 3767 -0
1126 3767 -0.067376861357772475
1127 3767 -0.49382500867881207
1128 3767 -0
2341 3767 0
2342 3767 0
2343 3767 0
2344 3767 0
2345 3767 0.70516692496269695
2346 3767 0
2707 3767 -0
2708 3767 -0
2709 3767 -0
2710 3767 -0
2711 3767 -0.70516692496269695
2712 3767 -0
1117 3768 0
1118 3768 0
1119 3768 0
1120 3768 0
1121 3768 0
1122 3768 0.49726039206134764
1123 3768 -0
1124 3768 -0
1125 3768 -0.99668365524927816
1126 3768 -0
1127 3768 -0
1128 3768 -0.49611791657971638
2341 3768 0
2342 3768 0
2343 3768 0
2344 3768 0
2345 3768 0
2346 3768 0.70516692496269695
2707 3768 -0
2708 3768 -0
2709 3768 -0
2710 3768 -0
2711 3768 -0
2712 3768 -0.70516692496269695
1543 3769 0.01662412773633716
1544 3769 0
1545 3769 0
1546 3769 0
1547 3769 0
1548 3769 0
1549 3769 -0.016738711515653665
1550 3769 5.1859358331731552e-06
1551 3769 -0
1552 3769 -0.00011420378000142444
1553 3769 7.763820444667679e-06
1554 3769 -0
2707 3769 0.70516692496269695
2708 3769 0
2709 3769 0
2710 3769 0
2711 3769 0
2712 3769 0
3073 3769 -0.70516692496269695
3074 3769 -0
3075 3769 -0
3076 3769 -0
3077 3769 -0
3078 3769 -0
1543 3770 0
1544 3770 0.016643240039254284
1545 3770 0
1546 3770 0
1547 3770 0
1548 3770 0
1549 3770 -0
1550 3770 -0.016643240039254253
1551 3770 -0
1552 3770 -0
1553 3770 -0
1554 3770 -0
2707 3770 0
2708 3770 0.70516692496269695
2709 3770 0
2710 3770 0
2711 3770 0
2712 3770 0
3073 3770 -0
3074 3770 -0.70516692496269695
3075 3770 -0
3076 3770 -0
3077 3770 -0
3078 3770 -0
1543 3771 0
1544 3771 0
1545 3771 0.016624127736337181
1546 3771 0
1547 3771 0
1548 3771 0
1549 3771 -0
1550 3771 -0
1551 3771 -0.016585933143231667
1552 3771 -0
1553 3771 -0
1554 3771 3.8067926667141391e-05
2707 3771 0
2708 3771 0
2709 3771 0.70516692496269695
2710 3771 0
2711 3771 0
2712 3771 0
3073 3771 -0
3074 3771 -0
3075 3771 -0.70516692496269695
3076 3771 -0
3077 3771 -0
3078 3771 -0
1543 3772 0
1544 3772 0
1545 3772 0
1546 3772 0.49726039206134737
1547 3772 0
1548 3772 0
1549 3772 -0.99668365524927938
1550 3772 0.067678768813813697
1551 3772 -0
1552 3772 -0.49611791657971721
1553 3772 0.067532010077255816
1554 3772 -0
2707 3772 0
2708 3772 0
2709 3772 0
2710 3772 0.70516692496269695
2711 3772 0
2712 3772 0
3073 3772 -0
3074 3772 -0
3075 3772 -0
3076 3772 -0.70516692496269695
3077 3772 -0
3078 3772 -0
1543 3773 0
1544 3773 0
1545 3773 0
1546 3773 0
1547 3773 0.49840543371991375
1548 3773 0
1549 3773 -0.067601049744234934
1550 3773 -0.99553485319114277
1551 3773 -0
1552 3773 -0.067376861357772475
1553 3773 -0.49382500867881207
1554 3773 -0
2707 3773 0
2708 3773 0
2709 3773 0
2710 3773 0
2711 3773 0.70516692496269695
2712 3773 0
3073 3773 -0
3074 3773 -0
3075 3773 -0
3076 3773 -0
3077 3773 -0.70516692496269695
3078 3773 -0
1543 3774 0
1544 3774 0
1545 3774 0
1546 3774 0
1547 3774 0
1548 3774 0.49726039206134764
1549 3774 -0
1550 3774 -0
1551 3774 -0.99668365524927816
1552 3774 -0
1553 3774 -0
1554 3774 -0.49611791657971638
2707 3774 0
2708 3774 0
2709 3774 0
2710 3774 0
2711 3774 0
2712 3774 0.70516692496269695
3073 3774 -0
3074 3774 -0
3075 3774 -0
3076 3774 -0
3077 3774 -0
3078 3774 -0.70516692496269695
1549 3775 0.01662412773633716
1550 3775 0
1551 3775 0
1552 3775 0
1553 3775 0
1554 3775 0
1555 3775 -0.016738711515653665
1556 3775 5.1859358331731552e-06
1557 3775 -0
1558 3775 -0.00011420378000142444
1559 3775 7.763820444667679e-06
1560 3775 -0
2713 3775 0.70516692496269695
2714 3775 0
2715 3775 0
2716 3775 0
2717 3775 0
2718 3775 0
3079 3775 -0.70516692496269695
3080 3775 -0
3081 3775 -0
3082 3775 -0
3083 3775 -0
3084 3775 -0
1549 3776 0
1550 3776 0.016643240039254284
1551 3776 0
1552 3776 0
1553 3776 0
1554 3776 0
1555 3776 -0
1556 3776 -0.016643240039254253
1557 3776 -0
1558 3776 -0
1559 3776 -0
1560 3776 -0
2713 3776 0
2714 3776 0.70516692496269695
2715 3776 0
2716 3776 0
2717 3776 0
2718 3776 0
3079 3776 -0
3080 3776 -0.70516692496269695
3081 3776 -0
3082 3776 -0
3083 3776 -0
3084 3776 -0
1549 3777 0
1550 3777 0
1551 3777 0.016624127736337181
1552 3777 0
1553 3777 0
1554 3777 0
1555 3777 -0
1556 3777 -0
1557 3777 -0.016585933143231667
1558 3777 -0
1559 3777 -0
1560 3777 3.8067926667141391e-05
2713 3777 0
2714 3777 0
2715 3777 0.70516692496269695
2716 3777 0
2717 3777 0
2718 3777 0
3079 3777 -0
3080 3777 -0
3081 3777 -0.70516692496269695
3082 3777 -0
3083 3777 -0
3084 3777 -0
1549 3778 0
1550 3778 0
1551 3778 0
1552 3778 0.49726039206134737
1553 3778 0
1554 3778 0
1555 3778 -0.99668365524927938
1556 3778 0.067678768813813697
1557 3778 -0
1558 3778 -0.49611791657971721
1559 3778 0.067532010077255816
1560 3778 -0
2713 3778 0
2714 3778 0
2715 3778 0
2716 3778 0.70516692496269695
2717 3778 0
2718 3778 0
3079 3778 -0
3080 3778 -0
3081 3778 -0
3082 3778 -0.70516692496269695
3083 3778 -0
3084 3778 -0
1549 3779 0
1550 3779 0
1551 3779 0
1552 3779 0
1553 3779 0.49840543371991375
1554 3779 0
1555 3779 -0.067601049744234934
1556 3779 -0.99553485319114277
1557 3779 -0
1558 3779 -0.067376861357772475
1559 3779 -0.49382500867881207
1560 3779 -0
2713 3779 0
2714 3779 0
2715 3779 0
2716 3779 0
2717 3779 0.70516692496269695
2718 3779 0
3079 3779 -0
3080 3779 -0
3081 3779 -0
3082 3779 -0
3083 3779 -0.70516692496269695
3084 3779 -0
1549 3780 0
1550 3780 0
1551 3780 0
1552 3780 0
1553 3780 0
1554 3780 0.49726039206134764
1555 3780 -0
1556 3780 -0
1557 3780 -0.99668365524927816
1558 3780 -0
1559 3780 -0
1560 3780 -0.49611791657971638
2713 3780 0
2714 3780 0
2715 3780 0
2716 3780 0
2717 3780 0
2718 3780 0.70516692496269695
3079 3780 -0
3080 3780 -0
3081 3780 -0
3082 3780 -0
3083 3780 -0
3084 3780 -0.70516692496269695
691 3781 0.01662412773633716
692 3781 0
693 3781 0
694 3781 0
695 3781 0
696 3781 0
697 3781 -0.016738711515653665
698 3781 5.1859358331731552e-06
699 3781 -0
700 3781 -0.00011420378000142444
701 3781 7.763820444667679e-06
702 3781 -0
1975 3781 0.70516692496269695
1976 3781 0
1977 3781 0
1978 3781 0
1979 3781 0
1980 3781 0
2341 3781 -0.70516692496269695
2342 3781 -0
2343 3781 -0
2344 3781 -0
2345 3781 -0
2346 3781 -0
691 3782 0
692 3782 0.016643240039254284
693 3782 0
694 3782 0
695 3782 0
696 3782 0
697 3782 -0
698 3782 -0.016643240039254253
699 3782 -0
700 3782 -0
701 3782 -0
702 3782 -0
1975 3782 0
1976 3782 0.70516692496269695
1977 3782 0
1978 3782 0
1979 3782 0
1980 3782 0
2341 3782 -0
2342 3782 -0.70516692496269695
2343 3782 -0
2344 3782 -0
2345 3782 -0
2346 3782 -0
691 3783 0
692 3783 0
693 3783 0.016624127736337181
694 3783 0
695 3783 0
696 3783 0
697 3783 -0
698 3783 -0
699 3783 -0.016585933143231667
700 3783 -0
701 3783 -0
702 3783 3.8067926667141391e-05
1975 3783 0
1976 3783 0
1977 3783 0.70516692496269695
1978 3783 0
1979 3783 0
1980 3783 0
2341 3783 -0
2342 3783 -0
2343 3783 -0.70516692496269695
2344 3783 -0
2345 3783 -0
2346 3783 -0
691 3784 0
692 3784 0
693 3784 0
694 3784 0.49726039206134737
695 3784 0
696 3784 0
697 3784 -0.99668365524927938
698 3784 0.067678768813813697
699 3784 -0
700 3784 -0.49611791657971721
701 3784 0.067532010077255816
702 3784 -0
1975 3784 0
1976 3784 0
1977 3784 0
1978 3784 0.70516692496269695
1979 3784 0
1980 3784 0
2341 3784 -0
2342 3784 -0
2343 3784 -0
2344 3784 -0.70516692496269695
2345 3784 -0
2346 3784 -0
691 3785 0
692 3785 0
693 3785 0
694 3785 0
695 3785 0.49840543371991375
696 3785 0
697 3785 -0.067601049744234934
698 3785 -0.99553485319114277
699 3785 -0
700 3785 -0.067376861357772475
701 3785 -0.49382500867881207
702 3785 -0
1975 3785 0
1976 3785 0
1977 3785 0
1978 3785 0
1979 3785 0.70516692496269695
1980 3785 0
2341 3785 -0
2342 3785 -0
2343 3785 -0
2344 3785 -0
2345 3785 -0.70516692496269695
2346 3785 -0
691 3786 0
692 3786 0
693 3786 0
694 3786 0
695 3786 0
696 3786 0.49726039206134764
697 3786 -0
698 3786 -0
699 3786 -0.99668365524927816
700 3786 -0
701 3786 -0
702 3786 -0.49611791657971638
1975 3786 0
1976 3786 0
1977 3786 0
1978 3786 0
1979 3786 0
1980 3786 0.70516692496269695
2341 3786 -0
2342 3786 -0
2343 3786 -0
2344 3786 -0
2345 3786 -0
2346 3786 -0.70516692496269695
697 3787 0.01662412773633716
698 3787 0
699 3787 0
700 3787 0
701 3787 0
702 3787 0
703 3787 -0.016738711515653665
704 3787 5.1859358331731552e-06
705 3787 -0
706 3787 -0.00011420378000142444
707 3787 7.763820444667679e-06
708 3787 -0
1981 3787 0.70516692496269695
1982 3787 0
1983 3787 0
1984 3787 0
1985 3787 0
1986 3787 0
2347 3787 -0.70516692496269695
2348 3787 -0
2349 3787 -0
2350 3787 -0
2351 3787 -0
2352 3787 -0
697 3788 0
698 3788 0.016643240039254284
699 3788 0
700 3788 0
701 3788 0
702 3788 0
703 3788 -0
704 3788 -0.016643240039254253
705 3788 -0
706 3788 -0
707 3788 -0
708 3788 -0
1981 3788 0
1982 3788 0.70516692496269695
1983 3788 0
1984 3788 0
1985 3788 0
1986 3788 0
2347 3788 -0
2348 3788 -0.70516692496269695
2349 3788 -0
2350 3788 -0
2351 3788 -0
2352 3788 -0
697 3789 0
698 3789 0
699 3789 0.016624127736337181
700 3789 0
701 3789 0
702 3789 0
703 3789 -0
704 3789 -0
705 3789 -0.016585933143231667
706 3789 -0
707 3789 -0
708 3789 3.8067926667141391e-05
1981 3789 0
1982 3789 0
1983 3789 0.70516692496269695
1984 3789 0
1985 3789 0
1986 3789 0
2347 3789 -0
2348 3789 -0
2349 3789 -0.70516692496269695
2350 3789 -0
2351 3789 -0
2352 3789 -0
697 3790 0
698 3790 0
699 3790 0
700 3790 0.49726039206134737
701 3790 0
702 3790 0
703 3790 -0.99668365524927938
704 3790 0.067678768813813697
705 3790 -0
706 3790 -0.49611791657971721
707 3790 0.067532010077255816
708 3790 -0
1981 3790 0
1982 3790 0
1983 3790 0
1984 3790 0.70516692496269695
1985 3790 0
1986 3790 0
2347 3790 -0
2348 3790 -0
2349 3790 -0
2350 3790 -0.70516692496269695
2351 3790 -0
2352 3790 -0
697 3791 0
698 3791 0
699 3791 0
700 3791 0
701 3791 0.49840543371991375
702 3791 0
703 3791 -0.067601049744234934
704 3791 -0.99553485319114277
705 3791 -0
706 3791 -0.067376861357772475
707 3791 -0.49382500867881207
708 3791 -0
1981 3791 0
1982 3791 0
1983 3791 0
1984 3791 0
1985 3791 0.70516692496269695
1986 3791 0
2347 3791 -0
2348 3791 -0
2349 3791 -0
2350 3791 -0
2351 3791 -0.70516692496269695
2352 3791 -0
697 3792 0
698 3792 0
699 3792 0
700 3792 0
701 3792 0
702 3792 0.49726039206134764
703 3792 -0
704 3792 -0
705 3792 -0.99668365524927816
706 3792 -0
707 3792 -0
708 3792 -0.49611791657971638
1981 3792 0
1982 3792 0
1983 3792 0
1984 3792 0
1985 3792 0
1986 3792 0.70516692496269695
2347 3792 -0
2348 3792 -0
2349 3792 -0
2350 3792 -0
2351 3792 -0
2352 3792 -0.70516692496269695
1123 3793 0.01662412773633716
1124 3793 0
1125 3793 0
1126 3793 0
1127 3793 0
1128 3793 0
1129 3793 -0.016738711515653665
1130 3793 5.1859358331731552e-06
1131 3793 -0
1132 3793 -0.00011420378000142444
1133 3793 7.763820444667679e-06
1134 3793 -0
2347 3793 0.70516692496269695
2348 3793 0
2349 3793 0
2350 3793 0
2351 3793 0
2352 3793 0
2713 3793 -0.70516692496269695
2714 3793 -0
2715 3793 -0
2716 3793 -0
2717 3793 -0
2718 3793 -0
1123 3794 0
1124 3794 0.016643240039254284
1125 3794 0
1126 3794 0
1127 3794 0
1128 3794 0
1129 3794 -0
1130 3794 -0.016643240039254253
1131 3794 -0
1132 3794 -0
1133 3794 -0
1134 3794 -0
2347 3794 0
2348 3794 0.70516692496269695
2349 3794 0
2350 3794 0
2351 3794 0
2352 3794 0
2713 3794 -0
2714 3794 -0.70516692496269695
2715 3794 -0
2716 3794 -0
2717 3794 -0
2718 3794 -0
1123 3795 0
1124 3795 0
1125 3795 0.016624127736337181
1126 3795 0
1127 3795 0
1128 3795 0
1129 3795 -0
1130 3795 -0
1131 3795 -0.016585933143231667
1132 3795 -0
1133 3795 -0
1134 3795 3.8067926667141391e-05
2347 3795 0
2348 3795 0
2349 3795 0.70516692496269695
2350 3795 0
2351 3795 0
2352 3795 0
2713 3795 -0
2714 3795 -0
2715 3795 -0.70516692496269695
2716 3795 -0
2717 3795 -0
2718 3795 -0
1123 3796 0
1124 3796 0
1125 3796 0
1126 3796 0.49726039206134737
1127 3796 0
1128 3796 0
1129 3796 -0.99668365524927938
1130 3796 0.067678768813813697
1131 3796 -0
1132 3796 -0.49611791657971721
1133 3796 0.067532010077255816
1134 3796 -0
2347 3796 0
2348 3796 0
2349 3796 0
2350 3796 0.70516692496269695
2351 3796 0
2352 3796 0
2713 3796 -0
2714 3796 -0
2715 3796 -0
2716 3796 -0.70516692496269695
2717 3796 -0
2718 3796 -0
1123 3797 0
1124 3797 0
1125 3797 0
1126 3797 0
1127 3797 0.49840543371991375
1128 3797 0
1129 3797 -0.067601049744234934
1130 3797 -0.99553485319114277
1131 3797 -0
1132 3797 -0.067376861357772475
1133 3797 -0.49382500867881207
1134 3797 -0
2347 3797 0
2348 3797 0
2349 3797 0
2350 3797 0
2351 3797 0.70516692496269695
2352 3797 0
2713 3797 -0
2714 3797 -0
2715 3797 -0
2716 3797 -0
2717 3797 -0.70516692496269695
2718 3797 -0
1123 3798 0
1124 3798 0
1125 3798 0
1126 3798 0
1127 3798 0
1128 3798 0.49726039206134764
1129 3798 -0
1130 3798 -0
1131 3798 -0.99668365524927816
1132 3798 -0
1133 3798 -0
1134 3798 -0.49611791657971638
2347 3798 0
2348 3798 0
2349 3798 0
2350 3798 0
2351 3798 0
2352 3798 0.70516692496269695
2713 3798 -0
2714 3798 -0
2715 3798 -0
2716 3798 -0
2717 3798 -0
2718 3798 -0.70516692496269695
1129 3799 0.01662412773633716
1130 3799 0
1131 3799 0
1132 3799 0
1133 3799 0
1134 3799 0
1135 3799 -0.016738711515653665
1136 3799 5.1859358331731552e-06
1137 3799 -0
1138 3799 -0.00011420378000142444
1139 3799 7.763820444667679e-06
1140 3799 -0
2353 3799 0.70516692496269695
2354 3799 0
2355 3799 0
2356 3799 0
2357 3799 0
2358 3799 0
2719 3799 -0.70516692496269695
2720 3799 -0
2721 3799 -0
2722 3799 -0
2723 3799 -0
2724 3799 -0
1129 3800 0
1130 3800 0.016643240039254284
1131 3800 0
1132 3800 0
1133 3800 0
1134 3800 0
1135 3800 -0
1136 3800 -0.016643240039254253
1137 3800 -0
1138 3800 -0
1139 3800 -0
1140 3800 -0
2353 3800 0
2354 3800 0.70516692496269695
2355 3800 0
2356 3800 0
2357 3800 0
2358 3800 0
2719 3800 -0
2720 3800 -0.70516692496269695
2721 3800 -0
2722 3800 -0
2723 3800 -0
2724 3800 -0
1129 3801 0
1130 3801 0
1131 3801 0.016624127736337181
1132 3801 0
1133 3801 0
1134 3801 0
1135 3801 -0
1136 3801 -0
1137 3801 -0.016585933143231667
1138 3801 -0
1139 3801 -0
1140 3801 3.8067926667141391e-05
2353 3801 0
2354 3801 0
2355 3801 0.70516692496269695
2356 3801 0
2357 3801 0
2358 3801 0
2719 3801 -0
2720 3801 -0
2721 3801 -0.70516692496269695
2722 3801 -0
2723 3801 -0
2724 3801 -0
1129 3802 0
1130 3802 0
1131 3802 0
1132 3802 0.49726039206134737
1133 3802 0
1134 3802 0
1135 3802 -0.99668365524927938
1136 3802 0.067678768813813697
1137 3802 -0
1138 3802 -0.49611791657971721
1139 3802 0.067532010077255816
1140 3802 -0
2353 3802 0
2354 3802 0
2355 3802 0
2356 3802 0.70516692496269695
2357 3802 0
2358 3802 0
2719 3802 -0
2720 3802 -0
2721 3802 -0
2722 3802 -0.70516692496269695
2723 3802 -0
2724 3802 -0
1129 3803 0
1130 3803 0
1131 3803 0
1132 3803 0
1133 3803 0.49840543371991375
1134 3803 0
1135 3803 -0.067601049744234934
1136 3803 -0.99553485319114277
1137 3803 -0
1138 3803 -0.067376861357772475
1139 3803 -0.49382500867881207
1140 3803 -0
2353 3803 0
2354 3803 0
2355 3803 0
2356 3803 0
2357 3803 0.70516692496269695
2358 3803 0
2719 3803 -0
2720 3803 -0
2721 3803 -0
2722 3803 -0
2723 3803 -0.70516692496269695
2724 3803 -0
1129 3804 0
1130 3804 0
1131 3804 0
1132 3804 0
1133 3804 0
1134 3804 0.49726039206134764
1135 3804 -0
1136 3804 -0
1137 3804 -0.99668365524927816
1138 3804 -0
1139 3804 -0
1140 3804 -0.49611791657971638
2353 3804 0
2354 3804 0
2355 3804 0
2356 3804 0
2357 3804 0
2358 3804 0.70516692496269695
2719 3804 -0
2720 3804 -0
2721 3804 -0
2722 3804 -0
2723 3804 -0
2724 3804 -0.70516692496269695
271 3805 0.01662412773633716
272 3805 0
273 3805 0
274 3805 0
275 3805 0
276 3805 0
277 3805 -0.016738711515653665
278 3805 5.1859358331731552e-06
279 3805 -0
280 3805 -0.00011420378000142444
281 3805 7.763820444667679e-06
282 3805 -0
1981 3805 -0.70516692496269695
1982 3805 -0
1983 3805 -0
1984 3805 -0
1985 3805 -0
1986 3805 -0
3079 3805 0.70516692496269695
3080 3805 0
3081 3805 0
3082 3805 0
3083 3805 0
3084 3805 0
271 3806 0
272 3806 0.016643240039254284
273 3806 0
274 3806 0
275 3806 0
276 3806 0
277 3806 -0
278 3806 -0.016643240039254253
279 3806 -0
280 3806 -0
281 3806 -0
282 3806 -0
1981 3806 -0
1982 3806 -0.70516692496269695
1983 3806 -0
1984 3806 -0
1985 3806 -0
1986 3806 -0
3079 3806 0
3080 3806 0.70516692496269695
3081 3806 0
3082 3806 0
3083 3806 0
3084 3806 0
271 3807 0
272 3807 0
273 3807 0.016624127736337181
274 3807 0
275 3807 0
276 3807 0
277 3807 -0
278 3807 -0
279 3807 -0.016585933143231667
280 3807 -0
281 3807 -0
282 3807 3.8067926667141391e-05
1981 3807 -0
1982 3807 -0
1983 3807 -0.70516692496269695
1984 3807 -0
1985 3807 -0
1986 3807 -0
3079 3807 0
3080 3807 0
3081 3807 0.70516692496269695
3082 3807 0
3083 3807 0
3084 3807 0
271 3808 0
272 3808 0
273 3808 0
274 3808 0.49726039206134737
275 3808 0
276 3808 0
277 3808 -0.99668365524927938
278 3808 0.067678768813813697
279 3808 -0
280 3808 -0.49611791657971721
281 3808 0.067532010077255816
282 3808 -0
1981 3808 -0
1982 3808 -0
1983 3808 -0
1984 3808 -0.70516692496269695
1985 3808 -0
1986 3808 -0
3079 3808 0
3080 3808 0
3081 3808 0
3082 3808 0.70516692496269695
3083 3808 0
3084 3808 0
271 3809 0
272 3809 0
273 3809 0
274 3809 0
275 3809 0.49840543371991375
276 3809 0
277 3809 -0.067601049744234934
278 3809 -0.99553485319114277
279 3809 -0
280 3809 -0.067376861357772475
281 3809 -0.49382500867881207
282 3809 -0
1981 3809 -0
1982 3809 -0
1983 3809 -0
1984 3809 -0
1985 3809 -0.70516692496269695
1986 3809 -0
3079 3809 0
3080 3809 0
3081 3809 0
3082 3809 0
3083 3809 0.70516692496269695
3084 3809 0
271 3810 0
272 3810 0
273 3810 0
274 3810 0
275 3810 0
276 3810 0.49726039206134764
277 3810 -0
278 3810 -0
279 3810 -0.99668365524927816
280 3810 -0
281 3810 -0
282 3810 -0.49611791657971638
1981 3810 -0
1982 3810 -0
1983 3810 -0
1984 3810 -0
1985 3810 -0
1986 3810 -0.70516692496269695
3079 3810 0
3080 3810 0
3081 3810 0
3082 3810 0
3083 3810 0
3084 3810 0.70516692496269695
277 3811 0.01662412773633716
278 3811 0
279 3811 0
280 3811 0
281 3811 0
282 3811 0
283 3811 -0.016738711515653665
284 3811 5.1859358331731552e-06
285 3811 -0
286 3811 -0.00011420378000142444
287 3811 7.763820444667679e-06
288 3811 -0
1987 3811 -0.70516692496269695
1988 3811 -0
1989 3811 -0
1990 3811 -0
1991 3811 -0
1992 3811 -0
3085 3811 0.70516692496269695
3086 3811 0
3087 3811 0
3088 3811 0
3089 3811 0
3090 3811 0
277 3812 0
278 3812 0.016643240039254284
279 3812 0
280 3812 0
281 3812 0
282 3812 0
283 3812 -0
284 3812 -0.016643240039254253
285 3812 -0
286 3812 -0
287 3812 -0
288 3812 -0
1987 3812 -0
1988 3812 -0.70516692496269695
1989 3812 -0
1990 3812 -0
1991 3812 -0
1992 3812 -0
3085 3812 0
3086 3812 0.70516692496269695
3087 3812 0
3088 3812 0
3089 3812 0
3090 3812 0
277 3813 0
278 3813 0
279 3813 0.016624127736337181
280 3813 0
281 3813 0
282 3813 0
283 3813 -0
284 3813 -0
285 3813 -0.016585933143231667
286 3813 -0
287 3813 -0
288 3813 3.8067926667141391e-05
1987 3813 -0
1988 3813 -0
1989 3813 -0.70516692496269695
1990 3813 -0
1991 3813 -0
1992 3813 -0
3085 3813 0
3086 3813 0
3087 3813 0.70516692496269695
3088 3813 0
3089 3813 0
3090 3813 0
277 3814 0
278 3814 0
279 3814 0
280 3814 0.49726039206134737
281 3814 0
282 3814 0
283 3814 -0.99668365524927938
284 3814 0.067678768813813697
285 3814 -0
286 3814 -0.49611791657971721
287 3814 0.067532010077255816
288 3814 -0
1987 3814 -0
1988 3814 -0
1989 3814 -0
1990 3814 -0.70516692496269695
1991 3814 -0
1992 3814 -0
3085 3814 0
3086 3814 0
3087 3814 0
3088 3814 0.70516692496269695
3089 3814 0
3090 3814 0
277 3815 0
278 3815 0
279 3815 0
280 3815 0
281 3815 0.49840543371991375
282 3815 0
283 3815 -0.067601049744234934
284 3815 -0.99553485319114277
285 3815 -0
286 3815 -0.067376861357772475
287 3815 -0.49382500867881207
288 3815 -0
1987 3815 -0
1988 3815 -0
1989 3815 -0
1990 3815 -0
1991 3815 -0.70516692496269695
1992 3815 -0
3085 3815 0
3086 3815 0
3087 3815 0
3088 3815 0
3089 3815 0.70516692496269695
3090 3815 0
277 3816 0
278 3816 0
279 3816 0
280 3816 0
281 3816 0
282 3816 0.49726039206134764
283 3816 -0
284 3816 -0
285 3816 -0.99668365524927816
286 3816 -0
287 3816 -0
288 3816 -0.49611791657971638
1987 3816 -0
1988 3816 -0
1989 3816 -0
1990 3816 -0
1991 3816 -0
1992 3816 -0.70516692496269695
3085 3816 0
3086 3816 0
3087 3816 0
3088 3816 0
3089 3816 0
3090 3816 0.70516692496269695
703 3817 0.01662412773633716
704 3817 0
705 3817 0
706 3817 0
707 3817 0
708 3817 0
709 3817 -0.016738711515653665
710 3817 5.1859358331731552e-06
711 3817 -0
712 3817 -0.00011420378000142444
713 3817 7.763820444667679e-06
714 3817 -0
1987 3817 0.70516692496269695
1988 3817 0
1989 3817 0
1990 3817 0
1991 3817 0
1992 3817 0
2353 3817 -0.70516692496269695
2354 3817 -0
2355 3817 -0
2356 3817 -0
2357 3817 -0
2358 3817 -0
703 3818 0
704 3818 0.016643240039254284
705 3818 0
706 3818 0
707 3818 0
708 3818 0
709 3818 -0
710 3818 -0.016643240039254253
711 3818 -0
712 3818 -0
713 3818 -0
714 3818 -0
1987 3818 0
1988 3818 0.70516692496269695
1989 3818 0
1990 3818 0
1991 3818 0
1992 3818 0
2353 3818 -0
2354 3818 -0.70516692496269695
2355 3818 -0
2356 3818 -0
2357 3818 -0
2358 3818 -0
703 3819 0
704 3819 0
705 3819 0.016624127736337181
706 3819 0
707 3819 0
708 3819 0
709 3819 -0
710 3819 -0
711 3819 -0.016585933143231667
712 3819 -0
713 3819 -0
714 3819 3.8067926667141391e-05
1987 3819 0
1988 3819 0
1989 3819 0.70516692496269695
1990 3819 0
1991 3819 0
1992 3819 0
2353 3819 -0
2354 3819 -0
2355 3819 -0.70516692496269695
2356 3819 -0
2357 3819 -0
2358 3819 -0
703 3820 0
704 3820 0
705 3820 0
706 3820 0.49726039206134737
707 3820 0
708 3820 0
709 3820 -0.99668365524927938
710 3820 0.067678768813813697
711 3820 -0
712 3820 -0.49611791657971721
713 3820 0.067532010077255816
714 3820 -0
1987 3820 0
1988 3820 0
1989 3820 0
1990 3820 0.70516692496269695
1991 3820 0
1992 3820 0
2353 3820 -0
2354 3820 -0
2355 3820 -0
2356 3820 -0.70516692496269695
2357 3820 -0
2358 3820 -0
703 3821 0
704 3821 0
705 3821 0
706 3821 0
707 3821 0.49840543371991375
708 3821 0
709 3821 -0.067601049744234934
710 3821 -0.99553485319114277
711 3821 -0
712 3821 -0.067376861357772475
713 3821 -0.49382500867881207
714 3821 -0
1987 3821 0
1988 3821 0
1989 3821 0
1990 3821 0
1991 3821 0.70516692496269695
1992 3821 0
2353 3821 -0
2354 3821 -0
2355 3821 -0
2356 3821 -0
2357 3821 -0.70516692496269695
2358 3821 -0
703 3822 0
704 3822 0
705 3822 0
706 3822 0
707 3822 0
708 3822 0.49726039206134764
709 3822 -0
710 3822 -0
711 3822 -0.99668365524927816
712 3822 -0
713 3822 -0
714 3822 -0.49611791657971638
1987 3822 0
1988 3822 0
1989 3822 0
1990 3822 0
1991 3822 0
1992 3822 0.70516692496269695
2353 3822 -0
2354 3822 -0
2355 3822 -0
2356 3822 -0
2357 3822 -0
2358 3822 -0.70516692496269695
709 3823 0.01662412773633716
710 3823 0
711 3823 0
712 3823 0
713 3823 0
714 3823 0
715 3823 -0.016738711515653665
716 3823 5.1859358331731552e-06
717 3823 -0
718 3823 -0.00011420378000142444
719 3823 7.763820444667679e-06
720 3823 -0
1993 3823 0.70516692496269695
1994 3823 0
1995 3823 0
1996 3823 0
1997 3823 0
1998 3823 0
2359 3823 -0.70516692496269695
2360 3823 -0
2361 3823 -0
2362 3823 -0
2363 3823 -0
2364 3823 -0
709 3824 0
710 3824 0.016643240039254284
711 3824 0
712 3824 0
713 3824 0
714 3824 0
715 3824 -0
716 3824 -0.016643240039254253
717 3824 -0
718 3824 -0
719 3824 -0
720 3824 -0
1993 3824 0
1994 3824 0.70516692496269695
1995 3824 0
1996 3824 0
1997 3824 0
1998 3824 0
2359 3824 -0
2360 3824 -0.70516692496269695
2361 3824 -0
2362 3824 -0
2363 3824 -0
2364 3824 -0
709 3825 0
710 3825 0
711 3825 0.016624127736337181
712 3825 0
713 3825 0
714 3825 0
715 3825 -0
716 3825 -0
717 3825 -0.016585933143231667
718 3825 -0
719 3825 -0
720 3825 3.8067926667141391e-05
1993 3825 0
1994 3825 0
1995 3825 0.70516692496269695
1996 3825 0
1997 3825 0
1998 3825 0
2359 3825 -0
2360 3825 -0
2361 3825 -0.70516692496269695
2362 3825 -0
2363 3825 -0
2364 3825 -0
709 3826 0
710 3826 0
711 3826 0
712 3826 0.49726039206134737
713 3826 0
714 3826 0
715 3826 -0.99668365524927938
716 3826 0.067678768813813697
717 3826 -0
718 3826 -0.49611791657971721
719 3826 0.067532010077255816
720 3826 -0
1993 3826 0
1994 3826 0
1995 3826 0
1996 3826 0.70516692496269695
1997 3826 0
1998 3826 0
2359 3826 -0
2360 3826 -0
2361 3826 -0
2362 3826 -0.70516692496269695
2363 3826 -0
2364 3826 -0
709 3827 0
710 3827 0
711 3827 0
712 3827 0
713 3827 0.49840543371991375
714 3827 0
715 3827 -0.067601049744234934
716 3827 -0.99553485319114277
717 3827 -0
718 3827 -0.067376861357772475
719 3827 -0.49382500867881207
720 3827 -0
1993 3827 0
1994 3827 0
1995 3827 0
1996 3827 0
1997 3827 0.70516692496269695
1998 3827 0
2359 3827 -0
2360 3827 -0
2361 3827 -0
2362 3827 -0
2363 3827 -0.70516692496269695
2364 3827 -0
709 3828 0
710 3828 0
711 3828 0
712 3828 0
713 3828 0
714 3828 0.49726039206134764
715 3828 -0
716 3828 -0
717 3828 -0.99668365524927816
718 3828 -0
719 3828 -0
720 3828 -0.49611791657971638
1993 3828 0
1994 3828 0
1995 3828 0
1996 3828 0
1997 3828 0
1998 3828 0.70516692496269695
2359 3828 -0
2360 3828 -0
2361 3828 -0
2362 3828 -0
2363 3828 -0
2364 3828 -0.70516692496269695
1555 3829 0.01662412773633716
1556 3829 0
1557 3829 0
1558 3829 0
1559 3829 0
1560 3829 0
1561 3829 -0.016738711515653665
1562 3829 5.1859358331731552e-06
1563 3829 -0
1564 3829 -0.00011420378000142444
1565 3829 7.763820444667679e-06
1566 3829 -0
2719 3829 0.70516692496269695
2720 3829 0
2721 3829 0
2722 3829 0
2723 3829 0
2724 3829 0
3085 3829 -0.70516692496269695
3086 3829 -0
3087 3829 -0
3088 3829 -0
3089 3829 -0
3090 3829 -0
1555 3830 0
1556 3830 0.016643240039254284
1557 3830 0
1558 3830 0
1559 3830 0
1560 3830 0
1561 3830 -0
1562 3830 -0.016643240039254253
1563 3830 -0
1564 3830 -0
1565 3830 -0
1566 3830 -0
2719 3830 0
2720 3830 0.70516692496269695
2721 3830 0
2722 3830 0
2723 3830 0
2724 3830 0
3085 3830 -0
3086 3830 -0.70516692496269695
3087 3830 -0
3088 3830 -0
3089 3830 -0
3090 3830 -0
1555 3831 0
1556 3831 0
1557 3831 0.016624127736337181
1558 3831 0
1559 3831 0
1560 3831 0
1561 3831 -0
1562 3831 -0
1563 3831 -0.016585933143231667
1564 3831 -0
1565 3831 -0
1566 3831 3.8067926667141391e-05
2719 3831 0
2720 3831 0
2721 3831 0.70516692496269695
2722 3831 0
2723 3831 0
2724 3831 0
3085 3831 -0
3086 3831 -0
3087 3831 -0.70516692496269695
3088 3831 -0
3089 3831 -0
3090 3831 -0
1555 3832 0
1556 3832 0
1557 3832 0
1558 3832 0.49726039206134737
1559 3832 0
1560 3832 0
1561 3832 -0.99668365524927938
1562 3832 0.067678768813813697
1563 3832 -0
1564 3832 -0.49611791657971721
1565 3832 0.067532010077255816
1566 3832 -0
2719 3832 0
2720 3832 0
2721 3832 0
2722 3832 0.70516692496269695
2723 3832 0
2724 3832 0
3085 3832 -0
3086 3832 -0
3087 3832 -0
3088 3832 -0.70516692496269695
3089 3832 -0
3090 3832 -0
1555 3833 0
1556 3833 0
1557 3833 0
1558 3833 0
1559 3833 0.49840543371991375
1560 3833 0
1561 3833 -0.067601049744234934
1562 3833 -0.99553485319114277
1563 3833 -0
1564 3833 -0.067376861357772475
1565 3833 -0.49382500867881207
1566 3833 -0
2719 3833 0
2720 3833 0
2721 3833 0
2722 3833 0
2723 3833 0.70516692496269695
2724 3833 0
3085 3833 -0
3086 3833 -0
3087 3833 -0
3088 3833 -0
3089 3833 -0.70516692496269695
3090 3833 -0
1555 3834 0
1556 3834 0
1557 3834 0
1558 3834 0
1559 3834 0
1560 3834 0.49726039206134764
1561 3834 -0
1562 3834 -0
1563 3834 -0.99668365524927816
1564 3834 -0
1565 3834 -0
1566 3834 -0.49611791657971638
2719 3834 0
2720 3834 0
2721 3834 0
2722 3834 0
2723 3834 0
2724 3834 0.70516692496269695
3085 3834 -0
3086 3834 -0
3087 3834 -0
3088 3834 -0
3089 3834 -0
3090 3834 -0.70516692496269695
1561 3835 0.01662412773633716
1562 3835 0
1563 3835 0
1564 3835 0
1565 3835 0
1566 3835 0
1567 3835 -0.016738711515653665
1568 3835 5.1859358331731552e-06
1569 3835 -0
1570 3835 -0.00011420378000142444
1571 3835 7.763820444667679e-06
1572 3835 -0
2725 3835 0.70516692496269695
2726 3835 0
2727 3835 0
2728 3835 0
2729 3835 0
2730 3835 0
3091 3835 -0.70516692496269695
3092 3835 -0
3093 3835 -0
3094 3835 -0
3095 3835 -0
3096 3835 -0
1561 3836 0
1562 3836 0.016643240039254284
1563 3836 0
1564 3836 0
1565 3836 0
1566 3836 0
1567 3836 -0
1568 3836 -0.016643240039254253
1569 3836 -0
1570 3836 -0
1571 3836 -0
1572 3836 -0
2725 3836 0
2726 3836 0.70516692496269695
2727 3836 0
2728 3836 0
2729 3836 0
2730 3836 0
3091 3836 -0
3092 3836 -0.70516692496269695
3093 3836 -0
3094 3836 -0
3095 3836 -0
3096 3836 -0
1561 3837 0
1562 3837 0
1563 3837 0.016624127736337181
1564 3837 0
1565 3837 0
1566 3837 0
1567 3837 -0
1568 3837 -0
1569 3837 -0.016585933143231667
1570 3837 -0
1571 3837 -0
1572 3837 3.8067926667141391e-05
2725 3837 0
2726 3837 0
2727 3837 0.70516692496269695
2728 3837 0
2729 3837 0
2730 3837 0
3091 3837 -0
3092 3837 -0
3093 3837 -0.70516692496269695
3094 3837 -0
3095 3837 -0
3096 3837 -0
1561 3838 0
1562 3838 0
1563 3838 0
1564 3838 0.49726039206134737
1565 3838 0
1566 3838 0
1567 3838 -0.99668365524927938
1568 3838 0.067678768813813697
1569 3838 -0
1570 3838 -0.49611791657971721
1571 3838 0.067532010077255816
1572 3838 -0
2725 3838 0
2726 3838 0
2727 3838 0
2728 3838 0.70516692496269695
2729 3838 0
2730 3838 0
3091 3838 -0
3092 3838 -0
3093 3838 -0
3094 3838 -0.70516692496269695
3095 3838 -0
3096 3838 -0
1561 3839 0
1562 3839 0
1563 3839 0
1564 3839 0
1565 3839 0.49840543371991375
1566 3839 0
1567 3839 -0.067601049744234934
1568 3839 -0.99553485319114277
1569 3839 -0
1570 3839 -0.067376861357772475
1571 3839 -0.49382500867881207
1572 3839 -0
2725 3839 0
2726 3839 0
2727 3839 0
2728 3839 0
2729 3839 0.70516692496269695
2730 3839 0
3091 3839 -0
3092 3839 -0
3093 3839 -0
3094 3839 -0
3095 3839 -0.70516692496269695
3096 3839 -0
1561 3840 0
1562 3840 0
1563 3840 0
1564 3840 0
1565 3840 0
1566 3840 0.49726039206134764
1567 3840 -0
1568 3840 -0
1569 3840 -0.99668365524927816
1570 3840 -0
1571 3840 -0
1572 3840 -0.49611791657971638
2725 3840 0
2726 3840 0
2727 3840 0
2728 3840 0
2729 3840 0
2730 3840 0.70516692496269695
3091 3840 -0
3092 3840 -0
3093 3840 -0
3094 3840 -0
3095 3840 -0
3096 3840 -0.70516692496269695
283 3841 0.01662412773633716
284 3841 0
285 3841 0
286 3841 0
287 3841 0
288 3841 0
289 3841 -0.016738711515653665
290 3841 5.1859358331731552e-06
291 3841 -0
292 3841 -0.00011420378000142444
293 3841 7.763820444667679e-06
294 3841 -0
1993 3841 -0.70516692496269695
1994 3841 -0
1995 3841 -0
1996 3841 -0
1997 3841 -0
1998 3841 -0
3091 3841 0.70516692496269695
3092 3841 0
3093 3841 0
3094 3841 0
3095 3841 0
3096 3841 0
283 3842 0
284 3842 0.016643240039254284
285 3842 0
286 3842 0
287 3842 0
288 3842 0
289 3842 -0
290 3842 -0.016643240039254253
291 3842 -0
292 3842 -0
293 3842 -0
294 3842 -0
1993 3842 -0
1994 3842 -0.70516692496269695
1995 3842 -0
1996 3842 -0
1997 3842 -0
1998 3842 -0
3091 3842 0
3092 3842 0.70516692496269695
3093 3842 0
3094 3842 0
3095 3842 0
3096 3842 0
283 3843 0
284 3843 0
285 3843 0.016624127736337181
286 3843 0
287 3843 0
288 3843 0
289 3843 -0
290 3843 -0
291 3843 -0.016585933143231667
292 3843 -0
293 3843 -0
294 3843 3.8067926667141391e-05
1993 3843 -0
1994 3843 -0
1995 3843 -0.70516692496269695
1996 3843 -0
1997 3843 -0
1998 3843 -0
3091 3843 0
3092 3843 0
3093 3843 0.70516692496269695
3094 3843 0
3095 3843 0
3096 3843 0
283 3844 0
284 3844 0
285 3844 0
286 3844 0.49726039206134737
287 3844 0
288 3844 0
289 3844 -0.99668365524927938
290 3844 0.067678768813813697
291 3844 -0
292 3844 -0.49611791657971721
293 3844 0.067532010077255816
294 3844 -0
1993 3844 -0
1994 3844 -0
1995 3844 -0
1996 3844 -0.70516692496269695
1997 3844 -0
1998 3844 -0
3091 3844 0
3092 3844 0
3093 3844 0
3094 3844 0.70516692496269695
3095 3844 0
3096 3844 0
283 3845 0
284 3845 0
285 3845 0
286 3845 0
287 3845 0.49840543371991375
288 3845 0
289 3845 -0.067601049744234934
290 3845 -0.99553485319114277
291 3845 -0
292 3845 -0.067376861357772475
293 3845 -0.49382500867881207
294 3845 -0
1993 3845 -0
1994 3845 -0
1995 3845 -0
1996 3845 -0
1997 3845 -0.70516692496269695
1998 3845 -0
3091 3845 0
3092 3845 0
3093 3845 0
3094 3845 0
3095 3845 0.70516692496269695
3096 3845 0
283 3846 0
284 3846 0
285 3846 0
286 3846 0
287 3846 0
288 3846 0.49726039206134764
289 3846 -0
290 3846 -0
291 3846 -0.99668365524927816
292 3846 -0
293 3846 -0
294 3846 -0.49611791657971638
1993 3846 -0
1994 3846 -0
1995 3846 -0
1996 3846 -0
1997 3846 -0
1998 3846 -0.70516692496269695
3091 3846 0
3092 3846 0
3093 3846 0
3094 3846 0
3095 3846 0
3096 3846 0.70516692496269695
289 3847 0.01662412773633716
290 3847 0
291 3847 0
292 3847 0
293 3847 0
294 3847 0
295 3847 -0.016738711515653665
296 3847 5.1859358331731552e-06
297 3847 -0
298 3847 -0.00011420378000142444
299 3847 7.763820444667679e-06
300 3847 -0
1999 3847 -0.70516692496269695
2000 3847 -0
2001 3847 -0
2002 3847 -0
2003 3847 -0
2004 3847 -0
3097 3847 0.70516692496269695
3098 3847 0
3099 3847 0
3100 3847 0
3101 3847 0
3102 3847 0
289 3848 0
290 3848 0.016643240039254284
291 3848 0
292 3848 0
293 3848 0
294 3848 0
295 3848 -0
296 3848 -0.016643240039254253
297 3848 -0
298 3848 -0
299 3848 -0
300 3848 -0
1999 3848 -0
2000 3848 -0.70516692496269695
2001 3848 -0
2002 3848 -0
2003 3848 -0
2004 3848 -0
3097 3848 0
3098 3848 0.70516692496269695
3099 3848 0
3100 3848 0
3101 3848 0
3102 3848 0
289 3849 0
290 3849 0
291 3849 0.016624127736337181
292 3849 0
293 3849 0
294 3849 0
295 3849 -0
296 3849 -0
297 3849 -0.016585933143231667
298 3849 -0
299 3849 -0
300 3849 3.8067926667141391e-05
1999 3849 -0
2000 3849 -0
2001 3849 -0.70516692496269695
2002 3849 -0
2003 3849 -0
2004 3849 -0
3097 3849 0
3098 3849 0
3099 3849 0.70516692496269695
3100 3849 0
3101 3849 0
3102 3849 0
289 3850 0
290 3850 0
291 3850 0
292 3850 0.49726039206134737
293 3850 0
294 3850 0
295 3850 -0.99668365524927938
296 3850 0.067678768813813697
297 3850 -0
298 3850 -0.49611791657971721
299 3850 0.067532010077255816
300 3850 -0
1999 3850 -0
2000 3850 -0
2001 3850 -0
2002 3850 -0.70516692496269695
2003 3850 -0
2004 3850 -0
3097 3850 0
3098 3850 0
3099 3850 0
3100 3850 0.70516692496269695
3101 3850 0
3102 3850 0
289 3851 0
290 3851 0
291 3851 0
292 3851 0
293 3851 0.49840543371991375
294 3851 0
295 3851 -0.067601049744234934
296 3851 -0.99553485319114277
297 3851 -0
298 3851 -0.067376861357772475
299 3851 -0.49382500867881207
300 3851 -0
1999 3851 -0
2000 3851 -0
2001 3851 -0
2002 3851 -0
2003 3851 -0.70516692496269695
2004 3851 -0
3097 3851 0
3098 3851 0
3099 3851 0
3100 3851 0
3101 3851 0.70516692496269695
3102 3851 0
289 3852 0
290 3852 0
291 3852 0
292 3852 0
293 3852 0
294 3852 0.49726039206134764
295 3852 -0
296 3852 -0
297 3852 -0.99668365524927816
298 3852 -0
299 3852 -0
300 3852 -0.49611791657971638
1999 3852 -0
2000 3852 -0
2001 3852 -0
2002 3852 -0
2003 3852 -0
2004 3852 -0.70516692496269695
3097 3852 0
3098 3852 0
3099 3852 0
3100 3852 0
3101 3852 0
3102 3852 0.70516692496269695
1135 3853 0.01662412773633716
1136 3853 0
1137 3853 0
1138 3853 0
1139 3853 0
1140 3853 0
1141 3853 -0.016738711515653665
1142 3853 5.1859358331731552e-06
1143 3853 -0
1144 3853 -0.00011420378000142444
1145 3853 7.763820444667679e-06
1146 3853 -0
2359 3853 0.70516692496269695
2360 3853 0
2361 3853 0
2362 3853 0
2363 3853 0
2364 3853 0
2725 3853 -0.70516692496269695
2726 3853 -0
2727 3853 -0
2728 3853 -0
2729 3853 -0
2730 3853 -0
1135 3854 0
1136 3854 0.016643240039254284
1137 3854 0
1138 3854 0
1139 3854 0
1140 3854 0
1141 3854 -0
1142 3854 -0.016643240039254253
1143 3854 -0
1144 3854 -0
1145 3854 -0
1146 3854 -0
2359 3854 0
2360 3854 0.70516692496269695
2361 3854 0
2362 3854 0
2363 3854 0
2364 3854 0
2725 3854 -0
2726 3854 -0.70516692496269695
2727 3854 -0
2728 3854 -0
2729 3854 -0
2730 3854 -0
1135 3855 0
1136 3855 0
1137 3855 0.016624127736337181
1138 3855 0
1139 3855 0
1140 3855 0
1141 3855 -0
1142 3855 -0
1143 3855 -0.016585933143231667
1144 3855 -0
1145 3855 -0
1146 3855 3.8067926667141391e-05
2359 3855 0
2360 3855 0
2361 3855 0.70516692496269695
2362 3855 0
2363 3855 0
2364 3855 0
2725 3855 -0
2726 3855 -0
2727 3855 -0.70516692496269695
2728 3855 -0
2729 3855 -0
2730 3855 -0
1135 3856 0
1136 3856 0
1137 3856 0
1138 3856 0.49726039206134737
1139 3856 0
1140 3856 0
1141 3856 -0.99668365524927938
1142 3856 0.067678768813813697
1143 3856 -0
1144 3856 -0.49611791657971721
1145 3856 0.067532010077255816
1146 3856 -0
2359 3856 0
2360 3856 0
2361 3856 0
2362 3856 0.70516692496269695
2363 3856 0
2364 3856 0
2725 3856 -0
2726 3856 -0
2727 3856 -0
2728 3856 -0.70516692496269695
2729 3856 -0
2730 3856 -0
1135 3857 0
1136 3857 0
1137 3857 0
1138 3857 0
1139 3857 0.49840543371991375
1140 3857 0
1141 3857 -0.067601049744234934
1142 3857 -0.99553485319114277
1143 3857 -0
1144 3857 -0.067376861357772475
1145 3857 -0.49382500867881207
1146 3857 -0
2359 3857 0
2360 3857 0
2361 3857 0
2362 3857 0
2363 3857 0.70516692496269695
2364 3857 0
2725 3857 -0
2726 3857 -0
2727 3857 -0
2728 3857 -0
2729 3857 -0.70516692496269695
2730 3857 -0
1135 3858 0
1136 3858 0
1137 3858 0
1138 3858 0
1139 3858 0
1140 3858 0.49726039206134764
1141 3858 -0
1142 3858 -0
1143 3858 -0.99668365524927816
1144 3858 -0
1145 3858 -0
1146 3858 -0.49611791657971638
2359 3858 0
2360 3858 0
2361 3858 0
2362 3858 0
2363 3858 0
2364 3858 0.70516692496269695
2725 3858 -0
2726 3858 -0
2727 3858 -0
2728 3858 -0
2729 3858 -0
2730 3858 -0.70516692496269695
1141 3859 0.01662412773633716
1142 3859 0
1143 3859 0
1144 3859 0
1145 3859 0
1146 3859 0
1147 3859 -0.016738711515653665
1148 3859 5.1859358331731552e-06
1149 3859 -0
1150 3859 -0.00011420378000142444
1151 3859 7.763820444667679e-06
1152 3859 -0
2365 3859 0.70516692496269695
2366 3859 0
2367 3859 0
2368 3859 0
2369 3859 0
2370 3859 0
2731 3859 -0.70516692496269695
2732 3859 -0
2733 3859 -0
2734 3859 -0
2735 3859 -0
2736 3859 -0
1141 3860 0
1142 3860 0.016643240039254284
1143 3860 0
1144 3860 0
1145 3860 0
1146 3860 0
1147 3860 -0
1148 3860 -0.016643240039254253
1149 3860 -0
1150 3860 -0
1151 3860 -0
1152 3860 -0
2365 3860 0
2366 3860 0.70516692496269695
2367 3860 0
2368 3860 0
2369 3860 0
2370 3860 0
2731 3860 -0
2732 3860 -0.70516692496269695
2733 3860 -0
2734 3860 -0
2735 3860 -0
2736 3860 -0
1141 3861 0
1142 3861 0
1143 3861 0.016624127736337181
1144 3861 0
1145 3861 0
1146 3861 0
1147 3861 -0
1148 3861 -0
1149 3861 -0.016585933143231667
1150 3861 -0
1151 3861 -0
1152 3861 3.8067926667141391e-05
2365 3861 0
2366 3861 0
2367 3861 0.70516692496269695
2368 3861 0
2369 3861 0
2370 3861 0
2731 3861 -0
2732 3861 -0
2733 3861 -0.70516692496269695
2734 3861 -0
2735 3861 -0
2736 3861 -0
1141 3862 0
1142 3862 0
1143 3862 0
1144 3862 0.49726039206134737
1145 3862 0
1146 3862 0
1147 3862 -0.99668365524927938
1148 3862 0.067678768813813697
1149 3862 -0
1150 3862 -0.49611791657971721
1151 3862 0.067532010077255816
1152 3862 -0
2365 3862 0
2366 3862 0
2367 3862 0
2368 3862 0.70516692496269695
2369 3862 0
2370 3862 0
2731 3862 -0
2732 3862 -0
2733 3862 -0
2734 3862 -0.70516692496269695
2735 3862 -0
2736 3862 -0
1141 3863 0
1142 3863 0
1143 3863 0
1144 3863 0
1145 3863 0.49840543371991375
1146 3863 0
1147 3863 -0.067601049744234934
1148 3863 -0.99553485319114277
1149 3863 -0
1150 3863 -0.067376861357772475
1151 3863 -0.49382500867881207
1152 3863 -0
2365 3863 0
2366 3863 0
2367 3863 0
2368 3863 0
2369 3863 0.70516692496269695
2370 3863 0
2731 3863 -0
2732 3863 -0
2733 3863 -0
2734 3863 -0
2735 3863 -0.70516692496269695
2736 3863 -0
1141 3864 0
1142 3864 0
1143 3864 0
1144 3864 0
1145 3864 0
1146 3864 0.49726039206134764
1147 3864 -0
1148 3864 -0
1149 3864 -0.99668365524927816
1150 3864 -0
1151 3864 -0
1152 3864 -0.49611791657971638
2365 3864 0
2366 3864 0
2367 3864 0
2368 3864 0
2369 3864 0
2370 3864 0.70516692496269695
2731 3864 -0
2732 3864 -0
2733 3864 -0
2734 3864 -0
2735 3864 -0
2736 3864 -0.70516692496269695
1567 3865 0.01662412773633716
1568 3865 0
1569 3865 0
1570 3865 0
1571 3865 0
1572 3865 0
1573 3865 -0.016738711515653665
1574 3865 5.1859358331731552e-06
1575 3865 -0
1576 3865 -0.00011420378000142444
1577 3865 7.763820444667679e-06
1578 3865 -0
2731 3865 0.70516692496269695
2732 3865 0
2733 3865 0
2734 3865 0
2735 3865 0
2736 3865 0
3097 3865 -0.70516692496269695
3098 3865 -0
3099 3865 -0
3100 3865 -0
3101 3865 -0
3102 3865 -0
1567 3866 0
1568 3866 0.016643240039254284
1569 3866 0
1570 3866 0
1571 3866 0
1572 3866 0
1573 3866 -0
1574 3866 -0.016643240039254253
1575 3866 -0
1576 3866 -0
1577 3866 -0
1578 3866 -0
2731 3866 0
2732 3866 0.70516692496269695
2733 3866 0
2734 3866 0
2735 3866 0
2736 3866 0
3097 3866 -0
3098 3866 -0.70516692496269695
3099 3866 -0
3100 3866 -0
3101 3866 -0
3102 3866 -0
1567 3867 0
1568 3867 0
1569 3867 0.016624127736337181
1570 3867 0
1571 3867 0
1572 3867 0
1573 3867 -0
1574 3867 -0
1575 3867 -0.016585933143231667
1576 3867 -0
1577 3867 -0
1578 3867 3.8067926667141391e-05
2731 3867 0
2732 3867 0
2733 3867 0.70516692496269695
2734 3867 0
2735 3867 0
2736 3867 0
3097 3867 -0
3098 3867 -0
3099 3867 -0.70516692496269695
3100 3867 -0
3101 3867 -0
3102 3867 -0
1567 3868 0
1568 3868 0
1569 3868 0
1570 3868 0.49726039206134737
1571 3868 0
1572 3868 0
1573 3868 -0.99668365524927938
1574 3868 0.067678768813813697
1575 3868 -0
1576 3868 -0.49611791657971721
1577 3868 0.067532010077255816
1578 3868 -0
2731 3868 0
2732 3868 0
2733 3868 0
2734 3868 0.70516692496269695
2735 3868 0
2736 3868 0
3097 3868 -0
3098 3868 -0
3099 3868 -0
3100 3868 -0.70516692496269695
3101 3868 -0
3102 3868 -0
1567 3869 0
1568 3869 0
1569 3869 0
1570 3869 0
1571 3869 0.49840543371991375
1572 3869 0
1573 3869 -0.067601049744234934
1574 3869 -0.99553485319114277
1575 3869 -0
1576 3869 -0.067376861357772475
1577 3869 -0.49382500867881207
1578 3869 -0
2731 3869 0
2732 3869 0
2733 3869 0
2734 3869 0
2735 3869 0.70516692496269695
2736 3869 0
3097 3869 -0
3098 3869 -0
3099 3869 -0
3100 3869 -0
3101 3869 -0.70516692496269695
3102 3869 -0
1567 3870 0
1568 3870 0
1569 3870 0
1570 3870 0
1571 3870 0
1572 3870 0.49726039206134764
1573 3870 -0
1574 3870 -0
1575 3870 -0.99668365524927816
1576 3870 -0
1577 3870 -0
1578 3870 -0.49611791657971638
2731 3870 0
2732 3870 0
2733 3870 0
2734 3870 0
2735 3870 0
2736 3870 0.70516692496269695
3097 3870 -0
3098 3870 -0
3099 3870 -0
3100 3870 -0
3101 3870 -0
3102 3870 -0.70516692496269695
1573 3871 0.01662412773633716
1574 3871 0
1575 3871 0
1576 3871 0
1577 3871 0
1578 3871 0
1579 3871 -0.016738711515653665
1580 3871 5.1859358331731552e-06
1581 3871 -0
1582 3871 -0.00011420378000142444
1583 3871 7.763820444667679e-06
1584 3871 -0
2737 3871 0.70516692496269695
2738 3871 0
2739 3871 0
2740 3871 0
2741 3871 0
2742 3871 0
3103 3871 -0.70516692496269695
3104 3871 -0
3105 3871 -0
3106 3871 -0
3107 3871 -0
3108 3871 -0
1573 3872 0
1574 3872 0.016643240039254284
1575 3872 0
1576 3872 0
1577 3872 0
1578 3872 0
1579 3872 -0
1580 3872 -0.016643240039254253
1581 3872 -0
1582 3872 -0
1583 3872 -0
1584 3872 -0
2737 3872 0
2738 3872 0.70516692496269695
2739 3872 0
2740 3872 0
2741 3872 0
2742 3872 0
3103 3872 -0
3104 3872 -0.70516692496269695
3105 3872 -0
3106 3872 -0
3107 3872 -0
3108 3872 -0
1573 3873 0
1574 3873 0
1575 3873 0.016624127736337181
1576 3873 0
1577 3873 0
1578 3873 0
1579 3873 -0
1580 3873 -0
1581 3873 -0.016585933143231667
1582 3873 -0
1583 3873 -0
1584 3873 3.8067926667141391e-05
2737 3873 0
2738 3873 0
2739 3873 0.70516692496269695
2740 3873 0
2741 3873 0
2742 3873 0
3103 3873 -0
3104 3873 -0
3105 3873 -0.70516692496269695
3106 3873 -0
3107 3873 -0
3108 3873 -0
1573 3874 0
1574 3874 0
1575 3874 0
1576 3874 0.49726039206134737
1577 3874 0
1578 3874 0
1579 3874 -0.99668365524927938
1580 3874 0.067678768813813697
1581 3874 -0
1582 3874 -0.49611791657971721
1583 3874 0.067532010077255816
1584 3874 -0
2737 3874 0
2738 3874 0
2739 3874 0
2740 3874 0.70516692496269695
2741 3874 0
2742 3874 0
3103 3874 -0
3104 3874 -0
3105 3874 -0
3106 3874 -0.70516692496269695
3107 3874 -0
3108 3874 -0
1573 3875 0
1574 3875 0
1575 3875 0
1576 3875 0
1577 3875 0.49840543371991375
1578 3875 0
1579 3875 -0.067601049744234934
1580 3875 -0.99553485319114277
1581 3875 -0
1582 3875 -0.067376861357772475
1583 3875 -0.49382500867881207
1584 3875 -0
2737 3875 0
2738 3875 0
2739 3875 0
2740 3875 0
2741 3875 0.70516692496269695
2742 3875 0
3103 3875 -0
3104 3875 -0
3105 3875 -0
3106 3875 -0
3107 3875 -0.70516692496269695
3108 3875 -0
1573 3876 0
1574 3876 0
1575 3876 0
1576 3876 0
1577 3876 0
1578 3876 0.49726039206134764
1579 3876 -0
1580 3876 -0
1581 3876 -0.99668365524927816
1582 3876 -0
1583 3876 -0
1584 3876 -0.49611791657971638
2737 3876 0
2738 3876 0
2739 3876 0
2740 3876 0
2741 3876 0
2742 3876 0.70516692496269695
3103 3876 -0
3104 3876 -0
3105 3876 -0
3106 3876 -0
3107 3876 -0
3108 3876 -0.70516692496269695
715 3877 0.01662412773633716
716 3877 0
717 3877 0
718 3877 0
719 3877 0
720 3877 0
721 3877 -0.016738711515653665
722 3877 5.1859358331731552e-06
723 3877 -0
724 3877 -0.00011420378000142444
725 3877 7.763820444667679e-06
726 3877 -0
1999 3877 0.70516692496269695
2000 3877 0
2001 3877 0
2002 3877 0
2003 3877 0
2004 3877 0
2365 3877 -0.70516692496269695
2366 3877 -0
2367 3877 -0
2368 3877 -0
2369 3877 -0
2370 3877 -0
715 3878 0
716 3878 0.016643240039254284
717 3878 0
718 3878 0
719 3878 0
720 3878 0
721 3878 -0
722 3878 -0.016643240039254253
723 3878 -0
724 3878 -0
725 3878 -0
726 3878 -0
1999 3878 0
2000 3878 0.70516692496269695
2001 3878 0
2002 3878 0
2003 3878 0
2004 3878 0
2365 3878 -0
2366 3878 -0.70516692496269695
2367 3878 -0
2368 3878 -0
2369 3878 -0
2370 3878 -0
715 3879 0
716 3879 0
717 3879 0.016624127736337181
718 3879 0
719 3879 0
720 3879 0
721 3879 -0
722 3879 -0
723 3879 -0.016585933143231667
724 3879 -0
725 3879 -0
726 3879 3.8067926667141391e-05
1999 3879 0
2000 3879 0
2001 3879 0.70516692496269695
2002 3879 0
2003 3879 0
2004 3879 0
2365 3879 -0
2366 3879 -0
2367 3879 -0.70516692496269695
2368 3879 -0
2369 3879 -0
2370 3879 -0
715 3880 0
716 3880 0
717 3880 0
718 3880 0.49726039206134737
719 3880 0
720 3880 0
721 3880 -0.99668365524927938
722 3880 0.067678768813813697
723 3880 -0
724 3880 -0.49611791657971721
725 3880 0.067532010077255816
726 3880 -0
1999 3880 0
2000 3880 0
2001 3880 0
2002 3880 0.70516692496269695
2003 3880 0
2004 3880 0
2365 3880 -0
2366 3880 -0
2367 3880 -0
2368 3880 -0.70516692496269695
2369 3880 -0
2370 3880 -0
715 3881 0
716 3881 0
717 3881 0
718 3881 0
719 3881 0.49840543371991375
720 3881 0
721 3881 -0.067601049744234934
722 3881 -0.99553485319114277
723 3881 -0
724 3881 -0.067376861357772475
725 3881 -0.49382500867881207
726 3881 -0
1999 3881 0
2000 3881 0
2001 3881 0
2002 3881 0
2003 3881 0.70516692496269695
2004 3881 0
2365 3881 -0
2366 3881 -0
2367 3881 -0
2368 3881 -0
2369 3881 -0.70516692496269695
2370 3881 -0
715 3882 0
716 3882 0
717 3882 0
718 3882 0
719 3882 0
720 3882 0.49726039206134764
721 3882 -0
722 3882 -0
723 3882 -0.99668365524927816
724 3882 -0
725 3882 -0
726 3882 -0.49611791657971638
1999 3882 0
2000 3882 0
2001 3882 0
2002 3882 0
2003 3882 0
2004 3882 0.70516692496269695
2365 3882 -0
2366 3882 -0
2367 3882 -0
2368 3882 -0
2369 3882 -0
2370 3882 -0.70516692496269695
721 3883 0.01662412773633716
722 3883 0
723 3883 0
724 3883 0
725 3883 0
726 3883 0
727 3883 -0.016738711515653665
728 3883 5.1859358331731552e-06
729 3883 -0
730 3883 -0.00011420378000142444
731 3883 7.763820444667679e-06
732 3883 -0
2005 3883 0.70516692496269695
2006 3883 0
2007 3883 0
2008 3883 0
2009 3883 0
2010 3883 0
2371 3883 -0.70516692496269695
2372 3883 -0
2373 3883 -0
2374 3883 -0
2375 3883 -0
2376 3883 -0
721 3884 0
722 3884 0.016643240039254284
723 3884 0
724 3884 0
725 3884 0
726 3884 0
727 3884 -0
728 3884 -0.016643240039254253
729 3884 -0
730 3884 -0
731 3884 -0
732 3884 -0
2005 3884 0
2006 3884 0.70516692496269695
2007 3884 0
2008 3884 0
2009 3884 0
2010 3884 0
2371 3884 -0
2372 3884 -0.70516692496269695
2373 3884 -0
2374 3884 -0
2375 3884 -0
2376 3884 -0
721 3885 0
722 3885 0
723 3885 0.016624127736337181
724 3885 0
725 3885 0
726 3885 0
727 3885 -0
728 3885 -0
729 3885 -0.016585933143231667
730 3885 -0
731 3885 -0
732 3885 3.8067926667141391e-05
2005 3885 0
2006 3885 0
2007 3885 0.70516692496269695
2008 3885 0
2009 3885 0
2010 3885 0
2371 3885 -0
2372 3885 -0
2373 3885 -0.70516692496269695
2374 3885 -0
2375 3885 -0
2376 3885 -0
721 3886 0
722 3886 0
723 3886 0
724 3886 0.49726039206134737
725 3886 0
726 3886 0
727 3886 -0.99668365524927938
728 3886 0.067678768813813697
729 3886 -0
730 3886 -0.49611791657971721
731 3886 0.067532010077255816
732 3886 -0
2005 3886 0
2006 3886 0
2007 3886 0
2008 3886 0.70516692496269695
2009 3886 0
2010 3886 0
2371 3886 -0
2372 3886 -0
2373 3886 -0
2374 3886 -0.70516692496269695
2375 3886 -0
2376 3886 -0
721 3887 0
722 3887 0
723 3887 0
724 3887 0
725 3887 0.49840543371991375
726 3887 0
727 3887 -0.067601049744234934
728 3887 -0.99553485319114277
729 3887 -0
730 3887 -0.067376861357772475
731 3887 -0.49382500867881207
732 3887 -0
2005 3887 0
2006 3887 0
2007 3887 0
2008 3887 0
2009 3887 0.70516692496269695
2010 3887 0
2371 3887 -0
2372 3887 -0
2373 3887 -0
2374 3887 -0
2375 3887 -0.70516692496269695
2376 3887 -0
721 3888 0
722 3888 0
723 3888 0
724 3888 0
725 3888 0
726 3888 0.49726039206134764
727 3888 -0
728 3888 -0
729 3888 -0.99668365524927816
730 3888 -0
731 3888 -0
732 3888 -0.49611791657971638
2005 3888 0
2006 3888 0
2007 3888 0
2008 3888 0
2009 3888 0
2010 3888 0.70516692496269695
2371 3888 -0
2372 3888 -0
2373 3888 -0
2374 3888 -0
2375 3888 -0
2376 3888 -0.70516692496269695
1147 3889 0.01662412773633716
1148 3889 0
1149 3889 0
1150 3889 0
1151 3889 0
1152 3889 0
1153 3889 -0.016738711515653665
1154 3889 5.1859358331731552e-06
1155 3889 -0
1156 3889 -0.00011420378000142444
1157 3889 7.763820444667679e-06
1158 3889 -0
2371 3889 0.70516692496269695
2372 3889 0
2373 3889 0
2374 3889 0
2375 3889 0
2376 3889 0
2737 3889 -0.70516692496269695
2738 3889 -0
2739 3889 -0
2740 3889 -0
2741 3889 -0
2742 3889 -0
1147 3890 0
1148 3890 0.016643240039254284
1149 3890 0
1150 3890 0
1151 3890 0
1152 3890 0
1153 3890 -0
1154 3890 -0.016643240039254253
1155 3890 -0
1156 3890 -0
1157 3890 -0
1158 3890 -0
2371 3890 0
2372 3890 0.70516692496269695
2373 3890 0
2374 3890 0
2375 3890 0
2376 3890 0
2737 3890 -0
2738 3890 -0.70516692496269695
2739 3890 -0
2740 3890 -0
2741 3890 -0
2742 3890 -0
1147 3891 0
1148 3891 0
1149 3891 0.016624127736337181
1150 3891 0
1151 3891 0
1152 3891 0
1153 3891 -0
1154 3891 -0
1155 3891 -0.016585933143231667
1156 3891 -0
1157 3891 -0
1158 3891 3.8067926667141391e-05
2371 3891 0
2372 3891 0
2373 3891 0.70516692496269695
2374 3891 0
2375 3891 0
2376 3891 0
2737 3891 -0
2738 3891 -0
2739 3891 -0.70516692496269695
2740 3891 -0
2741 3891 -0
2742 3891 -0
1147 3892 0
1148 3892 0
1149 3892 0
1150 3892 0.49726039206134737
1151 3892 0
1152 3892 0
1153 3892 -0.99668365524927938
1154 3892 0.067678768813813697
1155 3892 -0
1156 3892 -0.49611791657971721
1157 3892 0.067532010077255816
1158 3892 -0
2371 3892 0
2372 3892 0
2373 3892 0
2374 3892 0.70516692496269695
2375 3892 0
2376 3892 0
2737 3892 -0
2738 3892 -0
2739 3892 -0
2740 3892 -0.70516692496269695
2741 3892 -0
2742 3892 -0
1147 3893 0
1148 3893 0
1149 3893 0
1150 3893 0
1151 3893 0.49840543371991375
1152 3893 0
1153 3893 -0.067601049744234934
1154 3893 -0.99553485319114277
1155 3893 -0
1156 3893 -0.067376861357772475
1157 3893 -0.49382500867881207
1158 3893 -0
2371 3893 0
2372 3893 0
2373 3893 0
2374 3893 0
2375 3893 0.70516692496269695
2376 3893 0
2737 3893 -0
2738 3893 -0
2739 3893 -0
2740 3893 -0
2741 3893 -0.70516692496269695
2742 3893 -0
1147 3894 0
1148 3894 0
1149 3894 0
1150 3894 0
1151 3894 0
1152 3894 0.49726039206134764
1153 3894 -0
1154 3894 -0
1155 3894 -0.99668365524927816
1156 3894 -0
1157 3894 -0
1158 3894 -0.49611791657971638
2371 3894 0
2372 3894 0
2373 3894 0
2374 3894 0
2375 3894 0
2376 3894 0.70516692496269695
2737 3894 -0
2738 3894 -0
2739 3894 -0
2740 3894 -0
2741 3894 -0
2742 3894 -0.70516692496269695
1153 3895 0.01662412773633716
1154 3895 0
1155 3895 0
1156 3895 0
1157 3895 0
1158 3895 0
1159 3895 -0.016738711515653665
1160 3895 5.1859358331731552e-06
1161 3895 -0
1162 3895 -0.00011420378000142444
1163 3895 7.763820444667679e-06
1164 3895 -0
2377 3895 0.70516692496269695
2378 3895 0
2379 3895 0
2380 3895 0
2381 3895 0
2382 3895 0
2743 3895 -0.70516692496269695
2744 3895 -0
2745 3895 -0
2746 3895 -0
2747 3895 -0
2748 3895 -0
1153 3896 0
1154 3896 0.016643240039254284
1155 3896 0
1156 3896 0
1157 3896 0
1158 3896 0
1159 3896 -0
1160 3896 -0.016643240039254253
1161 3896 -0
1162 3896 -0
1163 3896 -0
1164 3896 -0
2377 3896 0
2378 3896 0.70516692496269695
2379 3896 0
2380 3896 0
2381 3896 0
2382 3896 0
2743 3896 -0
2744 3896 -0.70516692496269695
2745 3896 -0
2746 3896 -0
2747 3896 -0
2748 3896 -0
1153 3897 0
1154 3897 0
1155 3897 0.016624127736337181
1156 3897 0
1157 3897 0
1158 3897 0
1159 3897 -0
1160 3897 -0
1161 3897 -0.016585933143231667
1162 3897 -0
1163 3897 -0
1164 3897 3.8067926667141391e-05
2377 3897 0
2378 3897 0
2379 3897 0.70516692496269695
2380 3897 0
2381 3897 0
2382 3897 0
2743 3897 -0
2744 3897 -0
2745 3897 -0.70516692496269695
2746 3897 -0
2747 3897 -0
2748 3897 -0
1153 3898 0
1154 3898 0
1155 3898 0
1156 3898 0.49726039206134737
1157 3898 0
1158 3898 0
1159 3898 -0.99668365524927938
1160 3898 0.067678768813813697
1161 3898 -0
1162 3898 -0.49611791657971721
1163 3898 0.067532010077255816
1164 3898 -0
2377 3898 0
2378 3898 0
2379 3898 0
2380 3898 0.70516692496269695
2381 3898 0
2382 3898 0
2743 3898 -0
2744 3898 -0
2745 3898 -0
2746 3898 -0.70516692496269695
2747 3898 -0
2748 3898 -0
1153 3899 0
1154 3899 0
1155 3899 0
1156 3899 0
1157 3899 0.49840543371991375
1158 3899 0
1159 3899 -0.067601049744234934
1160 3899 -0.99553485319114277
1161 3899 -0
1162 3899 -0.067376861357772475
1163 3899 -0.49382500867881207
1164 3899 -0
2377 3899 0
2378 3899 0
2379 3899 0
2380 3899 0
2381 3899 0.70516692496269695
2382 3899 0
2743 3899 -0
2744 3899 -0
2745 3899 -0
2746 3899 -0
2747 3899 -0.70516692496269695
2748 3899 -0
1153 3900 0
1154 3900 0
1155 3900 0
1156 3900 0
1157 3900 0
1158 3900 0.49726039206134764
1159 3900 -0
1160 3900 -0
1161 3900 -0.99668365524927816
1162 3900 -0
1163 3900 -0
1164 3900 -0.49611791657971638
2377 3900 0
2378 3900 0
2379 3900 0
2380 3900 0
2381 3900 0
2382 3900 0.70516692496269695
2743 3900 -0
2744 3900 -0
2745 3900 -0
2746 3900 -0
2747 3900 -0
2748 3900 -0.70516692496269695
295 3901 0.01662412773633716
296 3901 0
297 3901 0
298 3901 0
299 3901 0
300 3901 0
301 3901 -0.016738711515653665
302 3901 5.1859358331731552e-06
303 3901 -0
304 3901 -0.00011420378000142444
305 3901 7.763820444667679e-06
306 3901 -0
2005 3901 -0.70516692496269695
2006 3901 -0
2007 3901 -0
2008 3901 -0
2009 3901 -0
2010 3901 -0
3103 3901 0.70516692496269695
3104 3901 0
3105 3901 0
3106 3901 0
3107 3901 0
3108 3901 0
295 3902 0
296 3902 0.016643240039254284
297 3902 0
298 3902 0
299 3902 0
300 3902 0
301 3902 -0
302 3902 -0.016643240039254253
303 3902 -0
304 3902 -0
305 3902 -0
306 3902 -0
2005 3902 -0
2006 3902 -0.70516692496269695
2007 3902 -0
2008 3902 -0
2009 3902 -0
2010 3902 -0
3103 3902 0
3104 3902 0.70516692496269695
3105 3902 0
3106 3902 0
3107 3902 0
3108 3902 0
295 3903 0
296 3903 0
297 3903 0.016624127736337181
298 3903 0
299 3903 0
300 3903 0
301 3903 -0
302 3903 -0
303 3903 -0.016585933143231667
304 3903 -0
305 3903 -0
306 3903 3.8067926667141391e-05
2005 3903 -0
2006 3903 -0
2007 3903 -0.70516692496269695
2008 3903 -0
2009 3903 -0
2010 3903 -0
3103 3903 0
3104 3903 0
3105 3903 0.70516692496269695
3106 3903 0
3107 3903 0
3108 3903 0
295 3904 0
296 3904 0
297 3904 0
298 3904 0.49726039206134737
299 3904 0
300 3904 0
301 3904 -0.99668365524927938
302 3904 0.067678768813813697
303 3904 -0
304 3904 -0.49611791657971721
305 3904 0.067532010077255816
306 3904 -0
2005 3904 -0
2006 3904 -0
2007 3904 -0
2008 3904 -0.70516692496269695
2009 3904 -0
2010 3904 -0
3103 3904 0
3104 3904 0
3105 3904 0
3106 3904 0.70516692496269695
3107 3904 0
3108 3904 0
295 3905 0
296 3905 0
297 3905 0
298 3905 0
299 3905 0.49840543371991375
300 3905 0
301 3905 -0.067601049744234934
302 3905 -0.99553485319114277
303 3905 -0
304 3905 -0.067376861357772475
305 3905 -0.49382500867881207
306 3905 -0
2005 3905 -0
2006 3905 -0
2007 3905 -0
2008 3905 -0
2009 3905 -0.70516692496269695
2010 3905 -0
3103 3905 0
3104 3905 0
3105 3905 0
3106 3905 0
3107 3905 0.70516692496269695
3108 3905 0
295 3906 0
296 3906 0
297 3906 0
298 3906 0
299 3906 0
300 3906 0.49726039206134764
301 3906 -0
302 3906 -0
303 3906 -0.99668365524927816
304 3906 -0
305 3906 -0
306 3906 -0.49611791657971638
2005 3906 -0
2006 3906 -0
2007 3906 -0
2008 3906 -0
2009 3906 -0
2010 3906 -0.70516692496269695
3103 3906 0
3104 3906 0
3105 3906 0
3106 3906 0
3107 3906 0
3108 3906 0.70516692496269695
301 3907 0.01662412773633716
302 3907 0
303 3907 0
304 3907 0
305 3907 0
306 3907 0
307 3907 -0.016738711515653665
308 3907 5.1859358331731552e-06
309 3907 -0
310 3907 -0.00011420378000142444
311 3907 7.763820444667679e-06
312 3907 -0
2011 3907 -0.70516692496269695
2012 3907 -0
2013 3907 -0
2014 3907 -0
2015 3907 -0
2016 3907 -0
3109 3907 0.70516692496269695
3110 3907 0
3111 3907 0
3112 3907 0
3113 3907 0
3114 3907 0
301 3908 0
302 3908 0.016643240039254284
303 3908 0
304 3908 0
305 3908 0
306 3908 0
307 3908 -0
308 3908 -0.016643240039254253
309 3908 -0
310 3908 -0
311 3908 -0
312 3908 -0
2011 3908 -0
2012 3908 -0.70516692496269695
2013 3908 -0
2014 3908 -0
2015 3908 -0
2016 3908 -0
3109 3908 0
3110 3908 0.70516692496269695
3111 3908 0
3112 3908 0
3113 3908 0
3114 3908 0
301 3909 0
302 3909 0
303 3909 0.016624127736337181
304 3909 0
305 3909 0
306 3909 0
307 3909 -0
308 3909 -0
309 3909 -0.016585933143231667
310 3909 -0
311 3909 -0
312 3909 3.8067926667141391e-05
2011 3909 -0
2012 3909 -0
2013 3909 -0.70516692496269695
2014 3909 -0
2015 3909 -0
2016 3909 -0
3109 3909 0
3110 3909 0
3111 3909 0.70516692496269695
3112 3909 0
3113 3909 0
3114 3909 0
301 3910 0
302 3910 0
303 3910 0
304 3910 0.49726039206134737
305 3910 0
306 3910 0
307 3910 -0.99668365524927938
308 3910 0.067678768813813697
309 3910 -0
310 3910 -0.49611791657971721
311 3910 0.067532010077255816
312 3910 -0
2011 3910 -0
2012 3910 -0
2013 3910 -0
2014 3910 -0.70516692496269695
2015 3910 -0
2016 3910 -0
3109 3910 0
3110 3910 0
3111 3910 0
3112 3910 0.70516692496269695
3113 3910 0
3114 3910 0
301 3911 0
302 3911 0
303 3911 0
304 3911 0
305 3911 0.49840543371991375
306 3911 0
307 3911 -0.067601049744234934
308 3911 -0.99553485319114277
309 3911 -0
310 3911 -0.067376861357772475
311 3911 -0.49382500867881207
312 3911 -0
2011 3911 -0
2012 3911 -0
2013 3911 -0
2014 3911 -0
2015 3911 -0.70516692496269695
2016 3911 -0
3109 3911 0
3110 3911 0
3111 3911 0
3112 3911 0
3113 3911 0.70516692496269695
3114 3911 0
301 3912 0
302 3912 0
303 3912 0
304 3912 0
305 3912 0
306 3912 0.49726039206134764
307 3912 -0
308 3912 -0
309 3912 -0.99668365524927816
310 3912 -0
311 3912 -0
312 3912 -0.49611791657971638
2011 3912 -0
2012 3912 -0
2013 3912 -0
2014 3912 -0
2015 3912 -0
2016 3912 -0.70516692496269695
3109 3912 0
3110 3912 0
3111 3912 0
3112 3912 0
3113 3912 0
3114 3912 0.70516692496269695
727 3913 0.01662412773633716
728 3913 0
729 3913 0
730 3913 0
731 3913 0
732 3913 0
733 3913 -0.016738711515653665
734 3913 5.1859358331731552e-06
735 3913 -0
736 3913 -0.00011420378000142444
737 3913 7.763820444667679e-06
738 3913 -0
2011 3913 0.70516692496269695
2012 3913 0
2013 3913 0
2014 3913 0
2015 3913 0
2016 3913 0
2377 3913 -0.70516692496269695
2378 3913 -0
2379 3913 -0
2380 3913 -0
2381 3913 -0
2382 3913 -0
727 3914 0
728 3914 0.016643240039254284
729 3914 0
730 3914 0
731 3914 0
732 3914 0
733 3914 -0
734 3914 -0.016643240039254253
735 3914 -0
736 3914 -0
737 3914 -0
738 3914 -0
2011 3914 0
2012 3914 0.70516692496269695
2013 3914 0
2014 3914 0
2015 3914 0
2016 3914 0
2377 3914 -0
2378 3914 -0.70516692496269695
2379 3914 -0
2380 3914 -0
2381 3914 -0
2382 3914 -0
727 3915 0
728 3915 0
729 3915 0.016624127736337181
730 3915 0
731 3915 0
732 3915 0
733 3915 -0
734 3915 -0
735 3915 -0.016585933143231667
736 3915 -0
737 3915 -0
738 3915 3.8067926667141391e-05
2011 3915 0
2012 3915 0
2013 3915 0.70516692496269695
2014 3915 0
2015 3915 0
2016 3915 0
2377 3915 -0
2378 3915 -0
2379 3915 -0.70516692496269695
2380 3915 -0
2381 3915 -0
2382 3915 -0
727 3916 0
728 3916 0
729 3916 0
730 3916 0.49726039206134737
731 3916 0
732 3916 0
733 3916 -0.99668365524927938
734 3916 0.067678768813813697
735 3916 -0
736 3916 -0.49611791657971721
737 3916 0.067532010077255816
738 3916 -0
2011 3916 0
2012 3916 0
2013 3916 0
2014 3916 0.70516692496269695
2015 3916 0
2016 3916 0
2377 3916 -0
2378 3916 -0
2379 3916 -0
2380 3916 -0.70516692496269695
2381 3916 -0
2382 3916 -0
727 3917 0
728 3917 0
729 3917 0
730 3917 0
731 3917 0.49840543371991375
732 3917 0
733 3917 -0.067601049744234934
734 3917 -0.99553485319114277
735 3917 -0
736 3917 -0.067376861357772475
737 3917 -0.49382500867881207
738 3917 -0
2011 3917 0
2012 3917 0
2013 3917 0
2014 3917 0
2015 3917 0.70516692496269695
2016 3917 0
2377 3917 -0
2378 3917 -0
2379 3917 -0
2380 3917 -0
2381 3917 -0.70516692496269695
2382 3917 -0
727 3918 0
728 3918 0
729 3918 0
730 3918 0
731 3918 0
732 3918 0.49726039206134764
733 3918 -0
734 3918 -0
735 3918 -0.99668365524927816
736 3918 -0
737 3918 -0
738 3918 -0.49611791657971638
2011 3918 0
2012 3918 0
2013 3918 0
2014 3918 0
2015 3918 0
2016 3918 0.70516692496269695
2377 3918 -0
2378 3918 -0
2379 3918 -0
2380 3918 -0
2381 3918 -0
2382 3918 -0.70516692496269695
733 3919 0.01662412773633716
734 3919 0
735 3919 0
736 3919 0
737 3919 0
738 3919 0
739 3919 -0.016738711515653665
740 3919 5.1859358331731552e-06
741 3919 -0
742 3919 -0.00011420378000142444
743 3919 7.763820444667679e-06
744 3919 -0
2017 3919 0.70516692496269695
2018 3919 0
2019 3919 0
2020 3919 0
2021 3919 0
2022 3919 0
2383 3919 -0.70516692496269695
2384 3919 -0
2385 3919 -0
2386 3919 -0
2387 3919 -0
2388 3919 -0
733 3920 0
734 3920 0.016643240039254284
735 3920 0
736 3920 0
737 3920 0
738 3920 0
739 3920 -0
740 3920 -0.016643240039254253
741 3920 -0
742 3920 -0
743 3920 -0
744 3920 -0
2017 3920 0
2018 3920 0.70516692496269695
2019 3920 0
2020 3920 0
2021 3920 0
2022 3920 0
2383 3920 -0
2384 3920 -0.70516692496269695
2385 3920 -0
2386 3920 -0
2387 3920 -0
2388 3920 -0
733 3921 0
734 3921 0
735 3921 0.016624127736337181
736 3921 0
737 3921 0
738 3921 0
739 3921 -0
740 3921 -0
741 3921 -0.016585933143231667
742 3921 -0
743 3921 -0
744 3921 3.8067926667141391e-05
2017 3921 0
2018 3921 0
2019 3921 0.70516692496269695
2020 3921 0
2021 3921 0
2022 3921 0
2383 3921 -0
2384 3921 -0
2385 3921 -0.70516692496269695
2386 3921 -0
2387 3921 -0
2388 3921 -0
733 3922 0
734 3922 0
735 3922 0
736 3922 0.49726039206134737
737 3922 0
738 3922 0
739 3922 -0.99668365524927938
740 3922 0.067678768813813697
741 3922 -0
742 3922 -0.49611791657971721
743 3922 0.067532010077255816
744 3922 -0
2017 3922 0
2018 3922 0
2019 3922 0
2020 3922 0.70516692496269695
2021 3922 0
2022 3922 0
2383 3922 -0
2384 3922 -0
2385 3922 -0
2386 3922 -0.70516692496269695
2387 3922 -0
2388 3922 -0
733 3923 0
734 3923 0
735 3923 0
736 3923 0
737 3923 0.49840543371991375
738 3923 0
739 3923 -0.067601049744234934
740 3923 -0.99553485319114277
741 3923 -0
742 3923 -0.067376861357772475
743 3923 -0.49382500867881207
744 3923 -0
2017 3923 0
2018 3923 0
2019 3923 0
2020 3923 0
2021 3923 0.70516692496269695
2022 3923 0
2383 3923 -0
2384 3923 -0
2385 3923 -0
2386 3923 -0
2387 3923 -0.70516692496269695
2388 3923 -0
733 3924 0
734 3924 0
735 3924 0
736 3924 0
737 3924 0
738 3924 0.49726039206134764
739 3924 -0
740 3924 -0
741 3924 -0.99668365524927816
742 3924 -0
743 3924 -0
744 3924 -0.49611791657971638
2017 3924 0
2018 3924 0
2019 3924 0
2020 3924 0
2021 3924 0
2022 3924 0.70516692496269695
2383 3924 -0
2384 3924 -0
2385 3924 -0
2386 3924 -0
2387 3924 -0
2388 3924 -0.70516692496269695
1579 3925 0.01662412773633716
1580 3925 0
1581 3925 0
1582 3925 0
1583 3925 0
1584 3925 0
1585 3925 -0.016738711515653665
1586 3925 5.1859358331731552e-06
1587 3925 -0
1588 3925 -0.00011420378000142444
1589 3925 7.763820444667679e-06
1590 3925 -0
2743 3925 0.70516692496269695
2744 3925 0
2745 3925 0
2746 3925 0
2747 3925 0
2748 3925 0
3109 3925 -0.70516692496269695
3110 3925 -0
3111 3925 -0
3112 3925 -0
3113 3925 -0
3114 3925 -0
1579 3926 0
1580 3926 0.016643240039254284
1581 3926 0
1582 3926 0
1583 3926 0
1584 3926 0
1585 3926 -0
1586 3926 -0.016643240039254253
1587 3926 -0
1588 3926 -0
1589 3926 -0
1590 3926 -0
2743 3926 0
2744 3926 0.70516692496269695
2745 3926 0
2746 3926 0
2747 3926 0
2748 3926 0
3109 3926 -0
3110 3926 -0.70516692496269695
3111 3926 -0
3112 3926 -0
3113 3926 -0
3114 3926 -0
1579 3927 0
1580 3927 0
1581 3927 0.016624127736337181
1582 3927 0
1583 3927 0
1584 3927 0
1585 3927 -0
1586 3927 -0
1587 3927 -0.016585933143231667
1588 3927 -0
1589 3927 -0
1590 3927 3.8067926667141391e-05
2743 3927 0
2744 3927 0
2745 3927 0.70516692496269695
2746 3927 0
2747 3927 0
2748 3927 0
3109 3927 -0
3110 3927 -0
3111 3927 -0.70516692496269695
3112 3927 -0
3113 3927 -0
3114 3927 -0
1579 3928 0
1580 3928 0
1581 3928 0
1582 3928 0.49726039206134737
1583 3928 0
1584 3928 0
1585 3928 -0.99668365524927938
1586 3928 0.067678768813813697
1587 3928 -0
1588 3928 -0.49611791657971721
1589 3928 0.067532010077255816
1590 3928 -0
2743 3928 0
2744 3928 0
2745 3928 0
2746 3928 0.70516692496269695
2747 3928 0
2748 3928 0
3109 3928 -0
3110 3928 -0
3111 3928 -0
3112 3928 -0.70516692496269695
3113 3928 -0
3114 3928 -0
1579 3929 0
1580 3929 0
1581 3929 0
1582 3929 0
1583 3929 0.49840543371991375
1584 3929 0
1585 3929 -0.067601049744234934
1586 3929 -0.99553485319114277
1587 3929 -0
1588 3929 -0.067376861357772475
1589 3929 -0.49382500867881207
1590 3929 -0
2743 3929 0
2744 3929 0
2745 3929 0
2746 3929 0
2747 3929 0.70516692496269695
2748 3929 0
3109 3929 -0
3110 3929 -0
3111 3929 -0
3112 3929 -0
3113 3929 -0.70516692496269695
3114 3929 -0
1579 3930 0
1580 3930 0
1581 3930 0
1582 3930 0
1583 3930 0
1584 3930 0.49726039206134764
1585 3930 -0
1586 3930 -0
1587 3930 -0.99668365524927816
1588 3930 -0
1589 3930 -0
1590 3930 -0.49611791657971638
2743 3930 0
2744 3930 0
2745 3930 0
2746 3930 0
2747 3930 0
2748 3930 0.70516692496269695
3109 3930 -0
3110 3930 -0
3111 3930 -0
3112 3930 -0
3113 3930 -0
3114 3930 -0.70516692496269695
1585 3931 0.01662412773633716
1586 3931 0
1587 3931 0
1588 3931 0
1589 3931 0
1590 3931 0
1591 3931 -0.016738711515653665
1592 3931 5.1859358331731552e-06
1593 3931 -0
1594 3931 -0.00011420378000142444
1595 3931 7.763820444667679e-06
1596 3931 -0
2749 3931 0.70516692496269695
2750 3931 0
2751 3931 0
2752 3931 0
2753 3931 0
2754 3931 0
3115 3931 -0.70516692496269695
3116 3931 -0
3117 3931 -0
3118 3931 -0
3119 3931 -0
3120 3931 -0
1585 3932 0
1586 3932 0.016643240039254284
1587 3932 0
1588 3932 0
1589 3932 0
1590 3932 0
1591 3932 -0
1592 3932 -0.016643240039254253
1593 3932 -0
1594 3932 -0
1595 3932 -0
1596 3932 -0
2749 3932 0
2750 3932 0.70516692496269695
2751 3932 0
2752 3932 0
2753 3932 0
2754 3932 0
3115 3932 -0
3116 3932 -0.70516692496269695
3117 3932 -0
3118 3932 -0
3119 3932 -0
3120 3932 -0
1585 3933 0
1586 3933 0
1587 3933 0.016624127736337181
1588 3933 0
1589 3933 0
1590 3933 0
1591 3933 -0
1592 3933 -0
1593 3933 -0.016585933143231667
1594 3933 -0
1595 3933 -0
1596 3933 3.8067926667141391e-05
2749 3933 0
2750 3933 0
2751 3933 0.70516692496269695
2752 3933 0
2753 3933 0
2754 3933 0
3115 3933 -0
3116 3933 -0
3117 3933 -0.70516692496269695
3118 3933 -0
3119 3933 -0
3120 3933 -0
1585 3934 0
1586 3934 0
1587 3934 0
1588 3934 0.49726039206134737
1589 3934 0
1590 3934 0
1591 3934 -0.99668365524927938
1592 3934 0.067678768813813697
1593 3934 -0
1594 3934 -0.49611791657971721
1595 3934 0.067532010077255816
1596 3934 -0
2749 3934 0
2750 3934 0
2751 3934 0
2752 3934 0.70516692496269695
2753 3934 0
2754 3934 0
3115 3934 -0
3116 3934 -0
3117 3934 -0
3118 3934 -0.70516692496269695
3119 3934 -0
3120 3934 -0
1585 3935 0
1586 3935 0
1587 3935 0
1588 3935 0
1589 3935 0.49840543371991375
1590 3935 0
1591 3935 -0.067601049744234934
1592 3935 -0.99553485319114277
1593 3935 -0
1594 3935 -0.067376861357772475
1595 3935 -0.49382500867881207
1596 3935 -0
2749 3935 0
2750 3935 0
2751 3935 0
2752 3935 0
2753 3935 0.70516692496269695
2754 3935 0
3115 3935 -0
3116 3935 -0
3117 3935 -0
3118 3935 -0
3119 3935 -0.70516692496269695
3120 3935 -0
1585 3936 0
1586 3936 0
1587 3936 0
1588 3936 0
1589 3936 0
1590 3936 0.49726039206134764
1591 3936 -0
1592 3936 -0
1593 3936 -0.99668365524927816
1594 3936 -0
1595 3936 -0
1596 3936 -0.49611791657971638
2749 3936 0
2750 3936 0
2751 3936 0
2752 3936 0
2753 3936 0
2754 3936 0.70516692496269695
3115 3936 -0
3116 3936 -0
3117 3936 -0
3118 3936 -0
3119 3936 -0
3120 3936 -0.70516692496269695
307 3937 0.01662412773633716
308 3937 0
309 3937 0
310 3937 0
311 3937 0
312 3937 0
313 3937 -0.016738711515653665
314 3937 5.1859358331731552e-06
315 3937 -0
316 3937 -0.00011420378000142444
317 3937 7.763820444667679e-06
318 3937 -0
2017 3937 -0.70516692496269695
2018 3937 -0
2019 3937 -0
2020 3937 -0
2021 3937 -0
2022 3937 -0
3115 3937 0.70516692496269695
3116 3937 0
3117 3937 0
3118 3937 0
3119 3937 0
3120 3937 0
307 3938 0
308 3938 0.016643240039254284
309 3938 0
310 3938 0
311 3938 0
312 3938 0
313 3938 -0
314 3938 -0.016643240039254253
315 3938 -0
316 3938 -0
317 3938 -0
318 3938 -0
2017 3938 -0
2018 3938 -0.70516692496269695
2019 3938 -0
2020 3938 -0
2021 3938 -0
2022 3938 -0
3115 3938 0
3116 3938 0.70516692496269695
3117 3938 0
3118 3938 0
3119 3938 0
3120 3938 0
307 3939 0
308 3939 0
309 3939 0.016624127736337181
310 3939 0
311 3939 0
312 3939 0
313 3939 -0
314 3939 -0
315 3939 -0.016585933143231667
316 3939 -0
317 3939 -0
318 3939 3.8067926667141391e-05
2017 3939 -0
2018 3939 -0
2019 3939 -0.70516692496269695
2020 3939 -0
2021 3939 -0
2022 3939 -0
3115 3939 0
3116 3939 0
3117 3939 0.70516692496269695
3118 3939 0
3119 3939 0
3120 3939 0
307 3940 0
308 3940 0
309 3940 0
310 3940 0.49726039206134737
311 3940 0
312 3940 0
313 3940 -0.99668365524927938
314 3940 0.067678768813813697
315 3940 -0
316 3940 -0.49611791657971721
317 3940 0.067532010077255816
318 3940 -0
2017 3940 -0
2018 3940 -0
2019 3940 -0
2020 3940 -0.70516692496269695
2021 3940 -0
2022 3940 -0
3115 3940 0
3116 3940 0
3117 3940 0
3118 3940 0.70516692496269695
3119 3940 0
3120 3940 0
307 3941 0
308 3941 0
309 3941 0
310 3941 0
311 3941 0.49840543371991375
312 3941 0
313 3941 -0.067601049744234934
314 3941 -0.99553485319114277
315 3941 -0
316 3941 -0.067376861357772475
317 3941 -0.49382500867881207
318 3941 -0
2017 3941 -0
2018 3941 -0
2019 3941 -0
2020 3941 -0
2021 3941 -0.70516692496269695
2022 3941 -0
3115 3941 0
3116 3941 0
3117 3941 0
3118 3941 0
3119 3941 0.70516692496269695
3120 3941 0
307 3942 0
308 3942 0
309 3942 0
310 3942 0
311 3942 0
312 3942 0.49726039206134764
313 3942 -0
314 3942 -0
315 3942 -0.99668365524927816
316 3942 -0
317 3942 -0
318 3942 -0.49611791657971638
2017 3942 -0
2018 3942 -0
2019 3942 -0
2020 3942 -0
2021 3942 -0
2022 3942 -0.70516692496269695
3115 3942 0
3116 3942 0
3117 3942 0
3118 3942 0
3119 3942 0
3120 3942 0.70516692496269695
313 3943 0.01662412773633716
314 3943 0
315 3943 0
316 3943 0
317 3943 0
318 3943 0
319 3943 -0.016738711515653665
320 3943 5.1859358331731552e-06
321 3943 -0
322 3943 -0.00011420378000142444
323 3943 7.763820444667679e-06
324 3943 -0
2023 3943 -0.70516692496269695
2024 3943 -0
2025 3943 -0
2026 3943 -0
2027 3943 -0
2028 3943 -0
3121 3943 0.70516692496269695
3122 3943 0
3123 3943 0
3124 3943 0
3125 3943 0
3126 3943 0
313 3944 0
314 3944 0.016643240039254284
315 3944 0
316 3944 0
317 3944 0
318 3944 0
319 3944 -0
320 3944 -0.016643240039254253
321 3944 -0
322 3944 -0
323 3944 -0
324 3944 -0
2023 3944 -0
2024 3944 -0.70516692496269695
2025 3944 -0
2026 3944 -0
2027 3944 -0
2028 3944 -0
3121 3944 0
3122 3944 0.70516692496269695
3123 3944 0
3124 3944 0
3125 3944 0
3126 3944 0
313 3945 0
314 3945 0
315 3945 0.016624127736337181
316 3945 0
317 3945 0
318 3945 0
319 3945 -0
320 3945 -0
321 3945 -0.016585933143231667
322 3945 -0
323 3945 -0
324 3945 3.8067926667141391e-05
2023 3945 -0
2024 3945 -0
2025 3945 -0.70516692496269695
2026 3945 -0
2027 3945 -0
2028 3945 -0
3121 3945 0
3122 3945 0
3123 3945 0.70516692496269695
3124 3945 0
3125 3945 0
3126 3945 0
313 3946 0
314 3946 0
315 3946 0
316 3946 0.49726039206134737
317 3946 0
318 3946 0
319 3946 -0.99668365524927938
320 3946 0.067678768813813697
321 3946 -0
322 3946 -0.49611791657971721
323 3946 0.067532010077255816
324 3946 -0
2023 3946 -0
2024 3946 -0
2025 3946 -0
2026 3946 -0.70516692496269695
2027 3946 -0
2028 3946 -0
3121 3946 0
3122 3946 0
3123 3946 0
3124 3946 0.70516692496269695
3125 3946 0
3126 3946 0
313 3947 0
314 3947 0
315 3947 0
316 3947 0
317 3947 0.49840543371991375
318 3947 0
319 3947 -0.067601049744234934
320 3947 -0.99553485319114277
321 3947 -0
322 3947 -0.067376861357772475
323 3947 -0.49382500867881207
324 3947 -0
2023 3947 -0
2024 3947 -0
2025 3947 -0
2026 3947 -0
2027 3947 -0.70516692496269695
2028 3947 -0
3121 3947 0
3122 3947 0
3123 3947 0
3124 3947 0
3125 3947 0.70516692496269695
3126 3947 0
313 3948 0
314 3948 0
315 3948 0
316 3948 0
317 3948 0
318 3948 0.49726039206134764
319 3948 -0
320 3948 -0
321 3948 -0.99668365524927816
322 3948 -0
323 3948 -0
324 3948 -0.49611791657971638
2023 3948 -0
2024 3948 -0
2025 3948 -0
2026 3948 -0
2027 3948 -0
2028 3948 -0.70516692496269695
3121 3948 0
3122 3948 0
3123 3948 0
3124 3948 0
3125 3948 0
3126 3948 0.70516692496269695
1159 3949 0.01662412773633716
1160 3949 0
1161 3949 0
1162 3949 0
1163 3949 0
1164 3949 0
1165 3949 -0.016738711515653665
1166 3949 5.1859358331731552e-06
1167 3949 -0
1168 3949 -0.00011420378000142444
1169 3949 7.763820444667679e-06
1170 3949 -0
2383 3949 0.70516692496269695
2384 3949 0
2385 3949 0
2386 3949 0
2387 3949 0
2388 3949 0
2749 3949 -0.70516692496269695
2750 3949 -0
2751 3949 -0
2752 3949 -0
2753 3949 -0
2754 3949 -0
1159 3950 0
1160 3950 0.016643240039254284
1161 3950 0
1162 3950 0
1163 3950 0
1164 3950 0
1165 3950 -0
1166 3950 -0.016643240039254253
1167 3950 -0
1168 3950 -0
1169 3950 -0
1170 3950 -0
2383 3950 0
2384 3950 0.70516692496269695
2385 3950 0
2386 3950 0
2387 3950 0
2388 3950 0
2749 3950 -0
2750 3950 -0.70516692496269695
2751 3950 -0
2752 3950 -0
2753 3950 -0
2754 3950 -0
1159 3951 0
1160 3951 0
1161 3951 0.016624127736337181
1162 3951 0
1163 3951 0
1164 3951 0
1165 3951 -0
1166 3951 -0
1167 3951 -0.016585933143231667
1168 3951 -0
1169 3951 -0
1170 3951 3.8067926667141391e-05
2383 3951 0
2384 3951 0
2385 3951 0.70516692496269695
2386 3951 0
2387 3951 0
2388 3951 0
2749 3951 -0
2750 3951 -0
2751 3951 -0.70516692496269695
2752 3951 -0
2753 3951 -0
2754 3951 -0
1159 3952 0
1160 3952 0
1161 3952 0
1162 3952 0.49726039206134737
1163 3952 0
1164 3952 0
1165 3952 -0.99668365524927938
1166 3952 0.067678768813813697
1167 3952 -0
1168 3952 -0.49611791657971721
1169 3952 0.067532010077255816
1170 3952 -0
2383 3952 0
2384 3952 0
2385 3952 0
2386 3952 0.70516692496269695
2387 3952 0
2388 3952 0
2749 3952 -0
2750 3952 -0
2751 3952 -0
2752 3952 -0.70516692496269695
2753 3952 -0
2754 3952 -0
1159 3953 0
1160 3953 0
1161 3953 0
1162 3953 0
1163 3953 0.49840543371991375
1164 3953 0
1165 3953 -0.067601049744234934
1166 3953 -0.99553485319114277
1167 3953 -0
1168 3953 -0.067376861357772475
1169 3953 -0.49382500867881207
1170 3953 -0
2383 3953 0
2384 3953 0
2385 3953 0
2386 3953 0
2387 3953 0.70516692496269695
2388 3953 0
2749 3953 -0
2750 3953 -0
2751 3953 -0
2752 3953 -0
2753 3953 -0.70516692496269695
2754 3953 -0
1159 3954 0
1160 3954 0
1161 3954 0
1162 3954 0
1163 3954 0
1164 3954 0.49726039206134764
1165 3954 -0
1166 3954 -0
1167 3954 -0.99668365524927816
1168 3954 -0
1169 3954 -0
1170 3954 -0.49611791657971638
2383 3954 0
2384 3954 0
2385 3954 0
2386 3954 0
2387 3954 0
2388 3954 0.70516692496269695
2749 3954 -0
2750 3954 -0
2751 3954 -0
2752 3954 -0
2753 3954 -0
2754 3954 -0.70516692496269695
1165 3955 0.01662412773633716
1166 3955 0
1167 3955 0
1168 3955 0
1169 3955 0
1170 3955 0
1171 3955 -0.016738711515653665
1172 3955 5.1859358331731552e-06
1173 3955 -0
1174 3955 -0.00011420378000142444
1175 3955 7.763820444667679e-06
1176 3955 -0
2389 3955 0.70516692496269695
2390 3955 0
2391 3955 0
2392 3955 0
2393 3955 0
2394 3955 0
2755 3955 -0.70516692496269695
2756 3955 -0
2757 3955 -0
2758 3955 -0
2759 3955 -0
2760 3955 -0
1165 3956 0
1166 3956 0.016643240039254284
1167 3956 0
1168 3956 0
1169 3956 0
1170 3956 0
1171 3956 -0
1172 3956 -0.016643240039254253
1173 3956 -0
1174 3956 -0
1175 3956 -0
1176 3956 -0
2389 3956 0
2390 3956 0.70516692496269695
2391 3956 0
2392 3956 0
2393 3956 0
2394 3956 0
2755 3956 -0
2756 3956 -0.70516692496269695
2757 3956 -0
2758 3956 -0
2759 3956 -0
2760 3956 -0
1165 3957 0
1166 3957 0
1167 3957 0.016624127736337181
1168 3957 0
1169 3957 0
1170 3957 0
1171 3957 -0
1172 3957 -0
1173 3957 -0.016585933143231667
1174 3957 -0
1175 3957 -0
1176 3957 3.8067926667141391e-05
2389 3957 0
2390 3957 0
2391 3957 0.70516692496269695
2392 3957 0
2393 3957 0
2394 3957 0
2755 3957 -0
2756 3957 -0
2757 3957 -0.70516692496269695
2758 3957 -0
2759 3957 -0
2760 3957 -0
1165 3958 0
1166 3958 0
1167 3958 0
1168 3958 0.49726039206134737
1169 3958 0
1170 3958 0
1171 3958 -0.99668365524927938
1172 3958 0.067678768813813697
1173 3958 -0
1174 3958 -0.49611791657971721
1175 3958 0.067532010077255816
1176 3958 -0
2389 3958 0
2390 3958 0
2391 3958 0
2392 3958 0.70516692496269695
2393 3958 0
2394 3958 0
2755 3958 -0
2756 3958 -0
2757 3958 -0
2758 3958 -0.70516692496269695
2759 3958 -0
2760 3958 -0
1165 3959 0
1166 3959 0
1167 3959 0
1168 3959 0
1169 3959 0.49840543371991375
1170 3959 0
1171 3959 -0.067601049744234934
1172 3959 -0.99553485319114277
1173 3959 -0
1174 3959 -0.067376861357772475
1175 3959 -0.49382500867881207
1176 3959 -0
2389 3959 0
2390 3959 0
2391 3959 0
2392 3959 0
2393 3959 0.70516692496269695
2394 3959 0
2755 3959 -0
2756 3959 -0
2757 3959 -0
2758 3959 -0
2759 3959 -0.70516692496269695
2760 3959 -0
1165 3960 0
1166 3960 0
1167 3960 0
1168 3960 0
1169 3960 0
1170 3960 0.49726039206134764
1171 3960 -0
1172 3960 -0
1173 3960 -0.99668365524927816
1174 3960 -0
1175 3960 -0
1176 3960 -0.49611791657971638
2389 3960 0
2390 3960 0
2391 3960 0
2392 3960 0
2393 3960 0
2394 3960 0.70516692496269695
2755 3960 -0
2756 3960 -0
2757 3960 -0
2758 3960 -0
2759 3960 -0
2760 3960 -0.70516692496269695
1591 3961 0.01662412773633716
1592 3961 0
1593 3961 0
1594 3961 0
1595 3961 0
1596 3961 0
1597 3961 -0.016738711515653665
1598 3961 5.1859358331731552e-06
1599 3961 -0
1600 3961 -0.00011420378000142444
1601 3961 7.763820444667679e-06
1602 3961 -0
2755 3961 0.70516692496269695
2756 3961 0
2757 3961 0
2758 3961 0
2759 3961 0
2760 3961 0
3121 3961 -0.70516692496269695
3122 3961 -0
3123 3961 -0
3124 3961 -0
3125 3961 -0
3126 3961 -0
1591 3962 0
1592 3962 0.016643240039254284
1593 3962 0
1594 3962 0
1595 3962 0
1596 3962 0
1597 3962 -0
1598 3962 -0.016643240039254253
1599 3962 -0
1600 3962 -0
1601 3962 -0
1602 3962 -0
2755 3962 0
2756 3962 0.70516692496269695
2757 3962 0
2758 3962 0
2759 3962 0
2760 3962 0
3121 3962 -0
3122 3962 -0.70516692496269695
3123 3962 -0
3124 3962 -0
3125 3962 -0
3126 3962 -0
1591 3963 0
1592 3963 0
1593 3963 0.016624127736337181
1594 3963 0
1595 3963 0
1596 3963 0
1597 3963 -0
1598 3963 -0
1599 3963 -0.016585933143231667
1600 3963 -0
1601 3963 -0
1602 3963 3.8067926667141391e-05
2755 3963 0
2756 3963 0
2757 3963 0.70516692496269695
2758 3963 0
2759 3963 0
2760 3963 0
3121 3963 -0
3122 3963 -0
3123 3963 -0.70516692496269695
3124 3963 -0
3125 3963 -0
3126 3963 -0
1591 3964 0
1592 3964 0
1593 3964 0
1594 3964 0.49726039206134737
1595 3964 0
1596 3964 0
1597 3964 -0.99668365524927938
1598 3964 0.067678768813813697
1599 3964 -0
1600 3964 -0.49611791657971721
1601 3964 0.067532010077255816
1602 3964 -0
2755 3964 0
2756 3964 0
2757 3964 0
2758 3964 0.70516692496269695
2759 3964 0
2760 3964 0
3121 3964 -0
3122 3964 -0
3123 3964 -0
3124 3964 -0.70516692496269695
3125 3964 -0
3126 3964 -0
1591 3965 0
1592 3965 0
1593 3965 0
1594 3965 0
1595 3965 0.49840543371991375
1596 3965 0
1597 3965 -0.067601049744234934
1598 3965 -0.99553485319114277
1599 3965 -0
1600 3965 -0.067376861357772475
1601 3965 -0.49382500867881207
1602 3965 -0
2755 3965 0
2756 3965 0
2757 3965 0
2758 3965 0
2759 3965 0.70516692496269695
2760 3965 0
3121 3965 -0
3122 3965 -0
3123 3965 -0
3124 3965 -0
3125 3965 -0.70516692496269695
3126 3965 -0
1591 3966 0
1592 3966 0
1593 3966 0
1594 3966 0
1595 3966 0
1596 3966 0.49726039206134764
1597 3966 -0
1598 3966 -0
1599 3966 -0.99668365524927816
1600 3966 -0
1601 3966 -0
1602 3966 -0.49611791657971638
2755 3966 0
2756 3966 0
2757 3966 0
2758 3966 0
2759 3966 0
2760 3966 0.70516692496269695
3121 3966 -0
3122 3966 -0
3123 3966 -0
3124 3966 -0
3125 3966 -0
3126 3966 -0.70516692496269695
1597 3967 0.01662412773633716
1598 3967 0
1599 3967 0
1600 3967 0
1601 3967 0
1602 3967 0
1603 3967 -0.016738711515653665
1604 3967 5.1859358331731552e-06
1605 3967 -0
1606 3967 -0.00011420378000142444
1607 3967 7.763820444667679e-06
1608 3967 -0
2761 3967 0.70516692496269695
2762 3967 0
2763 3967 0
2764 3967 0
2765 3967 0
2766 3967 0
3127 3967 -0.70516692496269695
3128 3967 -0
3129 3967 -0
3130 3967 -0
3131 3967 -0
3132 3967 -0
1597 3968 0
1598 3968 0.016643240039254284
1599 3968 0
1600 3968 0
1601 3968 0
1602 3968 0
1603 3968 -0
1604 3968 -0.016643240039254253
1605 3968 -0
1606 3968 -0
1607 3968 -0
1608 3968 -0
2761 3968 0
2762 3968 0.70516692496269695
2763 3968 0
2764 3968 0
2765 3968 0
2766 3968 0
3127 3968 -0
3128 3968 -0.70516692496269695
3129 3968 -0
3130 3968 -0
3131 3968 -0
3132 3968 -0
1597 3969 0
1598 3969 0
1599 3969 0.016624127736337181
1600 3969 0
1601 3969 0
1602 3969 0
1603 3969 -0
1604 3969 -0
1605 3969 -0.016585933143231667
1606 3969 -0
1607 3969 -0
1608 3969 3.8067926667141391e-05
2761 3969 0
2762 3969 0
2763 3969 0.70516692496269695
2764 3969 0
2765 3969 0
2766 3969 0
3127 3969 -0
3128 3969 -0
3129 3969 -0.70516692496269695
3130 3969 -0
3131 3969 -0
3132 3969 -0
1597 3970 0
1598 3970 0
1599 3970 0
1600 3970 0.49726039206134737
1601 3970 0
1602 3970 0
1603 3970 -0.99668365524927938
1604 3970 0.067678768813813697
1605 3970 -0
1606 3970 -0.49611791657971721
1607 3970 0.067532010077255816
1608 3970 -0
2761 3970 0
2762 3970 0
2763 3970 0
2764 3970 0.70516692496269695
2765 3970 0
2766 3970 0
3127 3970 -0
3128 3970 -0
3129 3970 -0
3130 3970 -0.70516692496269695
3131 3970 -0
3132 3970 -0
1597 3971 0
1598 3971 0
1599 3971 0
1600 3971 0
1601 3971 0.49840543371991375
1602 3971 0
1603 3971 -0.067601049744234934
1604 3971 -0.99553485319114277
1605 3971 -0
1606 3971 -0.067376861357772475
1607 3971 -0.49382500867881207
1608 3971 -0
2761 3971 0
2762 3971 0
2763 3971 0
2764 3971 0
2765 3971 0.70516692496269695
2766 3971 0
3127 3971 -0
3128 3971 -0
3129 3971 -0
3130 3971 -0
3131 3971 -0.70516692496269695
3132 3971 -0
1597 3972 0
1598 3972 0
1599 3972 0
1600 3972 0
1601 3972 0
1602 3972 0.49726039206134764
1603 3972 -0
1604 3972 -0
1605 3972 -0.99668365524927816
1606 3972 -0
1607 3972 -0
1608 3972 -0.49611791657971638
2761 3972 0
2762 3972 0
2763 3972 0
2764 3972 0
2765 3972 0
2766 3972 0.70516692496269695
3127 3972 -0
3128 3972 -0
3129 3972 -0
3130 3972 -0
3131 3972 -0
3132 3972 -0.70516692496269695
739 3973 0.01662412773633716
740 3973 0
741 3973 0
742 3973 0
743 3973 0
744 3973 0
745 3973 -0.016738711515653665
746 3973 5.1859358331731552e-06
747 3973 -0
748 3973 -0.00011420378000142444
749 3973 7.763820444667679e-06
750 3973 -0
2023 3973 0.70516692496269695
2024 3973 0
2025 3973 0
2026 3973 0
2027 3973 0
2028 3973 0
2389 3973 -0.70516692496269695
2390 3973 -0
2391 3973 -0
2392 3973 -0
2393 3973 -0
2394 3973 -0
739 3974 0
740 3974 0.016643240039254284
741 3974 0
742 3974 0
743 3974 0
744 3974 0
745 3974 -0
746 3974 -0.016643240039254253
747 3974 -0
748 3974 -0
749 3974 -0
750 3974 -0
2023 3974 0
2024 3974 0.70516692496269695
2025 3974 0
2026 3974 0
2027 3974 0
2028 3974 0
2389 3974 -0
2390 3974 -0.70516692496269695
2391 3974 -0
2392 3974 -0
2393 3974 -0
2394 3974 -0
739 3975 0
740 3975 0
741 3975 0.016624127736337181
742 3975 0
743 3975 0
744 3975 0
745 3975 -0
746 3975 -0
747 3975 -0.016585933143231667
748 3975 -0
749 3975 -0
750 3975 3.8067926667141391e-05
2023 3975 0
2024 3975 0
2025 3975 0.70516692496269695
2026 3975 0
2027 3975 0
2028 3975 0
2389 3975 -0
2390 3975 -0
2391 3975 -0.70516692496269695
2392 3975 -0
2393 3975 -0
2394 3975 -0
739 3976 0
740 3976 0
741 3976 0
742 3976 0.49726039206134737
743 3976 0
744 3976 0
745 3976 -0.99668365524927938
746 3976 0.067678768813813697
747 3976 -0
748 3976 -0.49611791657971721
749 3976 0.067532010077255816
750 3976 -0
2023 3976 0
2024 3976 0
2025 3976 0
2026 3976 0.70516692496269695
2027 3976 0
2028 3976 0
2389 3976 -0
2390 3976 -0
2391 3976 -0
2392 3976 -0.70516692496269695
2393 3976 -0
2394 3976 -0
739 3977 0
740 3977 0
741 3977 0
742 3977 0
743 3977 0.49840543371991375
744 3977 0
745 3977 -0.067601049744234934
746 3977 -0.99553485319114277
747 3977 -0
748 3977 -0.067376861357772475
749 3977 -0.49382500867881207
750 3977 -0
2023 3977 0
2024 3977 0
2025 3977 0
2026 3977 0
2027 3977 0.70516692496269695
2028 3977 0
2389 3977 -0
2390 3977 -0
2391 3977 -0
2392 3977 -0
2393 3977 -0.70516692496269695
2394 3977 -0
739 3978 0
740 3978 0
741 3978 0
742 3978 0
743 3978 0
744 3978 0.49726039206134764
745 3978 -0
746 3978 -0
747 3978 -0.99668365524927816
748 3978 -0
749 3978 -0
750 3978 -0.49611791657971638
2023 3978 0
2024 3978 0
2025 3978 0
2026 3978 0
2027 3978 0
2028 3978 0.70516692496269695
2389 3978 -0
2390 3978 -0
2391 3978 -0
2392 3978 -0
2393 3978 -0
2394 3978 -0.70516692496269695
745 3979 0.01662412773633716
746 3979 0
747 3979 0
748 3979 0
749 3979 0
750 3979 0
751 3979 -0.016738711515653665
752 3979 5.1859358331731552e-06
753 3979 -0
754 3979 -0.00011420378000142444
755 3979 7.763820444667679e-06
756 3979 -0
2029 3979 0.70516692496269695
2030 3979 0
2031 3979 0
2032 3979 0
2033 3979 0
2034 3979 0
2395 3979 -0.70516692496269695
2396 3979 -0
2397 3979 -0
2398 3979 -0
2399 3979 -0
2400 3979 -0
745 3980 0
746 3980 0.016643240039254284
747 3980 0
748 3980 0
749 3980 0
750 3980 0
751 3980 -0
752 3980 -0.016643240039254253
753 3980 -0
754 3980 -0
755 3980 -0
756 3980 -0
2029 3980 0
2030 3980 0.70516692496269695
2031 3980 0
2032 3980 0
2033 3980 0
2034 3980 0
2395 3980 -0
2396 3980 -0.70516692496269695
2397 3980 -0
2398 3980 -0
2399 3980 -0
2400 3980 -0
745 3981 0
746 3981 0
747 3981 0.016624127736337181
748 3981 0
749 3981 0
750 3981 0
751 3981 -0
752 3981 -0
753 3981 -0.016585933143231667
754 3981 -0
755 3981 -0
756 3981 3.8067926667141391e-05
2029 3981 0
2030 3981 0
2031 3981 0.70516692496269695
2032 3981 0
2033 3981 0
2034 3981 0
2395 3981 -0
2396 3981 -0
2397 3981 -0.70516692496269695
2398 3981 -0
2399 3981 -0
2400 3981 -0
745 3982 0
746 3982 0
747 3982 0
748 3982 0.49726039206134737
749 3982 0
750 3982 0
751 3982 -0.99668365524927938
752 3982 0.067678768813813697
753 3982 -0
754 3982 -0.49611791657971721
755 3982 0.067532010077255816
756 3982 -0
2029 3982 0
2030 3982 0
2031 3982 0
2032 3982 0.70516692496269695
2033 3982 0
2034 3982 0
2395 3982 -0
2396 3982 -0
2397 3982 -0
2398 3982 -0.70516692496269695
2399 3982 -0
2400 3982 -0
745 3983 0
746 3983 0
747 3983 0
748 3983 0
749 3983 0.49840543371991375
750 3983 0
751 3983 -0.067601049744234934
752 3983 -0.99553485319114277
753 3983 -0
754 3983 -0.067376861357772475
755 3983 -0.49382500867881207
756 3983 -0
2029 3983 0
2030 3983 0
2031 3983 0
2032 3983 0
2033 3983 0.70516692496269695
2034 3983 0
2395 3983 -0
2396 3983 -0
2397 3983 -0
2398 3983 -0
2399 3983 -0.70516692496269695
2400 3983 -0
745 3984 0
746 3984 0
747 3984 0
748 3984 0
749 3984 0
750 3984 0.49726039206134764
751 3984 -0
752 3984 -0
753 3984 -0.99668365524927816
754 3984 -0
755 3984 -0
756 3984 -0.49611791657971638
2029 3984 0
2030 3984 0
2031 3984 0
2032 3984 0
2033 3984 0
2034 3984 0.70516692496269695
2395 3984 -0
2396 3984 -0
2397 3984 -0
2398 3984 -0
2399 3984 -0
2400 3984 -0.70516692496269695
1171 3985 0.01662412773633716
1172 3985 0
1173 3985 0
1174 3985 0
1175 3985 0
1176 3985 0
1177 3985 -0.016738711515653665
1178 3985 5.1859358331731552e-06
1179 3985 -0
1180 3985 -0.00011420378000142444
1181 3985 7.763820444667679e-06
1182 3985 -0
2395 3985 0.70516692496269695
2396 3985 0
2397 3985 0
2398 3985 0
2399 3985 0
2400 3985 0
2761 3985 -0.70516692496269695
2762 3985 -0
2763 3985 -0
2764 3985 -0
2765 3985 -0
2766 3985 -0
1171 3986 0
1172 3986 0.016643240039254284
1173 3986 0
1174 3986 0
1175 3986 0
1176 3986 0
1177 3986 -0
1178 3986 -0.016643240039254253
1179 3986 -0
1180 3986 -0
1181 3986 -0
1182 3986 -0
2395 3986 0
2396 3986 0.70516692496269695
2397 3986 0
2398 3986 0
2399 3986 0
2400 3986 0
2761 3986 -0
2762 3986 -0.70516692496269695
2763 3986 -0
2764 3986 -0
2765 3986 -0
2766 3986 -0
1171 3987 0
1172 3987 0
1173 3987 0.016624127736337181
1174 3987 0
1175 3987 0
1176 3987 0
1177 3987 -0
1178 3987 -0
1179 3987 -0.016585933143231667
1180 3987 -0
1181 3987 -0
1182 3987 3.8067926667141391e-05
2395 3987 0
2396 3987 0
2397 3987 0.70516692496269695
2398 3987 0
2399 3987 0
2400 3987 0
2761 3987 -0
2762 3987 -0
2763 3987 -0.70516692496269695
2764 3987 -0
2765 3987 -0
2766 3987 -0
1171 3988 0
1172 3988 0
1173 3988 0
1174 3988 0.49726039206134737
1175 3988 0
1176 3988 0
1177 3988 -0.99668365524927938
1178 3988 0.067678768813813697
1179 3988 -0
1180 3988 -0.49611791657971721
1181 3988 0.067532010077255816
1182 3988 -0
2395 3988 0
2396 3988 0
2397 3988 0
2398 3988 0.70516692496269695
2399 3988 0
2400 3988 0
2761 3988 -0
2762 3988 -0
2763 3988 -0
2764 3988 -0.70516692496269695
2765 3988 -0
2766 3988 -0
1171 3989 0
1172 3989 0
1173 3989 0
1174 3989 0
1175 3989 0.49840543371991375
1176 3989 0
1177 3989 -0.067601049744234934
1178 3989 -0.99553485319114277
1179 3989 -0
1180 3989 -0.067376861357772475
1181 3989 -0.49382500867881207
1182 3989 -0
2395 3989 0
2396 3989 0
2397 3989 0
2398 3989 0
2399 3989 0.70516692496269695
2400 3989 0
2761 3989 -0
2762 3989 -0
2763 3989 -0
2764 3989 -0
2765 3989 -0.70516692496269695
2766 3989 -0
1171 3990 0
1172 3990 0
1173 3990 0
1174 3990 0
1175 3990 0
1176 3990 0.49726039206134764
1177 3990 -0
1178 3990 -0
1179 3990 -0.99668365524927816
1180 3990 -0
1181 3990 -0
1182 3990 -0.49611791657971638
2395 3990 0
2396 3990 0
2397 3990 0
2398 3990 0
2399 3990 0
2400 3990 0.70516692496269695
2761 3990 -0
2762 3990 -0
2763 3990 -0
2764 3990 -0
2765 3990 -0
2766 3990 -0.70516692496269695
1177 3991 0.01662412773633716
1178 3991 0
1179 3991 0
1180 3991 0
1181 3991 0
1182 3991 0
1183 3991 -0.016738711515653665
1184 3991 5.1859358331731552e-06
1185 3991 -0
1186 3991 -0.00011420378000142444
1187 3991 7.763820444667679e-06
1188 3991 -0
2401 3991 0.70516692496269695
2402 3991 0
2403 3991 0
2404 3991 0
2405 3991 0
2406 3991 0
2767 3991 -0.70516692496269695
2768 3991 -0
2769 3991 -0
2770 3991 -0
2771 3991 -0
2772 3991 -0
1177 3992 0
1178 3992 0.016643240039254284
1179 3992 0
1180 3992 0
1181 3992 0
1182 3992 0
1183 3992 -0
1184 3992 -0.016643240039254253
1185 3992 -0
1186 3992 -0
1187 3992 -0
1188 3992 -0
2401 3992 0
2402 3992 0.70516692496269695
2403 3992 0
2404 3992 0
2405 3992 0
2406 3992 0
2767 3992 -0
2768 3992 -0.70516692496269695
2769 3992 -0
2770 3992 -0
2771 3992 -0
2772 3992 -0
1177 3993 0
1178 3993 0
1179 3993 0.016624127736337181
1180 3993 0
1181 3993 0
1182 3993 0
1183 3993 -0
1184 3993 -0
1185 3993 -0.016585933143231667
1186 3993 -0
1187 3993 -0
1188 3993 3.8067926667141391e-05
2401 3993 0
2402 3993 0
2403 3993 0.70516692496269695
2404 3993 0
2405 3993 0
2406 3993 0
2767 3993 -0
2768 3993 -0
2769 3993 -0.70516692496269695
2770 3993 -0
2771 3993 -0
2772 3993 -0
1177 3994 0
1178 3994 0
1179 3994 0
1180 3994 0.49726039206134737
1181 3994 0
1182 3994 0
1183 3994 -0.99668365524927938
1184 3994 0.067678768813813697
1185 3994 -0
1186 3994 -0.49611791657971721
1187 3994 0.067532010077255816
1188 3994 -0
2401 3994 0
2402 3994 0
2403 3994 0
2404 3994 0.70516692496269695
2405 3994 0
2406 3994 0
2767 3994 -0
2768 3994 -0
2769 3994 -0
2770 3994 -0.70516692496269695
2771 3994 -0
2772 3994 -0
1177 3995 0
1178 3995 0
1179 3995 0
1180 3995 0
1181 3995 0.49840543371991375
1182 3995 0
1183 3995 -0.067601049744234934
1184 3995 -0.99553485319114277
1185 3995 -0
1186 3995 -0.067376861357772475
1187 3995 -0.49382500867881207
1188 3995 -0
2401 3995 0
2402 3995 0
2403 3995 0
2404 3995 0
2405 3995 0.70516692496269695
2406 3995 0
2767 3995 -0
2768 3995 -0
2769 3995 -0
2770 3995 -0
2771 3995 -0.70516692496269695
2772 3995 -0
1177 3996 0
1178 3996 0
1179 3996 0
1180 3996 0
1181 3996 0
1182 3996 0.49726039206134764
1183 3996 -0
1184 3996 -0
1185 3996 -0.99668365524927816
1186 3996 -0
1187 3996 -0
1188 3996 -0.49611791657971638
2401 3996 0
2402 3996 0
2403 3996 0
2404 3996 0
2405 3996 0
2406 3996 0.70516692496269695
2767 3996 -0
2768 3996 -0
2769 3996 -0
2770 3996 -0
2771 3996 -0
2772 3996 -0.70516692496269695
319 3997 0.01662412773633716
320 3997 0
321 3997 0
322 3997 0
323 3997 0
324 3997 0
325 3997 -0.016738711515653665
326 3997 5.1859358331731552e-06
327 3997 -0
328 3997 -0.00011420378000142444
329 3997 7.763820444667679e-06
330 3997 -0
2029 3997 -0.70516692496269695
2030 3997 -0
2031 3997 -0
2032 3997 -0
2033 3997 -0
2034 3997 -0
3127 3997 0.70516692496269695
3128 3997 0
3129 3997 0
3130 3997 0
3131 3997 0
3132 3997 0
319 3998 0
320 3998 0.016643240039254284
321 3998 0
322 3998 0
323 3998 0
324 3998 0
325 3998 -0
326 3998 -0.016643240039254253
327 3998 -0
328 3998 -0
329 3998 -0
330 3998 -0
2029 3998 -0
2030 3998 -0.70516692496269695
2031 3998 -0
2032 3998 -0
2033 3998 -0
2034 3998 -0
3127 3998 0
3128 3998 0.70516692496269695
3129 3998 0
3130 3998 0
3131 3998 0
3132 3998 0
319 3999 0
320 3999 0
321 3999 0.016624127736337181
322 3999 0
323 3999 0
324 3999 0
325 3999 -0
326 3999 -0
327 3999 -0.016585933143231667
328 3999 -0
329 3999 -0
330 3999 3.8067926667141391e-05
2029 3999 -0
2030 3999 -0
2031 3999 -0.70516692496269695
2032 3999 -0
2033 3999 -0
2034 3999 -0
3127 3999 0
3128 3999 0
3129 3999 0.70516692496269695
3130 3999 0
3131 3999 0
3132 3999 0
319 4000 0
320 4000 0
321 4000 0
322 4000 0.49726039206134737
323 4000 0
324 4000 0
325 4000 -0.99668365524927938
326 4000 0.067678768813813697
327 4000 -0
328 4000 -0.49611791657971721
329 4000 0.067532010077255816
330 4000 -0
2029 4000 -0
2030 4000 -0
2031 4000 -0
2032 4000 -0.70516692496269695
2033 4000 -0
2034 4000 -0
3127 4000 0
3128 4000 0
3129 4000 0
3130 4000 0.70516692496269695
3131 4000 0
3132 4000 0
319 4001 0
320 4001 0
321 4001 0
322 4001 0
323 4001 0.49840543371991375
324 4001 0
325 4001 -0.067601049744234934
326 4001 -0.99553485319114277
327 4001 -0
328 4001 -0.067376861357772475
329 4001 -0.49382500867881207
330 4001 -0
2029 4001 -0
2030 4001 -0
2031 4001 -0
2032 4001 -0
2033 4001 -0.70516692496269695
2034 4001 -0
3127 4001 0
3128 4001 0
3129 4001 0
3130 4001 0
3131 4001 0.70516692496269695
3132 4001 0
319 4002 0
320 4002 0
321 4002 0
322 4002 0
323 4002 0
324 4002 0.49726039206134764
325 4002 -0
326 4002 -0
327 4002 -0.99668365524927816
328 4002 -0
329 4002 -0
330 4002 -0.49611791657971638
2029 4002 -0
2030 4002 -0
2031 4002 -0
2032 4002 -0
2033 4002 -0
2034 4002 -0.70516692496269695
3127 4002 0
3128 4002 0
3129 4002 0
3130 4002 0
3131 4002 0
3132 4002 0.70516692496269695
325 4003 0.01662412773633716
326 4003 0
327 4003 0
328 4003 0
329 4003 0
330 4003 0
331 4003 -0.016738711515653665
332 4003 5.1859358331731552e-06
333 4003 -0
334 4003 -0.00011420378000142444
335 4003 7.763820444667679e-06
336 4003 -0
2035 4003 -0.70516692496269695
2036 4003 -0
2037 4003 -0
2038 4003 -0
2039 4003 -0
2040 4003 -0
3133 4003 0.70516692496269695
3134 4003 0
3135 4003 0
3136 4003 0
3137 4003 0
3138 4003 0
325 4004 0
326 4004 0.016643240039254284
327 4004 0
328 4004 0
329 4004 0
330 4004 0
331 4004 -0
332 4004 -0.016643240039254253
333 4004 -0
334 4004 -0
335 4004 -0
336 4004 -0
2035 4004 -0
2036 4004 -0.70516692496269695
2037 4004 -0
2038 4004 -0
2039 4004 -0
2040 4004 -0
3133 4004 0
3134 4004 0.70516692496269695
3135 4004 0
3136 4004 0
3137 4004 0
3138 4004 0
325 4005 0
326 4005 0
327 4005 0.016624127736337181
328 4005 0
329 4005 0
330 4005 0
331 4005 -0
332 4005 -0
333 4005 -0.016585933143231667
334 4005 -0
335 4005 -0
336 4005 3.8067926667141391e-05
2035 4005 -0
2036 4005 -0
2037 4005 -0.70516692496269695
2038 4005 -0
2039 4005 -0
2040 4005 -0
3133 4005 0
3134 4005 0
3135 4005 0.70516692496269695
3136 4005 0
3137 4005 0
3138 4005 0
325 4006 0
326 4006 0
327 4006 0
328 4006 0.49726039206134737
329 4006 0
330 4006 0
331 4006 -0.99668365524927938
332 4006 0.067678768813813697
333 4006 -0
334 4006 -0.49611791657971721
335 4006 0.067532010077255816
336 4006 -0
2035 4006 -0
2036 4006 -0
2037 4006 -0
2038 4006 -0.70516692496269695
2039 4006 -0
2040 4006 -0
3133 4006 0
3134 4006 0
3135 4006 0
3136 4006 0.70516692496269695
3137 4006 0
3138 4006 0
325 4007 0
326 4007 0
327 4007 0
328 4007 0
329 4007 0.49840543371991375
330 4007 0
331 4007 -0.067601049744234934
332 4007 -0.99553485319114277
333 4007 -0
334 4007 -0.067376861357772475
335 4007 -0.49382500867881207
336 4007 -0
2035 4007 -0
2036 4007 -0
2037 4007 -0
2038 4007 -0
2039 4007 -0.70516692496269695
2040 4007 -0
3133 4007 0
3134 4007 0
3135 4007 0
3136 4007 0
3137 4007 0.70516692496269695
3138 4007 0
325 4008 0
326 4008 0
327 4008 0
328 4008 0
329 4008 0
330 4008 0.49726039206134764
331 4008 -0
332 4008 -0
333 4008 -0.99668365524927816
334 4008 -0
335 4008 -0
336 4008 -0.49611791657971638
2035 4008 -0
2036 4008 -0
2037 4008 -0
2038 4008 -0
2039 4008 -0
2040 4008 -0.70516692496269695
3133 4008 0
3134 4008 0
3135 4008 0
3136 4008 0
3137 4008 0
3138 4008 0.70516692496269695
751 4009 0.01662412773633716
752 4009 0
753 4009 0
754 4009 0
755 4009 0
756 4009 0
757 4009 -0.016738711515653665
758 4009 5.1859358331731552e-06
759 4009 -0
760 4009 -0.00011420378000142444
761 4009 7.763820444667679e-06
762 4009 -0
2035 4009 0.70516692496269695
2036 4009 0
2037 4009 0
2038 4009 0
2039 4009 0
2040 4009 0
2401 4009 -0.70516692496269695
2402 4009 -0
2403 4009 -0
2404 4009 -0
2405 4009 -0
2406 4009 -0
751 4010 0
752 4010 0.016643240039254284
753 4010 0
754 4010 0
755 4010 0
756 4010 0
757 4010 -0
758 4010 -0.016643240039254253
759 4010 -0
760 4010 -0
761 4010 -0
762 4010 -0
2035 4010 0
2036 4010 0.70516692496269695
2037 4010 0
2038 4010 0
2039 4010 0
2040 4010 0
2401 4010 -0
2402 4010 -0.70516692496269695
2403 4010 -0
2404 4010 -0
2405 4010 -0
2406 4010 -0
751 4011 0
752 4011 0
753 4011 0.016624127736337181
754 4011 0
755 4011 0
756 4011 0
757 4011 -0
758 4011 -0
759 4011 -0.016585933143231667
760 4011 -0
761 4011 -0
762 4011 3.8067926667141391e-05
2035 4011 0
2036 4011 0
2037 4011 0.70516692496269695
2038 4011 0
2039 4011 0
2040 4011 0
2401 4011 -0
2402 4011 -0
2403 4011 -0.70516692496269695
2404 4011 -0
2405 4011 -0
2406 4011 -0
751 4012 0
752 4012 0
753 4012 0
754 4012 0.49726039206134737
755 4012 0
756 4012 0
757 4012 -0.99668365524927938
758 4012 0.067678768813813697
759 4012 -0
760 4012 -0.49611791657971721
761 4012 0.067532010077255816
762 4012 -0
2035 4012 0
2036 4012 0
2037 4012 0
2038 4012 0.70516692496269695
2039 4012 0
2040 4012 0
2401 4012 -0
2402 4012 -0
2403 4012 -0
2404 4012 -0.70516692496269695
2405 4012 -0
2406 4012 -0
751 4013 0
752 4013 0
753 4013 0
754 4013 0
755 4013 0.49840543371991375
756 4013 0
757 4013 -0.067601049744234934
758 4013 -0.99553485319114277
759 4013 -0
760 4013 -0.067376861357772475
761 4013 -0.49382500867881207
762 4013 -0
2035 4013 0
2036 4013 0
2037 4013 0
2038 4013 0
2039 4013 0.70516692496269695
2040 4013 0
2401 4013 -0
2402 4013 -0
2403 4013 -0
2404 4013 -0
2405 4013 -0.70516692496269695
2406 4013 -0
751 4014 0
752 4014 0
753 4014 0
754 4014 0
755 4014 0
756 4014 0.49726039206134764
757 4014 -0
758 4014 -0
759 4014 -0.99668365524927816
760 4014 -0
761 4014 -0
762 4014 -0.49611791657971638
2035 4014 0
2036 4014 0
2037 4014 0
2038 4014 0
2039 4014 0
2040 4014 0.70516692496269695
2401 4014 -0
2402 4014 -0
2403 4014 -0
2404 4014 -0
2405 4014 -0
2406 4014 -0.70516692496269695
757 4015 0.01662412773633716
758 4015 0
759 4015 0
760 4015 0
761 4015 0
762 4015 0
763 4015 -0.016738711515653665
764 4015 5.1859358331731552e-06
765 4015 -0
766 4015 -0.00011420378000142444
767 4015 7.763820444667679e-06
768 4015 -0
2041 4015 0.70516692496269695
2042 4015 0
2043 4015 0
2044 4015 0
2045 4015 0
2046 4015 0
2407 4015 -0.70516692496269695
2408 4015 -0
2409 4015 -0
2410 4015 -0
2411 4015 -0
2412 4015 -0
757 4016 0
758 4016 0.016643240039254284
759 4016 0
760 4016 0
761 4016 0
762 4016 0
763 4016 -0
764 4016 -0.016643240039254253
765 4016 -0
766 4016 -0
767 4016 -0
768 4016 -0
2041 4016 0
2042 4016 0.70516692496269695
2043 4016 0
2044 4016 0
2045 4016 0
2046 4016 0
2407 4016 -0
2408 4016 -0.70516692496269695
2409 4016 -0
2410 4016 -0
2411 4016 -0
2412 4016 -0
757 4017 0
758 4017 0
759 4017 0.016624127736337181
760 4017 0
761 4017 0
762 4017 0
763 4017 -0
764 4017 -0
765 4017 -0.016585933143231667
766 4017 -0
767 4017 -0
768 4017 3.8067926667141391e-05
2041 4017 0
2042 4017 0
2043 4017 0.70516692496269695
2044 4017 0
2045 4017 0
2046 4017 0
2407 4017 -0
2408 4017 -0
2409 4017 -0.70516692496269695
2410 4017 -0
2411 4017 -0
2412 4017 -0
757 4018 0
758 4018 0
759 4018 0
760 4018 0.49726039206134737
761 4018 0
762 4018 0
763 4018 -0.99668365524927938
764 4018 0.067678768813813697
765 4018 -0
766 4018 -0.49611791657971721
767 4018 0.067532010077255816
768 4018 -0
2041 4018 0
2042 4018 0
2043 4018 0
2044 4018 0.70516692496269695
2045 4018 0
2046 4018 0
2407 4018 -0
2408 4018 -0
2409 4018 -0
2410 4018 -0.70516692496269695
2411 4018 -0
2412 4018 -0
757 4019 0
758 4019 0
759 4019 0
760 4019 0
761 4019 0.49840543371991375
762 4019 0
763 4019 -0.067601049744234934
764 4019 -0.99553485319114277
765 4019 -0
766 4019 -0.067376861357772475
767 4019 -0.49382500867881207
768 4019 -0
2041 4019 0
2042 4019 0
2043 4019 0
2044 4019 0
2045 4019 0.70516692496269695
2046 4019 0
2407 4019 -0
2408 4019 -0
2409 4019 -0
2410 4019 -0
2411 4019 -0.70516692496269695
2412 4019 -0
757 4020 0
758 4020 0
759 4020 0
760 4020 0
761 4020 0
762 4020 0.49726039206134764
763 4020 -0
764 4020 -0
765 4020 -0.99668365524927816
766 4020 -0
767 4020 -0
768 4020 -0.49611791657971638
2041 4020 0
2042 4020 0
2043 4020 0
2044 4020 0
2045 4020 0
2046 4020 0.70516692496269695
2407 4020 -0
2408 4020 -0
2409 4020 -0
2410 4020 -0
2411 4020 -0
2412 4020 -0.70516692496269695
1603 4021 0.01662412773633716
1604 4021 0
1605 4021 0
1606 4021 0
1607 4021 0
1608 4021 0
1609 4021 -0.016738711515653665
1610 4021 5.1859358331731552e-06
1611 4021 -0
1612 4021 -0.00011420378000142444
1613 4021 7.763820444667679e-06
1614 4021 -0
2767 4021 0.70516692496269695
2768 4021 0
2769 4021 0
2770 4021 0
2771 4021 0
2772 4021 0
3133 4021 -0.70516692496269695
3134 4021 -0
3135 4021 -0
3136 4021 -0
3137 4021 -0
3138 4021 -0
1603 4022 0
1604 4022 0.016643240039254284
1605 4022 0
1606 4022 0
1607 4022 0
1608 4022 0
1609 4022 -0
1610 4022 -0.016643240039254253
1611 4022 -0
1612 4022 -0
1613 4022 -0
1614 4022 -0
2767 4022 0
2768 4022 0.70516692496269695
2769 4022 0
2770 4022 0
2771 4022 0
2772 4022 0
3133 4022 -0
3134 4022 -0.70516692496269695
3135 4022 -0
3136 4022 -0
3137 4022 -0
3138 4022 -0
1603 4023 0
1604 4023 0
1605 4023 0.016624127736337181
1606 4023 0
1607 4023 0
1608 4023 0
1609 4023 -0
1610 4023 -0
1611 4023 -0.016585933143231667
1612 4023 -0
1613 4023 -0
1614 4023 3.8067926667141391e-05
2767 4023 0
2768 4023 0
2769 4023 0.70516692496269695
2770 4023 0
2771 4023 0
2772 4023 0
3133 4023 -0
3134 4023 -0
3135 4023 -0.70516692496269695
3136 4023 -0
3137 4023 -0
3138 4023 -0
1603 4024 0
1604 4024 0
1605 4024 0
1606 4024 0.49726039206134737
1607 4024 0
1608 4024 0
1609 4024 -0.99668365524927938
1610 4024 0.067678768813813697
1611 4024 -0
1612 4024 -0.49611791657971721
1613 4024 0.067532010077255816
1614 4024 -0
2767 4024 0
2768 4024 0
2769 4024 0
2770 4024 0.70516692496269695
2771 4024 0
2772 4024 0
3133 4024 -0
3134 4024 -0
3135 4024 -0
3136 4024 -0.70516692496269695
3137 4024 -0
3138 4024 -0
1603 4025 0
1604 4025 0
1605 4025 0
1606 4025 0
1607 4025 0.49840543371991375
1608 4025 0
1609 4025 -0.067601049744234934
1610 4025 -0.99553485319114277
1611 4025 -0
1612 4025 -0.067376861357772475
1613 4025 -0.49382500867881207
1614 4025 -0
2767 4025 0
2768 4025 0
2769 4025 0
2770 4025 0
2771 4025 0.70516692496269695
2772 4025 0
3133 4025 -0
3134 4025 -0
3135 4025 -0
3136 4025 -0
3137 4025 -0.70516692496269695
3138 4025 -0
1603 4026 0
1604 4026 0
1605 4026 0
1606 4026 0
1607 4026 0
1608 4026 0.49726039206134764
1609 4026 -0
1610 4026 -0
1611 4026 -0.99668365524927816
1612 4026 -0
1613 4026 -0
1614 4026 -0.49611791657971638
2767 4026 0
2768 4026 0
2769 4026 0
2770 4026 0
2771 4026 0
2772 4026 0.70516692496269695
3133 4026 -0
3134 4026 -0
3135 4026 -0
3136 4026 -0
3137 4026 -0
3138 4026 -0.70516692496269695
1609 4027 0.01662412773633716
1610 4027 0
1611 4027 0
1612 4027 0
1613 4027 0
1614 4027 0
1615 4027 -0.016738711515653665
1616 4027 5.1859358331731552e-06
1617 4027 -0
1618 4027 -0.00011420378000142444
1619 4027 7.763820444667679e-06
1620 4027 -0
2773 4027 0.70516692496269695
2774 4027 0
2775 4027 0
2776 4027 0
2777 4027 0
2778 4027 0
3139 4027 -0.70516692496269695
3140 4027 -0
3141 4027 -0
3142 4027 -0
3143 4027 -0
3144 4027 -0
1609 4028 0
1610 4028 0.016643240039254284
1611 4028 0
1612 4028 0
1613 4028 0
1614 4028 0
1615 4028 -0
1616 4028 -0.016643240039254253
1617 4028 -0
1618 4028 -0
1619 4028 -0
1620 4028 -0
2773 4028 0
2774 4028 0.70516692496269695
2775 4028 0
2776 4028 0
2777 4028 0
2778 4028 0
3139 4028 -0
3140 4028 -0.70516692496269695
3141 4028 -0
3142 4028 -0
3143 4028 -0
3144 4028 -0
1609 4029 0
1610 4029 0
1611 4029 0.016624127736337181
1612 4029 0
1613 4029 0
1614 4029 0
1615 4029 -0
1616 4029 -0
1617 4029 -0.016585933143231667
1618 4029 -0
1619 4029 -0
1620 4029 3.8067926667141391e-05
2773 4029 0
2774 4029 0
2775 4029 0.70516692496269695
2776 4029 0
2777 4029 0
2778 4029 0
3139 4029 -0
3140 4029 -0
3141 4029 -0.70516692496269695
3142 4029 -0
3143 4029 -0
3144 4029 -0
1609 4030 0
1610 4030 0
1611 4030 0
1612 4030 0.49726039206134737
1613 4030 0
1614 4030 0
1615 4030 -0.99668365524927938
1616 4030 0.067678768813813697
1617 4030 -0
1618 4030 -0.49611791657971721
1619 4030 0.067532010077255816
1620 4030 -0
2773 4030 0
2774 4030 0
2775 4030 0
2776 4030 0.70516692496269695
2777 4030 0
2778 4030 0
3139 4030 -0
3140 4030 -0
3141 4030 -0
3142 4030 -0.70516692496269695
3143 4030 -0
3144 4030 -0
1609 4031 0
1610 4031 0
1611 4031 0
1612 4031 0
1613 4031 0.49840543371991375
1614 4031 0
1615 4031 -0.067601049744234934
1616 4031 -0.99553485319114277
1617 4031 -0
1618 4031 -0.067376861357772475
1619 4031 -0.49382500867881207
1620 4031 -0
2773 4031 0
2774 4031 0
2775 4031 0
2776 4031 0
2777 4031 0.70516692496269695
2778 4031 0
3139 4031 -0
3140 4031 -0
3141 4031 -0
3142 4031 -0
3143 4031 -0.70516692496269695
3144 4031 -0
1609 4032 0
1610 4032 0
1611 4032 0
1612 4032 0
1613 4032 0
1614 4032 0.49726039206134764
1615 4032 -0
1616 4032 -0
1617 4032 -0.99668365524927816
1618 4032 -0
1619 4032 -0
1620 4032 -0.49611791657971638
2773 4032 0
2774 4032 0
2775 4032 0
2776 4032 0
2777 4032 0
2778 4032 0.70516692496269695
3139 4032 -0
3140 4032 -0
3141 4032 -0
3142 4032 -0
3143 4032 -0
3144 4032 -0.70516692496269695
331 4033 0.01662412773633716
332 4033 0
333 4033 0
334 4033 0
335 4033 0
336 4033 0
337 4033 -0.016738711515653665
338 4033 5.1859358331731552e-06
339 4033 -0
340 4033 -0.00011420378000142444
341 4033 7.763820444667679e-06
342 4033 -0
2041 4033 -0.70516692496269695
2042 4033 -0
2043 4033 -0
2044 4033 -0
2045 4033 -0
2046 4033 -0
3139 4033 0.70516692496269695
3140 4033 0
3141 4033 0
3142 4033 0
3143 4033 0
3144 4033 0
331 4034 0
332 4034 0.016643240039254284
333 4034 0
334 4034 0
335 4034 0
336 4034 0
337 4034 -0
338 4034 -0.016643240039254253
339 4034 -0
340 4034 -0
341 4034 -0
342 4034 -0
2041 4034 -0
2042 4034 -0.70516692496269695
2043 4034 -0
2044 4034 -0
2045 4034 -0
2046 4034 -0
3139 4034 0
3140 4034 0.70516692496269695
3141 4034 0
3142 4034 0
3143 4034 0
3144 4034 0
331 4035 0
332 4035 0
333 4035 0.016624127736337181
334 4035 0
335 4035 0
336 4035 0
337 4035 -0
338 4035 -0
339 4035 -0.016585933143231667
340 4035 -0
341 4035 -0
342 4035 3.8067926667141391e-05
2041 4035 -0
2042 4035 -0
2043 4035 -0.70516692496269695
2044 4035 -0
2045 4035 -0
2046 4035 -0
3139 4035 0
3140 4035 0
3141 4035 0.70516692496269695
3142 4035 0
3143 4035 0
3144 4035 0
331 4036 0
332 4036 0
333 4036 0
334 4036 0.49726039206134737
335 4036 0
336 4036 0
337 4036 -0.99668365524927938
338 4036 0.067678768813813697
339 4036 -0
340 4036 -0.49611791657971721
341 4036 0.067532010077255816
342 4036 -0
2041 4036 -0
2042 4036 -0
2043 4036 -0
2044 4036 -0.70516692496269695
2045 4036 -0
2046 4036 -0
3139 4036 0
3140 4036 0
3141 4036 0
3142 4036 0.70516692496269695
3143 4036 0
3144 4036 0
331 4037 0
332 4037 0
333 4037 0
334 4037 0
335 4037 0.49840543371991375
336 4037 0
337 4037 -0.067601049744234934
338 4037 -0.99553485319114277
339 4037 -0
340 4037 -0.067376861357772475
341 4037 -0.49382500867881207
342 4037 -0
2041 4037 -0
2042 4037 -0
2043 4037 -0
2044 4037 -0
2045 4037 -0.70516692496269695
2046 4037 -0
3139 4037 0
3140 4037 0
3141 4037 0
3142 4037 0
3143 4037 0.70516692496269695
3144 4037 0
331 4038 0
332 4038 0
333 4038 0
334 4038 0
335 4038 0
336 4038 0.49726039206134764
337 4038 -0
338 4038 -0
339 4038 -0.99668365524927816
340 4038 -0
341 4038 -0
342 4038 -0.49611791657971638
2041 4038 -0
2042 4038 -0
2043 4038 -0
2044 4038 -0
2045 4038 -0
2046 4038 -0.70516692496269695
3139 4038 0
3140 4038 0
3141 4038 0
3142 4038 0
3143 4038 0
3144 4038 0.70516692496269695
337 4039 0.01662412773633716
338 4039 0
339 4039 0
340 4039 0
341 4039 0
342 4039 0
343 4039 -0.016738711515653665
344 4039 5.1859358331731552e-06
345 4039 -0
346 4039 -0.00011420378000142444
347 4039 7.763820444667679e-06
348 4039 -0
2047 4039 -0.70516692496269695
2048 4039 -0
2049 4039 -0
2050 4039 -0
2051 4039 -0
2052 4039 -0
3145 4039 0.70516692496269695
3146 4039 0
3147 4039 0
3148 4039 0
3149 4039 0
3150 4039 0
337 4040 0
338 4040 0.016643240039254284
339 4040 0
340 4040 0
341 4040 0
342 4040 0
343 4040 -0
344 4040 -0.016643240039254253
345 4040 -0
346 4040 -0
347 4040 -0
348 4040 -0
2047 4040 -0
2048 4040 -0.70516692496269695
2049 4040 -0
2050 4040 -0
2051 4040 -0
2052 4040 -0
3145 4040 0
3146 4040 0.70516692496269695
3147 4040 0
3148 4040 0
3149 4040 0
3150 4040 0
337 4041 0
338 4041 0
339 4041 0.016624127736337181
340 4041 0
341 4041 0
342 4041 0
343 4041 -0
344 4041 -0
345 4041 -0.016585933143231667
346 4041 -0
347 4041 -0
348 4041 3.8067926667141391e-05
2047 4041 -0
2048 4041 -0
2049 4041 -0.70516692496269695
2050 4041 -0
2051 4041 -0
2052 4041 -0
3145 4041 0
3146 4041 0
3147 4041 0.70516692496269695
3148 4041 0
3149 4041 0
3150 4041 0
337 4042 0
338 4042 0
339 4042 0
340 4042 0.49726039206134737
341 4042 0
342 4042 0
343 4042 -0.99668365524927938
344 4042 0.067678768813813697
345 4042 -0
346 4042 -0.49611791657971721
347 4042 0.067532010077255816
348 4042 -0
2047 4042 -0
2048 4042 -0
2049 4042 -0
2050 4042 -0.70516692496269695
2051 4042 -0
2052 4042 -0
3145 4042 0
3146 4042 0
3147 4042 0
3148 4042 0.70516692496269695
3149 4042 0
3150 4042 0
337 4043 0
338 4043 0
339 4043 0
340 4043 0
341 4043 0.49840543371991375
342 4043 0
343 4043 -0.067601049744234934
344 4043 -0.99553485319114277
345 4043 -0
346 4043 -0.067376861357772475
347 4043 -0.49382500867881207
348 4043 -0
2047 4043 -0
2048 4043 -0
2049 4043 -0
2050 4043 -0
2051 4043 -0.70516692496269695
2052 4043 -0
3145 4043 0
3146 4043 0
3147 4043 0
3148 4043 0
3149 4043 0.70516692496269695
3150 4043 0
337 4044 0
338 4044 0
339 4044 0
340 4044 0
341 4044 0
342 4044 0.49726039206134764
343 4044 -0
344 4044 -0
345 4044 -0.99668365524927816
346 4044 -0
347 4044 -0
348 4044 -0.49611791657971638
2047 4044 -0
2048 4044 -0
2049 4044 -0
2050 4044 -0
2051 4044 -0
2052 4044 -0.70516692496269695
3145 4044 0
3146 4044 0
3147 4044 0
3148 4044 0
3149 4044 0
3150 4044 0.70516692496269695
1183 4045 0.01662412773633716
1184 4045 0
1185 4045 0
1186 4045 0
1187 4045 0
1188 4045 0
1189 4045 -0.016738711515653665
1190 4045 5.1859358331731552e-06
1191 4045 -0
1192 4045 -0.00011420378000142444
1193 4045 7.763820444667679e-06
1194 4045 -0
2407 4045 0.70516692496269695
2408 4045 0
2409 4045 0
2410 4045 0
2411 4045 0
2412 4045 0
2773 4045 -0.70516692496269695
2774 4045 -0
2775 4045 -0
2776 4045 -0
2777 4045 -0
2778 4045 -0
1183 4046 0
1184 4046 0.016643240039254284
1185 4046 0
1186 4046 0
1187 4046 0
1188 4046 0
1189 4046 -0
1190 4046 -0.016643240039254253
1191 4046 -0
1192 4046 -0
1193 4046 -0
1194 4046 -0
2407 4046 0
2408 4046 0.70516692496269695
2409 4046 0
2410 4046 0
2411 4046 0
2412 4046 0
2773 4046 -0
2774 4046 -0.70516692496269695
2775 4046 -0
2776 4046 -0
2777 4046 -0
2778 4046 -0
1183 4047 0
1184 4047 0
1185 4047 0.016624127736337181
1186 4047 0
1187 4047 0
1188 4047 0
1189 4047 -0
1190 4047 -0
1191 4047 -0.016585933143231667
1192 4047 -0
1193 4047 -0
1194 4047 3.8067926667141391e-05
2407 4047 0
2408 4047 0
2409 4047 0.70516692496269695
2410 4047 0
2411 4047 0
2412 4047 0
2773 4047 -0
2774 4047 -0
2775 4047 -0.70516692496269695
2776 4047 -0
2777 4047 -0
2778 4047 -0
1183 4048 0
1184 4048 0
1185 4048 0
1186 4048 0.49726039206134737
1187 4048 0
1188 4048 0
1189 4048 -0.99668365524927938
1190 4048 0.067678768813813697
1191 4048 -0
1192 4048 -0.49611791657971721
1193 4048 0.067532010077255816
1194 4048 -0
2407 4048 0
2408 4048 0
2409 4048 0
2410 4048 0.70516692496269695
2411 4048 0
2412 4048 0
2773 4048 -0
2774 4048 -0
2775 4048 -0
2776 4048 -0.70516692496269695
2777 4048 -0
2778 4048 -0
1183 4049 0
1184 4049 0
1185 4049 0
1186 4049 0
1187 4049 0.49840543371991375
1188 4049 0
1189 4049 -0.067601049744234934
1190 4049 -0.99553485319114277
1191 4049 -0
1192 4049 -0.067376861357772475
1193 4049 -0.49382500867881207
1194 4049 -0
2407 4049 0
2408 4049 0
2409 4049 0
2410 4049 0
2411 4049 0.70516692496269695
2412 4049 0
2773 4049 -0
2774 4049 -0
2775 4049 -0
2776 4049 -0
2777 4049 -0.70516692496269695
2778 4049 -0
1183 4050 0
1184 4050 0
1185 4050 0
1186 4050 0
1187 4050 0
1188 4050 0.49726039206134764
1189 4050 -0
1190 4050 -0
1191 4050 -0.99668365524927816
1192 4050 -0
1193 4050 -0
1194 4050 -0.49611791657971638
2407 4050 0
2408 4050 0
2409 4050 0
2410 4050 0
2411 4050 0
2412 4050 0.70516692496269695
2773 4050 -0
2774 4050 -0
2775 4050 -0
2776 4050 -0
2777 4050 -0
2778 4050 -0.70516692496269695
1189 4051 0.01662412773633716
1190 4051 0
1191 4051 0
1192 4051 0
1193 4051 0
1194 4051 0
1195 4051 -0.016738711515653665
1196 4051 5.1859358331731552e-06
1197 4051 -0
1198 4051 -0.00011420378000142444
1199 4051 7.763820444667679e-06
1200 4051 -0
2413 4051 0.70516692496269695
2414 4051 0
2415 4051 0
2416 4051 0
2417 4051 0
2418 4051 0
2779 4051 -0.70516692496269695
2780 4051 -0
2781 4051 -0
2782 4051 -0
2783 4051 -0
2784 4051 -0
1189 4052 0
1190 4052 0.016643240039254284
1191 4052 0
1192 4052 0
1193 4052 0
1194 4052 0
1195 4052 -0
1196 4052 -0.016643240039254253
1197 4052 -0
1198 4052 -0
1199 4052 -0
1200 4052 -0
2413 4052 0
2414 4052 0.70516692496269695
2415 4052 0
2416 4052 0
2417 4052 0
2418 4052 0
2779 4052 -0
2780 4052 -0.70516692496269695
2781 4052 -0
2782 4052 -0
2783 4052 -0
2784 4052 -0
1189 4053 0
1190 4053 0
1191 4053 0.016624127736337181
1192 4053 0
1193 4053 0
1194 4053 0
1195 4053 -0
1196 4053 -0
1197 4053 -0.016585933143231667
1198 4053 -0
1199 4053 -0
1200 4053 3.8067926667141391e-05
2413 4053 0
2414 4053 0
2415 4053 0.70516692496269695
2416 4053 0
2417 4053 0
2418 4053 0
2779 4053 -0
2780 4053 -0
2781 4053 -0.70516692496269695
2782 4053 -0
2783 4053 -0
2784 4053 -0
1189 4054 0
1190 4054 0
1191 4054 0
1192 4054 0.49726039206134737
1193 4054 0
1194 4054 0
1195 4054 -0.99668365524927938
1196 4054 0.067678768813813697
1197 4054 -0
1198 4054 -0.49611791657971721
1199 4054 0.067532010077255816
1200 4054 -0
2413 4054 0
2414 4054 0
2415 4054 0
2416 4054 0.70516692496269695
2417 4054 0
2418 4054 0
2779 4054 -0
2780 4054 -0
2781 4054 -0
2782 4054 -0.70516692496269695
2783 4054 -0
2784 4054 -0
1189 4055 0
1190 4055 0
1191 4055 0
1192 4055 0
1193 4055 0.49840543371991375
1194 4055 0
1195 4055 -0.067601049744234934
1196 4055 -0.99553485319114277
1197 4055 -0
1198 4055 -0.067376861357772475
1199 4055 -0.49382500867881207
1200 4055 -0
2413 4055 0
2414 4055 0
2415 4055 0
2416 4055 0
2417 4055 0.70516692496269695
2418 4055 0
2779 4055 -0
2780 4055 -0
2781 4055 -0
2782 4055 -0
2783 4055 -0.70516692496269695
2784 4055 -0
1189 4056 0
1190 4056 0
1191 4056 0
1192 4056 0
1193 4056 0
1194 4056 0.49726039206134764
1195 4056 -0
1196 4056 -0
1197 4056 -0.99668365524927816
1198 4056 -0
1199 4056 -0
1200 4056 -0.49611791657971638
2413 4056 0
2414 4056 0
2415 4056 0
2416 4056 0
2417 4056 0
2418 4056 0.70516692496269695
2779 4056 -0
2780 4056 -0
2781 4056 -0
2782 4056 -0
2783 4056 -0
2784 4056 -0.70516692496269695
1615 4057 0.01662412773633716
1616 4057 0
1617 4057 0
1618 4057 0
1619 4057 0
1620 4057 0
1621 4057 -0.016738711515653665
1622 4057 5.1859358331731552e-06
1623 4057 -0
1624 4057 -0.00011420378000142444
1625 4057 7.763820444667679e-06
1626 4057 -0
2779 4057 0.70516692496269695
2780 4057 0
2781 4057 0
2782 4057 0
2783 4057 0
2784 4057 0
3145 4057 -0.70516692496269695
3146 4057 -0
3147 4057 -0
3148 4057 -0
3149 4057 -0
3150 4057 -0
1615 4058 0
1616 4058 0.016643240039254284
1617 4058 0
1618 4058 0
1619 4058 0
1620 4058 0
1621 4058 -0
1622 4058 -0.016643240039254253
1623 4058 -0
1624 4058 -0
1625 4058 -0
1626 4058 -0
2779 4058 0
2780 4058 0.70516692496269695
2781 4058 0
2782 4058 0
2783 4058 0
2784 4058 0
3145 4058 -0
3146 4058 -0.70516692496269695
3147 4058 -0
3148 4058 -0
3149 4058 -0
3150 4058 -0
1615 4059 0
1616 4059 0
1617 4059 0.016624127736337181
1618 4059 0
1619 4059 0
1620 4059 0
1621 4059 -0
1622 4059 -0
1623 4059 -0.016585933143231667
1624 4059 -0
1625 4059 -0
1626 4059 3.8067926667141391e-05
2779 4059 0
2780 4059 0
2781 4059 0.70516692496269695
2782 4059 0
2783 4059 0
2784 4059 0
3145 4059 -0
3146 4059 -0
3147 4059 -0.70516692496269695
3148 4059 -0
3149 4059 -0
3150 4059 -0
1615 4060 0
1616 4060 0
1617 4060 0
1618 4060 0.49726039206134737
1619 4060 0
1620 4060 0
1621 4060 -0.99668365524927938
1622 4060 0.067678768813813697
1623 4060 -0
1624 4060 -0.49611791657971721
1625 4060 0.067532010077255816
1626 4060 -0
2779 4060 0
2780 4060 0
2781 4060 0
2782 4060 0.70516692496269695
2783 4060 0
2784 4060 0
3145 4060 -0
3146 4060 -0
3147 4060 -0
3148 4060 -0.70516692496269695
3149 4060 -0
3150 4060 -0
1615 4061 0
1616 4061 0
1617 4061 0
1618 4061 0
1619 4061 0.49840543371991375
1620 4061 0
1621 4061 -0.067601049744234934
1622 4061 -0.99553485319114277
1623 4061 -0
1624 4061 -0.067376861357772475
1625 4061 -0.49382500867881207
1626 4061 -0
2779 4061 0
2780 4061 0
2781 4061 0
2782 4061 0
2783 4061 0.70516692496269695
2784 4061 0
3145 4061 -0
3146 4061 -0
3147 4061 -0
3148 4061 -0
3149 4061 -0.70516692496269695
3150 4061 -0
1615 4062 0
1616 4062 0
1617 4062 0
1618 4062 0
1619 4062 0
1620 4062 0.49726039206134764
1621 4062 -0
1622 4062 -0
1623 4062 -0.99668365524927816
1624 4062 -0
1625 4062 -0
1626 4062 -0.49611791657971638
2779 4062 0
2780 4062 0
2781 4062 0
2782 4062 0
2783 4062 0
2784 4062 0.70516692496269695
3145 4062 -0
3146 4062 -0
3147 4062 -0
3148 4062 -0
3149 4062 -0
3150 4062 -0.70516692496269695
1621 4063 0.01662412773633716
1622 4063 0
1623 4063 0
1624 4063 0
1625 4063 0
1626 4063 0
1627 4063 -0.016738711515653665
1628 4063 5.1859358331731552e-06
1629 4063 -0
1630 4063 -0.00011420378000142444
1631 4063 7.763820444667679e-06
1632 4063 -0
2785 4063 0.70516692496269695
2786 4063 0
2787 4063 0
2788 4063 0
2789 4063 0
2790 4063 0
3151 4063 -0.70516692496269695
3152 4063 -0
3153 4063 -0
3154 4063 -0
3155 4063 -0
3156 4063 -0
1621 4064 0
1622 4064 0.016643240039254284
1623 4064 0
1624 4064 0
1625 4064 0
1626 4064 0
1627 4064 -0
1628 4064 -0.016643240039254253
1629 4064 -0
1630 4064 -0
1631 4064 -0
1632 4064 -0
2785 4064 0
2786 4064 0.70516692496269695
2787 4064 0
2788 4064 0
2789 4064 0
2790 4064 0
3151 4064 -0
3152 4064 -0.70516692496269695
3153 4064 -0
3154 4064 -0
3155 4064 -0
3156 4064 -0
1621 4065 0
1622 4065 0
1623 4065 0.016624127736337181
1624 4065 0
1625 4065 0
1626 4065 0
1627 4065 -0
1628 4065 -0
1629 4065 -0.016585933143231667
1630 4065 -0
1631 4065 -0
1632 4065 3.8067926667141391e-05
2785 4065 0
2786 4065 0
2787 4065 0.70516692496269695
2788 4065 0
2789 4065 0
2790 4065 0
3151 4065 -0
3152 4065 -0
3153 4065 -0.70516692496269695
3154 4065 -0
3155 4065 -0
3156 4065 -0
1621 4066 0
1622 4066 0
1623 4066 0
1624 4066 0.49726039206134737
1625 4066 0
1626 4066 0
1627 4066 -0.99668365524927938
1628 4066 0.067678768813813697
1629 4066 -0
1630 4066 -0.49611791657971721
1631 4066 0.067532010077255816
1632 4066 -0
2785 4066 0
2786 4066 0
2787 4066 0
2788 4066 0.70516692496269695
2789 4066 0
2790 4066 0
3151 4066 -0
3152 4066 -0
3153 4066 -0
3154 4066 -0.70516692496269695
3155 4066 -0
3156 4066 -0
1621 4067 0
1622 4067 0
1623 4067 0
1624 4067 0
1625 4067 0.49840543371991375
1626 4067 0
1627 4067 -0.067601049744234934
1628 4067 -0.99553485319114277
1629 4067 -0
1630 4067 -0.067376861357772475
1631 4067 -0.49382500867881207
1632 4067 -0
2785 4067 0
2786 4067 0
2787 4067 0
2788 4067 0
2789 4067 0.70516692496269695
2790 4067 0
3151 4067 -0
3152 4067 -0
3153 4067 -0
3154 4067 -0
3155 4067 -0.70516692496269695
3156 4067 -0
1621 4068 0
1622 4068 0
1623 4068 0
1624 4068 0
1625 4068 0
1626 4068 0.49726039206134764
1627 4068 -0
1628 4068 -0
1629 4068 -0.99668365524927816
1630 4068 -0
1631 4068 -0
1632 4068 -0.49611791657971638
2785 4068 0
2786 4068 0
2787 4068 0
2788 4068 0
2789 4068 0
2790 4068 0.70516692496269695
3151 4068 -0
3152 4068 -0
3153 4068 -0
3154 4068 -0
3155 4068 -0
3156 4068 -0.70516692496269695
763 4069 0.01662412773633716
764 4069 0
765 4069 0
766 4069 0
767 4069 0
768 4069 0
769 4069 -0.016738711515653665
770 4069 5.1859358331731552e-06
771 4069 -0
772 4069 -0.00011420378000142444
773 4069 7.763820444667679e-06
774 4069 -0
2047 4069 0.70516692496269695
2048 4069 0
2049 4069 0
2050 4069 0
2051 4069 0
2052 4069 0
2413 4069 -0.70516692496269695
2414 4069 -0
2415 4069 -0
2416 4069 -0
2417 4069 -0
2418 4069 -0
763 4070 0
764 4070 0.016643240039254284
765 4070 0
766 4070 0
767 4070 0
768 4070 0
769 4070 -0
770 4070 -0.016643240039254253
771 4070 -0
772 4070 -0
773 4070 -0
774 4070 -0
2047 4070 0
2048 4070 0.70516692496269695
2049 4070 0
2050 4070 0
2051 4070 0
2052 4070 0
2413 4070 -0
2414 4070 -0.70516692496269695
2415 4070 -0
2416 4070 -0
2417 4070 -0
2418 4070 -0
763 4071 0
764 4071 0
765 4071 0.016624127736337181
766 4071 0
767 4071 0
768 4071 0
769 4071 -0
770 4071 -0
771 4071 -0.016585933143231667
772 4071 -0
773 4071 -0
774 4071 3.8067926667141391e-05
2047 4071 0
2048 4071 0
2049 4071 0.70516692496269695
2050 4071 0
2051 4071 0
2052 4071 0
2413 4071 -0
2414 4071 -0
2415 4071 -0.70516692496269695
2416 4071 -0
2417 4071 -0
2418 4071 -0
763 4072 0
764 4072 0
765 4072 0
766 4072 0.49726039206134737
767 4072 0
768 4072 0
769 4072 -0.99668365524927938
770 4072 0.067678768813813697
771 4072 -0
772 4072 -0.49611791657971721
773 4072 0.067532010077255816
774 4072 -0
2047 4072 0
2048 4072 0
2049 4072 0
2050 4072 0.70516692496269695
2051 4072 0
2052 4072 0
2413 4072 -0
2414 4072 -0
2415 4072 -0
2416 4072 -0.70516692496269695
2417 4072 -0
2418 4072 -0
763 4073 0
764 4073 0
765 4073 0
766 4073 0
767 4073 0.49840543371991375
768 4073 0
769 4073 -0.067601049744234934
770 4073 -0.99553485319114277
771 4073 -0
772 4073 -0.067376861357772475
773 4073 -0.49382500867881207
774 4073 -0
2047 4073 0
2048 4073 0
2049 4073 0
2050 4073 0
2051 4073 0.70516692496269695
2052 4073 0
2413 4073 -0
2414 4073 -0
2415 4073 -0
2416 4073 -0
2417 4073 -0.70516692496269695
2418 4073 -0
763 4074 0
764 4074 0
765 4074 0
766 4074 0
767 4074 0
768 4074 0.49726039206134764
769 4074 -0
770 4074 -0
771 4074 -0.99668365524927816
772 4074 -0
773 4074 -0
774 4074 -0.49611791657971638
2047 4074 0
2048 4074 0
2049 4074 0
2050 4074 0
2051 4074 0
2052 4074 0.70516692496269695
2413 4074 -0
2414 4074 -0
2415 4074 -0
2416 4074 -0
2417 4074 -0
2418 4074 -0.70516692496269695
769 4075 0.01662412773633716
770 4075 0
771 4075 0
772 4075 0
773 4075 0
774 4075 0
775 4075 -0.016738711515653665
776 4075 5.1859358331731552e-06
777 4075 -0
778 4075 -0.00011420378000142444
779 4075 7.763820444667679e-06
780 4075 -0
2053 4075 0.70516692496269695
2054 4075 0
2055 4075 0
2056 4075 0
2057 4075 0
2058 4075 0
2419 4075 -0.70516692496269695
2420 4075 -0
2421 4075 -0
2422 4075 -0
2423 4075 -0
2424 4075 -0
769 4076 0
770 4076 0.016643240039254284
771 4076 0
772 4076 0
773 4076 0
774 4076 0
775 4076 -0
776 4076 -0.016643240039254253
777 4076 -0
778 4076 -0
779 4076 -0
780 4076 -0
2053 4076 0
2054 4076 0.70516692496269695
2055 4076 0
2056 4076 0
2057 4076 0
2058 4076 0
2419 4076 -0
2420 4076 -0.70516692496269695
2421 4076 -0
2422 4076 -0
2423 4076 -0
2424 4076 -0
769 4077 0
770 4077 0
771 4077 0.016624127736337181
772 4077 0
773 4077 0
774 4077 0
775 4077 -0
776 4077 -0
777 4077 -0.016585933143231667
778 4077 -0
779 4077 -0
780 4077 3.8067926667141391e-05
2053 4077 0
2054 4077 0
2055 4077 0.70516692496269695
2056 4077 0
2057 4077 0
2058 4077 0
2419 4077 -0
2420 4077 -0
2421 4077 -0.70516692496269695
2422 4077 -0
2423 4077 -0
2424 4077 -0
769 4078 0
770 4078 0
771 4078 0
772 4078 0.49726039206134737
773 4078 0
774 4078 0
775 4078 -0.99668365524927938
776 4078 0.067678768813813697
777 4078 -0
778 4078 -0.49611791657971721
779 4078 0.067532010077255816
780 4078 -0
2053 4078 0
2054 4078 0
2055 4078 0
2056 4078 0.70516692496269695
2057 4078 0
2058 4078 0
2419 4078 -0
2420 4078 -0
2421 4078 -0
2422 4078 -0.70516692496269695
2423 4078 -0
2424 4078 -0
769 4079 0
770 4079 0
771 4079 0
772 4079 0
773 4079 0.49840543371991375
774 4079 0
775 4079 -0.067601049744234934
776 4079 -0.99553485319114277
777 4079 -0
778 4079 -0.067376861357772475
779 4079 -0.49382500867881207
780 4079 -0
2053 4079 0
2054 4079 0
2055 4079 0
2056 4079 0
2057 4079 0.70516692496269695
2058 4079 0
2419 4079 -0
2420 4079 -0
2421 4079 -0
2422 4079 -0
2423 4079 -0.70516692496269695
2424 4079 -0
769 4080 0
770 4080 0
771 4080 0
772 4080 0
773 4080 0
774 4080 0.49726039206134764
775 4080 -0
776 4080 -0
777 4080 -0.99668365524927816
778 4080 -0
779 4080 -0
780 4080 -0.49611791657971638
2053 4080 0
2054 4080 0
2055 4080 0
2056 4080 0
2057 4080 0
2058 4080 0.70516692496269695
2419 4080 -0
2420 4080 -0
2421 4080 -0
2422 4080 -0
2423 4080 -0
2424 4080 -0.70516692496269695
1195 4081 0.01662412773633716
1196 4081 0
1197 4081 0
1198 4081 0
1199 4081 0
1200 4081 0
1201 4081 -0.016738711515653665
1202 4081 5.1859358331731552e-06
1203 4081 -0
1204 4081 -0.00011420378000142444
1205 4081 7.763820444667679e-06
1206 4081 -0
2419 4081 0.70516692496269695
2420 4081 0
2421 4081 0
2422 4081 0
2423 4081 0
2424 4081 0
2785 4081 -0.70516692496269695
2786 4081 -0
2787 4081 -0
2788 4081 -0
2789 4081 -0
2790 4081 -0
1195 4082 0
1196 4082 0.016643240039254284
1197 4082 0
1198 4082 0
1199 4082 0
1200 4082 0
1201 4082 -0
1202 4082 -0.016643240039254253
1203 4082 -0
1204 4082 -0
1205 4082 -0
1206 4082 -0
2419 4082 0
2420 4082 0.70516692496269695
2421 4082 0
2422 4082 0
2423 4082 0
2424 4082 0
2785 4082 -0
2786 4082 -0.70516692496269695
2787 4082 -0
2788 4082 -0
2789 4082 -0
2790 4082 -0
1195 4083 0
1196 4083 0
1197 4083 0.016624127736337181
1198 4083 0
1199 4083 0
1200 4083 0
1201 4083 -0
1202 4083 -0
1203 4083 -0.016585933143231667
1204 4083 -0
1205 4083 -0
1206 4083 3.8067926667141391e-05
2419 4083 0
2420 4083 0
2421 4083 0.70516692496269695
2422 4083 0
2423 4083 0
2424 4083 0
2785 4083 -0
2786 4083 -0
2787 4083 -0.70516692496269695
2788 4083 -0
2789 4083 -0
2790 4083 -0
1195 4084 0
1196 4084 0
1197 4084 0
1198 4084 0.49726039206134737
1199 4084 0
1200 4084 0
1201 4084 -0.99668365524927938
1202 4084 0.067678768813813697
1203 4084 -0
1204 4084 -0.49611791657971721
1205 4084 0.067532010077255816
1206 4084 -0
2419 4084 0
2420 4084 0
2421 4084 0
2422 4084 0.70516692496269695
2423 4084 0
2424 4084 0
2785 4084 -0
2786 4084 -0
2787 4084 -0
2788 4084 -0.70516692496269695
2789 4084 -0
2790 4084 -0
1195 4085 0
1196 4085 0
1197 4085 0
1198 4085 0
1199 4085 0.49840543371991375
1200 4085 0
1201 4085 -0.067601049744234934
1202 4085 -0.99553485319114277
1203 4085 -0
1204 4085 -0.067376861357772475
1205 4085 -0.49382500867881207
1206 4085 -0
2419 4085 0
2420 4085 0
2421 4085 0
2422 4085 0
2423 4085 0.70516692496269695
2424 4085 0
2785 4085 -0
2786 4085 -0
2787 4085 -0
2788 4085 -0
2789 4085 -0.70516692496269695
2790 4085 -0
1195 4086 0
1196 4086 0
1197 4086 0
1198 4086 0
1199 4086 0
1200 4086 0.49726039206134764
1201 4086 -0
1202 4086 -0
1203 4086 -0.99668365524927816
1204 4086 -0
1205 4086 -0
1206 4086 -0.49611791657971638
2419 4086 0
2420 4086 0
2421 4086 0
2422 4086 0
2423 4086 0
2424 4086 0.70516692496269695
2785 4086 -0
2786 4086 -0
2787 4086 -0
2788 4086 -0
2789 4086 -0
2790 4086 -0.70516692496269695
1201 4087 0.01662412773633716
1202 4087 0
1203 4087 0
1204 4087 0
1205 4087 0
1206 4087 0
1207 4087 -0.016738711515653665
1208 4087 5.1859358331731552e-06
1209 4087 -0
1210 4087 -0.00011420378000142444
1211 4087 7.763820444667679e-06
1212 4087 -0
2425 4087 0.70516692496269695
2426 4087 0
2427 4087 0
2428 4087 0
2429 4087 0
2430 4087 0
2791 4087 -0.70516692496269695
2792 4087 -0
2793 4087 -0
2794 4087 -0
2795 4087 -0
2796 4087 -0
1201 4088 0
1202 4088 0.016643240039254284
1203 4088 0
1204 4088 0
1205 4088 0
1206 4088 0
1207 4088 -0
1208 4088 -0.016643240039254253
1209 4088 -0
1210 4088 -0
1211 4088 -0
1212 4088 -0
2425 4088 0
2426 4088 0.70516692496269695
2427 4088 0
2428 4088 0
2429 4088 0
2430 4088 0
2791 4088 -0
2792 4088 -0.70516692496269695
2793 4088 -0
2794 4088 -0
2795 4088 -0
2796 4088 -0
1201 4089 0
1202 4089 0
1203 4089 0.016624127736337181
1204 4089 0
1205 4089 0
1206 4089 0
1207 4089 -0
1208 4089 -0
1209 4089 -0.016585933143231667
1210 4089 -0
1211 4089 -0
1212 4089 3.8067926667141391e-05
2425 4089 0
2426 4089 0
2427 4089 0.70516692496269695
2428 4089 0
2429 4089 0
2430 4089 0
2791 4089 -0
2792 4089 -0
2793 4089 -0.70516692496269695
2794 4089 -0
2795 4089 -0
2796 4089 -0
1201 4090 0
1202 4090 0
1203 4090 0
1204 4090 0.49726039206134737
1205 4090 0
1206 4090 0
1207 4090 -0.99668365524927938
1208 4090 0.067678768813813697
1209 4090 -0
1210 4090 -0.49611791657971721
1211 4090 0.067532010077255816
1212 4090 -0
2425 4090 0
2426 4090 0
2427 4090 0
2428 4090 0.70516692496269695
2429 4090 0
2430 4090 0
2791 4090 -0
2792 4090 -0
2793 4090 -0
2794 4090 -0.70516692496269695
2795 4090 -0
2796 4090 -0
1201 4091 0
1202 4091 0
1203 4091 0
1204 4091 0
1205 4091 0.49840543371991375
1206 4091 0
1207 4091 -0.067601049744234934
1208 4091 -0.99553485319114277
1209 4091 -0
1210 4091 -0.067376861357772475
1211 4091 -0.49382500867881207
1212 4091 -0
2425 4091 0
2426 4091 0
2427 4091 0
2428 4091 0
2429 4091 0.70516692496269695
2430 4091 0
2791 4091 -0
2792 4091 -0
2793 4091 -0
2794 4091 -0
2795 4091 -0.70516692496269695
2796 4091 -0
1201 4092 0
1202 4092 0
1203 4092 0
1204 4092 0
1205 4092 0
1206 4092 0.49726039206134764
1207 4092 -0
1208 4092 -0
1209 4092 -0.99668365524927816
1210 4092 -0
1211 4092 -0
1212 4092 -0.49611791657971638
2425 4092 0
2426 4092 0
2427 4092 0
2428 4092 0
2429 4092 0
2430 4092 0.70516692496269695
2791 4092 -0
2792 4092 -0
2793 4092 -0
2794 4092 -0
2795 4092 -0
2796 4092 -0.70516692496269695
343 4093 0.01662412773633716
344 4093 0
345 4093 0
346 4093 0
347 4093 0
348 4093 0
349 4093 -0.016738711515653665
350 4093 5.1859358331731552e-06
351 4093 -0
352 4093 -0.00011420378000142444
353 4093 7.763820444667679e-06
354 4093 -0
2053 4093 -0.70516692496269695
2054 4093 -0
2055 4093 -0
2056 4093 -0
2057 4093 -0
2058 4093 -0
3151 4093 0.70516692496269695
3152 4093 0
3153 4093 0
3154 4093 0
3155 4093 0
3156 4093 0
343 4094 0
344 4094 0.016643240039254284
345 4094 0
346 4094 0
347 4094 0
348 4094 0
349 4094 -0
350 4094 -0.016643240039254253
351 4094 -0
352 4094 -0
353 4094 -0
354 4094 -0
2053 4094 -0
2054 4094 -0.70516692496269695
2055 4094 -0
2056 4094 -0
2057 4094 -0
2058 4094 -0
3151 4094 0
3152 4094 0.70516692496269695
3153 4094 0
3154 4094 0
3155 4094 0
3156 4094 0
343 4095 0
344 4095 0
345 4095 0.016624127736337181
346 4095 0
347 4095 0
348 4095 0
349 4095 -0
350 4095 -0
351 4095 -0.016585933143231667
352 4095 -0
353 4095 -0
354 4095 3.8067926667141391e-05
2053 4095 -0
2054 4095 -0
2055 4095 -0.70516692496269695
2056 4095 -0
2057 4095 -0
2058 4095 -0
3151 4095 0
3152 4095 0
3153 4095 0.70516692496269695
3154 4095 0
3155 4095 0
3156 4095 0
343 4096 0
344 4096 0
345 4096 0
346 4096 0.49726039206134737
347 4096 0
348 4096 0
349 4096 -0.99668365524927938
350 4096 0.067678768813813697
351 4096 -0
352 4096 -0.49611791657971721
353 4096 0.067532010077255816
354 4096 -0
2053 4096 -0
2054 4096 -0
2055 4096 -0
2056 4096 -0.70516692496269695
2057 4096 -0
2058 4096 -0
3151 4096 0
3152 4096 0
3153 4096 0
3154 4096 0.70516692496269695
3155 4096 0
3156 4096 0
343 4097 0
344 4097 0
345 4097 0
346 4097 0
347 4097 0.49840543371991375
348 4097 0
349 4097 -0.067601049744234934
350 4097 -0.99553485319114277
351 4097 -0
352 4097 -0.067376861357772475
353 4097 -0.49382500867881207
354 4097 -0
2053 4097 -0
2054 4097 -0
2055 4097 -0
2056 4097 -0
2057 4097 -0.70516692496269695
2058 4097 -0
3151 4097 0
3152 4097 0
3153 4097 0
3154 4097 0
3155 4097 0.70516692496269695
3156 4097 0
343 4098 0
344 4098 0
345 4098 0
346 4098 0
347 4098 0
348 4098 0.49726039206134764
349 4098 -0
350 4098 -0
351 4098 -0.99668365524927816
352 4098 -0
353 4098 -0
354 4098 -0.49611791657971638
2053 4098 -0
2054 4098 -0
2055 4098 -0
2056 4098 -0
2057 4098 -0
2058 4098 -0.70516692496269695
3151 4098 0
3152 4098 0
3153 4098 0
3154 4098 0
3155 4098 0
3156 4098 0.70516692496269695
349 4099 0.01662412773633716
350 4099 0
351 4099 0
352 4099 0
353 4099 0
354 4099 0
355 4099 -0.016738711515653665
356 4099 5.1859358331731552e-06
357 4099 -0
358 4099 -0.00011420378000142444
359 4099 7.763820444667679e-06
360 4099 -0
2059 4099 -0.70516692496269695
2060 4099 -0
2061 4099 -0
2062 4099 -0
2063 4099 -0
2064 4099 -0
3157 4099 0.70516692496269695
3158 4099 0
3159 4099 0
3160 4099 0
3161 4099 0
3162 4099 0
349 4100 0
350 4100 0.016643240039254284
351 4100 0
352 4100 0
353 4100 0
354 4100 0
355 4100 -0
356 4100 -0.016643240039254253
357 4100 -0
358 4100 -0
359 4100 -0
360 4100 -0
2059 4100 -0
2060 4100 -0.70516692496269695
2061 4100 -0
2062 4100 -0
2063 4100 -0
2064 4100 -0
3157 4100 0
3158 4100 0.70516692496269695
3159 4100 0
3160 4100 0
3161 4100 0
3162 4100 0
349 4101 0
350 4101 0
351 4101 0.016624127736337181
352 4101 0
353 4101 0
354 4101 0
355 4101 -0
356 4101 -0
357 4101 -0.016585933143231667
358 4101 -0
359 4101 -0
360 4101 3.8067926667141391e-05
2059 4101 -0
2060 4101 -0
2061 4101 -0.70516692496269695
2062 4101 -0
2063 4101 -0
2064 4101 -0
3157 4101 0
3158 4101 0
3159 4101 0.70516692496269695
3160 4101 0
3161 4101 0
3162 4101 0
349 4102 0
350 4102 0
351 4102 0
352 4102 0.49726039206134737
353 4102 0
354 4102 0
355 4102 -0.99668365524927938
356 4102 0.067678768813813697
357 4102 -0
358 4102 -0.49611791657971721
359 4102 0.067532010077255816
360 4102 -0
2059 4102 -0
2060 4102 -0
2061 4102 -0
2062 4102 -0.70516692496269695
2063 4102 -0
2064 4102 -0
3157 4102 0
3158 4102 0
3159 4102 0
3160 4102 0.70516692496269695
3161 4102 0
3162 4102 0
349 4103 0
350 4103 0
351 4103 0
352 4103 0
353 4103 0.49840543371991375
354 4103 0
355 4103 -0.067601049744234934
356 4103 -0.99553485319114277
357 4103 -0
358 4103 -0.067376861357772475
359 4103 -0.49382500867881207
360 4103 -0
2059 4103 -0
2060 4103 -0
2061 4103 -0
2062 4103 -0
2063 4103 -0.70516692496269695
2064 4103 -0
3157 4103 0
3158 4103 0
3159 4103 0
3160 4103 0
3161 4103 0.70516692496269695
3162 4103 0
349 4104 0
350 4104 0
351 4104 0
352 4104 0
353 4104 0
354 4104 0.49726039206134764
355 4104 -0
356 4104 -0
357 4104 -0.99668365524927816
358 4104 -0
359 4104 -0
360 4104 -0.49611791657971638
2059 4104 -0
2060 4104 -0
2061 4104 -0
2062 4104 -0
2063 4104 -0
2064 4104 -0.70516692496269695
3157 4104 0
3158 4104 0
3159 4104 0
3160 4104 0
3161 4104 0
3162 4104 0.70516692496269695
355 4105 0.023574741168151871
356 4105 0
357 4105 0
358 4105 0
359 4105 0
360 4105 0
2065 4105 -1
2066 4105 -0
2067 4105 -0
2068 4105 -0
2069 4105 -0
2070 4105 -0
3163 4105 1
3164 4105 0
3165 4105 0
3166 4105 0
3167 4105 0
3168 4105 0
355 4106 0
356 4106 0.023601844400366209
357 4106 0
358 4106 0
359 4106 0
360 4106 0
2065 4106 -0
2066 4106 -1
2067 4106 -0
2068 4106 -0
2069 4106 -0
2070 4106 -0
3163 4106 0
3164 4106 1
3165 4106 0
3166 4106 0
3167 4106 0
3168 4106 0
355 4107 0
356 4107 0
357 4107 0.023574741168151902
358 4107 0
359 4107 0
360 4107 0
2065 4107 -0
2066 4107 -0
2067 4107 -1
2068 4107 -0
2069 4107 -0
2070 4107 -0
3163 4107 0
3164 4107 0
3165 4107 1
3166 4107 0
3167 4107 0
3168 4107 0
355 4108 0
356 4108 0
357 4108 0
358 4108 0.70516692496269873
359 4108 0
360 4108 0
2065 4108 -0
2066 4108 -0
2067 4108 -0
2068 4108 -1
2069 4108 -0
2070 4108 -0
3163 4108 0
3164 4108 0
3165 4108 0
3166 4108 1
3167 4108 0
3168 4108 0
355 4109 0
356 4109 0
357 4109 0
358 4109 0
359 4109 0.70679071305886754
360 4109 0
2065 4109 -0
2066 4109 -0
2067 4109 -0
2068 4109 -0
2069 4109 -1
2070 4109 -0
3163 4109 0
3164 4109 0
3165 4109 0
3166 4109 0
3167 4109 1
3168 4109 0
355 4110 0
356 4110 0
357 4110 0
358 4110 0
359 4110 0
360 4110 0.70516692496269895
2065 4110 -0
2066 4110 -0
2067 4110 -0
2068 4110 -0
2069 4110 -0
2070 4110 -1
3163 4110 0
3164 4110 0
3165 4110 0
3166 4110 0
3167 4110 0
3168 4110 1
1207 4111 0.023574741168151871
1208 4111 0
1209 4111 0
1210 4111 0
1211 4111 0
1212 4111 0
2431 4111 1
2432 4111 0
2433 4111 0
2434 4111 0
2435 4111 0
2436 4111 0
2797 4111 -1
2798 4111 -0
2799 4111 -0
2800 4111 -0
2801 4111 -0
2802 4111 -0
1207 4112 0
1208 4112 0.023601844400366209
1209 4112 0
1210 4112 0
1211 4112 0
1212 4112 0
2431 4112 0
2432 4112 1
2433 4112 0
2434 4112 0
2435 4112 0
2436 4112 0
2797 4112 -0
2798 4112 -1
2799 4112 -0
2800 4112 -0
2801 4112 -0
2802 4112 -0
1207 4113 0
1208 4113 0
1209 4113 0.023574741168151902
1210 4113 0
1211 4113 0
1212 4113 0
2431 4113 0
2432 4113 0
2433 4113 1
2434 4113 0
2435 4113 0
2436 4113 0
2797 4113 -0
2798 4113 -0
2799 4113 -1
2800 4113 -0
2801 4113 -0
2802 4113 -0
1207 4114 0
1208 4114 0
1209 4114 0
1210 4114 0.70516692496269873
1211 4114 0
1212 4114 0
2431 4114 0
2432 4114 0
2433 4114 0
2434 4114 1
2435 4114 0
2436 4114 0
2797 4114 -0
2798 4114 -0
2799 4114 -0
2800 4114 -1
2801 4114 -0
2802 4114 -0
1207 4115 0
1208 4115 0
1209 4115 0
1210 4115 0
1211 4115 0.70679071305886754
1212 4115 0
2431 4115 0
2432 4115 0
2433 4115 0
2434 4115 0
2435 4115 1
2436 4115 0
2797 4115 -0
2798 4115 -0
2799 4115 -0
2800 4115 -0
2801 4115 -1
2802 4115 -0
1207 4116 0
1208 4116 0
1209 4116 0
1210 4116 0
1211 4116 0
1212 4116 0.70516692496269895
2431 4116 0
2432 4116 0
2433 4116 0
2434 4116 0
2435 4116 0
2436 4116 1
2797 4116 -0
2798 4116 -0
2799 4116 -0
2800 4116 -0
2801 4116 -0
2802 4116 -1
1627 4117 0.01662412773633716
1628 4117 0
1629 4117 0
1630 4117 0
1631 4117 0
1632 4117 0
1633 4117 -0.016738711515653665
1634 4117 5.1859358331731552e-06
1635 4117 -0
1636 4117 -0.00011420378000142444
1637 4117 7.763820444667679e-06
1638 4117 -0
2791 4117 0.70516692496269695
2792 4117 0
2793 4117 0
2794 4117 0
2795 4117 0
2796 4117 0
3157 4117 -0.70516692496269695
3158 4117 -0
3159 4117 -0
3160 4117 -0
3161 4117 -0
3162 4117 -0
1627 4118 0
1628 4118 0.016643240039254284
1629 4118 0
1630 4118 0
1631 4118 0
1632 4118 0
1633 4118 -0
1634 4118 -0.016643240039254253
1635 4118 -0
1636 4118 -0
1637 4118 -0
1638 4118 -0
2791 4118 0
2792 4118 0.70516692496269695
2793 4118 0
2794 4118 0
2795 4118 0
2796 4118 0
3157 4118 -0
3158 4118 -0.70516692496269695
3159 4118 -0
3160 4118 -0
3161 4118 -0
3162 4118 -0
1627 4119 0
1628 4119 0
1629 4119 0.016624127736337181
1630 4119 0
1631 4119 0
1632 4119 0
1633 4119 -0
1634 4119 -0
1635 4119 -0.016585933143231667
1636 4119 -0
1637 4119 -0
1638 4119 3.8067926667141391e-05
2791 4119 0
2792 4119 0
2793 4119 0.70516692496269695
2794 4119 0
2795 4119 0
2796 4119 0
3157 4119 -0
3158 4119 -0
3159 4119 -0.70516692496269695
3160 4119 -0
3161 4119 -0
3162 4119 -0
1627 4120 0
1628 4120 0
1629 4120 0
1630 4120 0.49726039206134737
1631 4120 0
1632 4120 0
1633 4120 -0.99668365524927938
1634 4120 0.067678768813813697
1635 4120 -0
1636 4120 -0.49611791657971721
1637 4120 0.067532010077255816
1638 4120 -0
2791 4120 0
2792 4120 0
2793 4120 0
2794 4120 0.70516692496269695
2795 4120 0
2796 4120 0
3157 4120 -0
3158 4120 -0
3159 4120 -0
3160 4120 -0.70516692496269695
3161 4120 -0
3162 4120 -0
1627 4121 0
1628 4121 0
1629 4121 0
1630 4121 0
1631 4121 0.49840543371991375
1632 4121 0
1633 4121 -0.067601049744234934
1634 4121 -0.99553485319114277
1635 4121 -0
1636 4121 -0.067376861357772475
1637 4121 -0.49382500867881207
1638 4121 -0
2791 4121 0
2792 4121 0
2793 4121 0
2794 4121 0
2795 4121 0.70516692496269695
2796 4121 0
3157 4121 -0
3158 4121 -0
3159 4121 -0
3160 4121 -0
3161 4121 -0.70516692496269695
3162 4121 -0
1627 4122 0
1628 4122 0
1629 4122 0
1630 4122 0
1631 4122 0
1632 4122 0.49726039206134764
1633 4122 -0
1634 4122 -0
1635 4122 -0.99668365524927816
1636 4122 -0
1637 4122 -0
1638 4122 -0.49611791657971638
2791 4122 0
2792 4122 0
2793 4122 0
2794 4122 0
2795 4122 0
2796 4122 0.70516692496269695
3157 4122 -0
3158 4122 -0
3159 4122 -0
3160 4122 -0
3161 4122 -0
3162 4122 -0.70516692496269695
775 4123 0.01662412773633716
776 4123 0
777 4123 0
778 4123 0
779 4123 0
780 4123 0
781 4123 -0.016738711515653665
782 4123 5.1859358331731552e-06
783 4123 -0
784 4123 -0.00011420378000142444
785 4123 7.763820444667679e-06
786 4123 -0
2059 4123 0.70516692496269695
2060 4123 0
2061 4123 0
2062 4123 0
2063 4123 0
2064 4123 0
2425 4123 -0.70516692496269695
2426 4123 -0
2427 4123 -0
2428 4123 -0
2429 4123 -0
2430 4123 -0
775 4124 0
776 4124 0.016643240039254284
777 4124 0
778 4124 0
779 4124 0
780 4124 0
781 4124 -0
782 4124 -0.016643240039254253
783 4124 -0
784 4124 -0
785 4124 -0
786 4124 -0
2059 4124 0
2060 4124 0.70516692496269695
2061 4124 0
2062 4124 0
2063 4124 0
2064 4124 0
2425 4124 -0
2426 4124 -0.70516692496269695
2427 4124 -0
2428 4124 -0
2429 4124 -0
2430 4124 -0
775 4125 0
776 4125 0
777 4125 0.016624127736337181
778 4125 0
779 4125 0
780 4125 0
781 4125 -0
782 4125 -0
783 4125 -0.016585933143231667
784 4125 -0
785 4125 -0
786 4125 3.8067926667141391e-05
2059 4125 0
2060 4125 0
2061 4125 0.70516692496269695
2062 4125 0
2063 4125 0
2064 4125 0
2425 4125 -0
2426 4125 -0
2427 4125 -0.70516692496269695
2428 4125 -0
2429 4125 -0
2430 4125 -0
775 4126 0
776 4126 0
777 4126 0
778 4126 0.49726039206134737
779 4126 0
780 4126 0
781 4126 -0.99668365524927938
782 4126 0.067678768813813697
783 4126 -0
784 4126 -0.49611791657971721
785 4126 0.067532010077255816
786 4126 -0
2059 4126 0
2060 4126 0
2061 4126 0
2062 4126 0.70516692496269695
2063 4126 0
2064 4126 0
2425 4126 -0
2426 4126 -0
2427 4126 -0
2428 4126 -0.70516692496269695
2429 4126 -0
2430 4126 -0
775 4127 0
776 4127 0
777 4127 0
778 4127 0
779 4127 0.49840543371991375
780 4127 0
781 4127 -0.067601049744234934
782 4127 -0.99553485319114277
783 4127 -0
784 4127 -0.067376861357772475
785 4127 -0.49382500867881207
786 4127 -0
2059 4127 0
2060 4127 0
2061 4127 0
2062 4127 0
2063 4127 0.70516692496269695
2064 4127 0
2425 4127 -0
2426 4127 -0
2427 4127 -0
2428 4127 -0
2429 4127 -0.70516692496269695
2430 4127 -0
775 4128 0
776 4128 0
777 4128 0
778 4128 0
779 4128 0
780 4128 0.49726039206134764
781 4128 -0
782 4128 -0
783 4128 -0.99668365524927816
784 4128 -0
785 4128 -0
786 4128 -0.49611791657971638
2059 4128 0
2060 4128 0
2061 4128 0
2062 4128 0
2063 4128 0
2064 4128 0.70516692496269695
2425 4128 -0
2426 4128 -0
2427 4128 -0
2428 4128 -0
2429 4128 -0
2430 4128 -0.70516692496269695
